ACCESSION: MSBNK-Eawag-EQ309206
RECORD_TITLE: Diphenylamine; LC-ESI-QFT; MS2; CE: 90; R=35000; [M+H]+
DATE: 2015.08.25
AUTHORS: Beck B, Stravs M, Schymanski E, Singer H, Department of Environmental Chemistry, Eawag
LICENSE: CC BY
COPYRIGHT: Copyright (C) 2015 Eawag, Duebendorf, Switzerland
COMMENT: CONFIDENCE standard compound
COMMENT: EAWAG_UCHEM_ID 3092
CH$NAME: Diphenylamine
CH$NAME: N-phenylaniline
CH$COMPOUND_CLASS: N/A; Environmental Standard
CH$FORMULA: C12H11N
CH$EXACT_MASS: 169.08915
CH$SMILES: c1(Nc2ccccc2)ccccc1
CH$IUPAC: InChI=1S/C12H11N/c1-3-7-11(8-4-1)13-12-9-5-2-6-10-12/h1-10,13H
CH$LINK: CAS 122-39-4
CH$LINK: CHEBI CHEBI:4640
CH$LINK: KEGG C11016
CH$LINK: PUBCHEM CID:11487
CH$LINK: INCHIKEY DMBHHRLKUKUOEG-UHFFFAOYSA-N
CH$LINK: CHEMSPIDER 11003
CH$LINK: COMPTOX DTXSID4021975
AC$INSTRUMENT: Q Exactive Orbitrap Thermo Scientific
AC$INSTRUMENT_TYPE: LC-ESI-QFT
AC$MASS_SPECTROMETRY: MS_TYPE MS2
AC$MASS_SPECTROMETRY: ION_MODE POSITIVE
AC$MASS_SPECTROMETRY: IONIZATION ESI
AC$MASS_SPECTROMETRY: FRAGMENTATION_MODE HCD
AC$MASS_SPECTROMETRY: COLLISION_ENERGY 90 (nominal)
AC$MASS_SPECTROMETRY: RESOLUTION 35000
AC$CHROMATOGRAPHY: COLUMN_NAME XBridge C18 3.5um, 2.1x50mm, Waters
AC$CHROMATOGRAPHY: FLOW_GRADIENT 90/10 at 0 min, 50/50 at 4 min, 5/95 at 17 min, 5/95 at 25 min, 90/10 at 25.1 min, 90/10 at 30 min
AC$CHROMATOGRAPHY: FLOW_RATE 200 ul/min
AC$CHROMATOGRAPHY: RETENTION_TIME 11.3 min
AC$CHROMATOGRAPHY: SOLVENT A water with 0.1% formic acid
AC$CHROMATOGRAPHY: SOLVENT B methanol with 0.1% formic acid
MS$FOCUSED_ION: BASE_PEAK 170.0964
MS$FOCUSED_ION: PRECURSOR_M/Z 170.0964
MS$FOCUSED_ION: PRECURSOR_TYPE [M+H]+
MS$DATA_PROCESSING: DEPROFILE Spline
MS$DATA_PROCESSING: RECALIBRATE loess on assigned fragments and MS1
MS$DATA_PROCESSING: REANALYZE Peaks with additional N2/O included
MS$DATA_PROCESSING: WHOLE RMassBank 1.9.6
PK$SPLASH: splash10-0006-9100000000-5dfcdb1d8c44264cc153
PK$ANNOTATION: m/z tentative_formula formula_count mass error(ppm)
  65.0386 C5H5+ 1 65.0386 -0.25
  66.0464 C5H6+ 1 66.0464 -0.48
  77.0384 C6H5+ 1 77.0386 -2.03
  92.0495 C6H6N+ 1 92.0495 0.59
  93.0572 C6H7N+ 1 93.0573 -0.87
  95.0491 C6H7O+ 1 95.0491 -0.85
  105.0446 C6H5N2+ 1 105.0447 -0.81
  110.0601 C6H8NO+ 1 110.06 0.63
  115.0541 C9H7+ 1 115.0542 -1.19
  128.062 C10H8+ 1 128.0621 -0.4
  129.0698 C10H9+ 1 129.0699 -0.44
  143.0856 C11H11+ 1 143.0855 0.44
  152.062 C12H8+ 1 152.0621 -0.14
  153.0698 C12H9+ 1 153.0699 -0.37
  154.0651 C11H8N+ 1 154.0651 -0.17
  154.0779 C12H10+ 1 154.0777 1.22
  155.0604 C10H7N2+ 1 155.0604 0.1
  155.073 C11H9N+ 1 155.073 0.06
  168.0809 C12H10N+ 1 168.0808 0.86
  169.0649 C12H9O+ 1 169.0648 0.7
  169.0889 C12H11N+ 1 169.0886 1.77
  170.0964 C12H12N+ 1 170.0964 -0.45
PK$NUM_PEAK: 22
PK$PEAK: m/z int. rel.int.
  65.0386 61035206.5 107
  66.0464 13656468.1 24
  77.0384 1644883.2 2
  92.0495 135203440.3 238
  93.0572 566710637.9 999
  95.0491 7751104.9 13
  105.0446 1359019.8 2
  110.0601 1322370.1 2
  115.0541 1118508 1
  128.062 7357517.3 12
  129.0698 1065369.6 1
  143.0856 1937360.8 3
  152.062 27815231.2 49
  153.0698 12037316.6 21
  154.0651 2734310.8 4
  154.0779 879074.7 1
  155.0604 1100319.3 1
  155.073 1742037.9 3
  168.0809 4281002.7 7
  169.0649 2985355.1 5
  169.0889 8092874.5 14
  170.0964 30344564.2 53
//
