ACCESSION: MSBNK-Eawag-EQ418302
RECORD_TITLE: Fluxapyroxad (BAS 700 F)-TP CSCD465008; LC-ESI-QFT; MS2; CE: 30%; R=17500; [M+H]+
DATE: 2019.12.03
AUTHORS: K. Kiefer [dtc], J. Hollender [dtc], H. Singer [dtc], M. Stravs [com]
LICENSE: CC BY-SA
COPYRIGHT: Copyright (C) Eawag 2019
PUBLICATION: Kiefer, K.; Mueller, A.; Singer, H.; Hollender, J. New relevant pesticide transformation products in groundwater detected using target and suspect screening for agricultural and urban micropollutants with LC-HRMS. Water Research 2019, 165. DOI: https://doi.org/10.1016/j.watres.2019.114972
COMMENT: CONFIDENCE standard compound
COMMENT: UCHEM_ID 4183
CH$NAME: Fluxapyroxad (BAS 700 F)-TP CSCD465008
CH$NAME: 3-(Difluoromethyl)-1H-pyrazole-4-carboxylic acid
CH$NAME: 5-(difluoromethyl)-1H-pyrazole-4-carboxylic acid
CH$COMPOUND_CLASS: N/A; Environmental Standard
CH$FORMULA: C5H4F2N2O2
CH$EXACT_MASS: 162.0241
CH$SMILES: OC(=O)C1=CNN=C1C(F)F
CH$IUPAC: InChI=1S/C5H4F2N2O2/c6-4(7)3-2(5(10)11)1-8-9-3/h1,4H,(H,8,9)(H,10,11)
CH$LINK: CAS 151734-02-0
CH$LINK: PUBCHEM CID:19754697
CH$LINK: INCHIKEY IGQNDARULCASRN-UHFFFAOYSA-N
CH$LINK: CHEMSPIDER 14393850
AC$INSTRUMENT: Q Exactive Plus Orbitrap Thermo Scientific
AC$INSTRUMENT_TYPE: LC-ESI-QFT
AC$MASS_SPECTROMETRY: MS_TYPE MS2
AC$MASS_SPECTROMETRY: ION_MODE POSITIVE
AC$MASS_SPECTROMETRY: IONIZATION ESI
AC$MASS_SPECTROMETRY: FRAGMENTATION_MODE HCD
AC$MASS_SPECTROMETRY: COLLISION_ENERGY 30 % (nominal)
AC$MASS_SPECTROMETRY: RESOLUTION 17500
AC$CHROMATOGRAPHY: COLUMN_NAME XBridge C18 3.5um, 2.1x50mm, Waters
AC$CHROMATOGRAPHY: FLOW_GRADIENT 90/10 at 0 min, 50/50 at 4 min, 5/95 at 17 min, 5/95 at 25 min, 90/10 at 25.1 min, 90/10 at 30 min
AC$CHROMATOGRAPHY: FLOW_RATE 200 uL/min
AC$CHROMATOGRAPHY: RETENTION_TIME 2.043 min
AC$CHROMATOGRAPHY: SOLVENT A water with 0.1% formic acid
AC$CHROMATOGRAPHY: SOLVENT B MeOH with 0.1% formic acid
MS$FOCUSED_ION: BASE_PEAK 163.0315
MS$FOCUSED_ION: PRECURSOR_M/Z 163.0314
MS$FOCUSED_ION: PRECURSOR_TYPE [M+H]+
MS$DATA_PROCESSING: RECALIBRATE loess on assigned fragments and MS1
MS$DATA_PROCESSING: REANALYZE Peaks with additional N2/O included
MS$DATA_PROCESSING: WHOLE RMassBank 2.99.1
PK$SPLASH: splash10-00di-0900000000-838e65d40d5aec78b558
PK$ANNOTATION: m/z tentative_formula formula_count mass error(ppm)
  68.0129 C3H2NO+ 1 68.0131 -2.39
  95.0238 C4H3N2O+ 1 95.024 -2.04
  123.0188 C5H3N2O2+ 1 123.0189 -0.82
  143.0251 C5H4FN2O2+ 1 143.0251 -0.5
  163.0313 C5H5F2N2O2+ 1 163.0314 -0.6
PK$NUM_PEAK: 9
PK$PEAK: m/z int. rel.int.
  68.0129 188048.7 10
  95.0238 67891.9 3
  100.9682 64917.8 3
  123.0188 17745412 999
  124.0227 27423.5 1
  141.0294 2853476.2 160
  143.0251 1268377.2 71
  163.0313 8487805 477
  181.0427 22353.1 1
//
