ACCESSION: MSBNK-Eawag-EA029814
RECORD_TITLE: Sulfamethoxazole; LC-ESI-ITFT; MS2; CE: 35%; R=30000; [M+H]+
DATE: 2014.01.14
AUTHORS: Stravs M, Schymanski E, Singer H, Department of Environmental Chemistry, Eawag
LICENSE: CC BY
COPYRIGHT: Copyright (C) 2012 Eawag, Duebendorf, Switzerland
COMMENT: CONFIDENCE standard compound
COMMENT: EAWAG_UCHEM_ID 298
CH$NAME: Sulfamethoxazole
CH$NAME: 4-Amino-N-(5-methyl-3-isoxazolyl)benzenesulfonamide
CH$NAME: 4-amino-N-(5-methyl-1,2-oxazol-3-yl)benzenesulfonamide
CH$COMPOUND_CLASS: N/A; Environmental Standard
CH$FORMULA: C10H11N3O3S
CH$EXACT_MASS: 253.0521
CH$SMILES: c1(S(Nc2cc(C)on2)(=O)=O)ccc(N)cc1
CH$IUPAC: InChI=1S/C10H11N3O3S/c1-7-6-10(12-16-7)13-17(14,15)9-4-2-8(11)3-5-9/h2-6H,11H2,1H3,(H,12,13)
CH$LINK: CAS 723-46-6
CH$LINK: CHEBI CHEBI:9332
CH$LINK: KEGG C07315
CH$LINK: PUBCHEM CID:5329
CH$LINK: INCHIKEY JLKIGFTWXXRPMT-UHFFFAOYSA-N
CH$LINK: CHEMSPIDER 5138
CH$LINK: COMPTOX DTXSID8026064
AC$INSTRUMENT: LTQ Orbitrap XL Thermo Scientific
AC$INSTRUMENT_TYPE: LC-ESI-ITFT
AC$MASS_SPECTROMETRY: MS_TYPE MS2
AC$MASS_SPECTROMETRY: ION_MODE POSITIVE
AC$MASS_SPECTROMETRY: IONIZATION ESI
AC$MASS_SPECTROMETRY: FRAGMENTATION_MODE CID
AC$MASS_SPECTROMETRY: COLLISION_ENERGY 35 % (nominal)
AC$MASS_SPECTROMETRY: RESOLUTION 30000
AC$CHROMATOGRAPHY: COLUMN_NAME XBridge C18 3.5um, 2.1x50mm, Waters
AC$CHROMATOGRAPHY: FLOW_GRADIENT 90/10 at 0 min, 50/50 at 4 min, 5/95 at 17 min, 5/95 at 25 min, 90/10 at 25.1 min, 90/10 at 30 min
AC$CHROMATOGRAPHY: FLOW_RATE 200 ul/min
AC$CHROMATOGRAPHY: RETENTION_TIME 4.6 min
AC$CHROMATOGRAPHY: SOLVENT A water with 0.1% formic acid
AC$CHROMATOGRAPHY: SOLVENT B methanol with 0.1% formic acid
MS$FOCUSED_ION: BASE_PEAK 254.0603
MS$FOCUSED_ION: PRECURSOR_M/Z 254.0594
MS$FOCUSED_ION: PRECURSOR_TYPE [M+H]+
MS$DATA_PROCESSING: DEPROFILE Spline
MS$DATA_PROCESSING: RECALIBRATE loess on assigned fragments and MS1
MS$DATA_PROCESSING: REANALYZE Peaks with additional N2/O included
MS$DATA_PROCESSING: WHOLE RMassBank 1.3.1
PK$SPLASH: splash10-0a4v-0900000000-e147c7f66af9a39125b4
PK$ANNOTATION: m/z tentative_formula formula_count mass error(ppm)
  65.0389 C5H5+ 1 65.0386 4.82
  92.0495 C6H6N+ 1 92.0495 0.05
  93.0573 C6H7N+ 1 93.0573 -0.33
  94.0651 C6H8N+ 1 94.0651 0.05
  99.0553 C4H7N2O+ 1 99.0553 -0.3
  107.0603 C6H7N2+ 1 107.0604 -0.23
  108.0444 C6H6NO+ 1 108.0444 -0.19
  121.076 C7H9N2+ 1 121.076 -0.37
  131.0603 C8H7N2+ 1 131.0604 -0.26
  133.0635 C7H7N3+ 1 133.0634 0.09
  146.0712 C8H8N3+ 1 146.0713 -0.16
  147.0791 C8H9N3+ 1 147.0791 0.28
  148.0869 C8H10N3+ 1 148.0869 -0.23
  156.0114 C6H6NO2S+ 1 156.0114 0.28
  160.0868 C9H10N3+ 1 160.0869 -0.46
  161.0017 C4H5N2O3S+ 1 161.0015 0.69
  161.0709 C9H9N2O+ 1 161.0709 -0.18
  163.0864 C9H11N2O+ 1 163.0866 -1.28
  172.0868 C10H10N3+ 1 172.0869 -0.54
  176.0276 C8H6N3S+ 1 176.0277 -0.54
  188.0819 C10H10N3O+ 1 188.0818 0.54
  190.0975 C10H12N3O+ 1 190.0975 -0.2
  194.0382 C8H8N3OS+ 1 194.0383 -0.2
  236.0488 C10H10N3O2S+ 1 236.0488 -0.27
  254.0593 C10H12N3O3S+ 1 254.0594 -0.27
PK$NUM_PEAK: 25
PK$PEAK: m/z int. rel.int.
  65.0389 2763.9 5
  92.0495 22149.2 46
  93.0573 11822.7 24
  94.0651 15710.6 32
  99.0553 9572.3 19
  107.0603 9672.5 20
  108.0444 58232.9 121
  121.076 2390.5 4
  131.0603 1395.6 2
  133.0635 2100.2 4
  146.0712 52156.8 108
  147.0791 241608.7 503
  148.0869 60232.4 125
  156.0114 478959.7 999
  160.0868 73359 153
  161.0017 2483.1 5
  161.0709 3559.7 7
  163.0864 2884 6
  172.0868 5446.1 11
  176.0276 11980 24
  188.0819 452127 943
  190.0975 180173.4 375
  194.0382 160973.7 335
  236.0488 53907.1 112
  254.0593 20939.3 43
//
