ACCESSION: MSBNK-Eawag-EQ025604
RECORD_TITLE: Hexazinone; LC-ESI-QFT; MS2; CE: 60; R=35000; [M+H]+
DATE: 2015.08.25
AUTHORS: Beck B, Stravs M, Schymanski E, Singer H, Department of Environmental Chemistry, Eawag
LICENSE: CC BY
COPYRIGHT: Copyright (C) 2015 Eawag, Duebendorf, Switzerland
COMMENT: CONFIDENCE standard compound
COMMENT: EAWAG_UCHEM_ID 256
CH$NAME: Hexazinone
CH$NAME: 3-cyclohexyl-6-(dimethylamino)-1-methyl-1,3,5-triazine-2,4-dione
CH$COMPOUND_CLASS: N/A; Environmental Standard
CH$FORMULA: C12H20N4O2
CH$EXACT_MASS: 252.15810
CH$SMILES: n1(C2CCCCC2)c(n(c(N(C)C)nc1=O)C)=O
CH$IUPAC: InChI=1S/C12H20N4O2/c1-14(2)10-13-11(17)16(12(18)15(10)3)9-7-5-4-6-8-9/h9H,4-8H2,1-3H3
CH$LINK: CAS 51235-04-2
CH$LINK: KEGG C10926
CH$LINK: PUBCHEM CID:39965
CH$LINK: INCHIKEY CAWXEEYDBZRFPE-UHFFFAOYSA-N
CH$LINK: CHEMSPIDER 36542
CH$LINK: COMPTOX DTXSID4024145
AC$INSTRUMENT: Q Exactive Plus Orbitrap Thermo Scientific
AC$INSTRUMENT_TYPE: LC-ESI-QFT
AC$MASS_SPECTROMETRY: MS_TYPE MS2
AC$MASS_SPECTROMETRY: ION_MODE POSITIVE
AC$MASS_SPECTROMETRY: IONIZATION ESI
AC$MASS_SPECTROMETRY: FRAGMENTATION_MODE HCD
AC$MASS_SPECTROMETRY: COLLISION_ENERGY 60 (nominal)
AC$MASS_SPECTROMETRY: RESOLUTION 35000
AC$CHROMATOGRAPHY: COLUMN_NAME XBridge C18 3.5um, 2.1x50mm, Waters
AC$CHROMATOGRAPHY: FLOW_GRADIENT 90/10 at 0 min, 50/50 at 4 min, 5/95 at 17 min, 5/95 at 25 min, 90/10 at 25.1 min, 90/10 at 30 min
AC$CHROMATOGRAPHY: FLOW_RATE 200 ul/min
AC$CHROMATOGRAPHY: RETENTION_TIME 7.0 min
AC$CHROMATOGRAPHY: SOLVENT A water with 0.1% formic acid
AC$CHROMATOGRAPHY: SOLVENT B methanol with 0.1% formic acid
MS$FOCUSED_ION: BASE_PEAK 253.1657
MS$FOCUSED_ION: PRECURSOR_M/Z 253.1659
MS$FOCUSED_ION: PRECURSOR_TYPE [M+H]+
MS$DATA_PROCESSING: RECALIBRATE loess on assigned fragments and MS1
MS$DATA_PROCESSING: REANALYZE Peaks with additional N2/O included
MS$DATA_PROCESSING: WHOLE RMassBank 1.9.6
PK$SPLASH: splash10-00di-9500000000-7841149efb829e9ff1a4
PK$ANNOTATION: m/z tentative_formula formula_count mass error(ppm)
  55.0291 C2H3N2+ 1 55.0291 0.83
  55.0543 C4H7+ 1 55.0542 0.61
  56.0369 C2H4N2+ 1 56.0369 -0.35
  57.0447 C2H5N2+ 1 57.0447 -0.61
  58.0287 C2H4NO+ 1 58.0287 -0.52
  58.0652 C3H8N+ 1 58.0651 0.42
  69.0083 C2HN2O+ 1 69.0083 -1.15
  69.0447 C3H5N2+ 1 69.0447 -0.5
  69.9924 C2NO2+ 1 69.9924 0.93
  70.0526 C3H6N2+ 1 70.0525 0.15
  71.0604 C3H7N2+ 1 71.0604 0.08
  72.0444 C3H6NO+ 1 72.0444 -0.14
  83.024 C3H3N2O+ 1 83.024 0.13
  83.0855 C6H11+ 1 83.0855 0.16
  85.076 C4H9N2+ 1 85.076 0.3
  96.0558 C4H6N3+ 1 96.0556 1.32
  101.0346 C3H5N2O2+ 1 101.0346 0.75
  114.0663 C4H8N3O+ 1 114.0662 0.8
  115.0504 C4H7N2O2+ 1 115.0502 1.62
  126.0299 C4H4N3O2+ 1 126.0298 0.93
  128.0819 C5H10N3O+ 1 128.0818 0.48
  140.0456 C5H6N3O2+ 1 140.0455 0.84
  171.0877 C6H11N4O2+ 1 171.0877 0.28
PK$NUM_PEAK: 23
PK$PEAK: m/z int. rel.int.
  55.0291 1155205.6 2
  55.0543 20391352 38
  56.0369 1690355.4 3
  57.0447 1666996.6 3
  58.0287 3661103 6
  58.0652 3385315 6
  69.0083 1921424 3
  69.0447 867528.6 1
  69.9924 1499983.6 2
  70.0526 1089120.8 2
  71.0604 530556992 999
  72.0444 18789260 35
  83.024 32324296 60
  83.0855 15941506 30
  85.076 315737920 594
  96.0558 1003666.2 1
  101.0346 41970152 79
  114.0663 36546488 68
  115.0504 738140.6 1
  126.0299 1030838.4 1
  128.0819 9310935 17
  140.0456 827072.9 1
  171.0877 476538496 897
//
