ACCESSION: MSBNK-Eawag-EQ01149758
RECORD_TITLE: 4-Hydroxybenzaldehyde; LC-ESI-QFT; MS2; CE: 150%; R=17500; [M-H]-
DATE: 2024.05.08
AUTHORS: C. Meyer [dtc], B. Beck [dtc,com], J. Hollender [dtc]
LICENSE: CC BY-SA
COPYRIGHT: Copyright (C) Eawag 2023
PUBLICATION: Meyer, C., Stravs, M., Hollender, J.. How Wastewater Reflects Human Metabolism - Suspect Screening of Pharmaceutical Metabolites in Wastewater Influent. doi:10.1021/acs.est.4c00968
COMMENT: CONFIDENCE standard compound
COMMENT: UCHEM_ID 11497
CH$NAME: 4-Hydroxybenzaldehyde
CH$COMPOUND_CLASS: N/A; Environmental Standard
CH$FORMULA: C7H6O2
CH$EXACT_MASS: 122.0367794
CH$SMILES: C1=CC(=CC=C1C=O)O
CH$IUPAC: InChI=1S/C7H6O2/c8-5-6-1-3-7(9)4-2-6/h1-5,9H
CH$LINK: CHEBI CHEBI:17597
CH$LINK: PUBCHEM CID:126
CH$LINK: INCHIKEY RGHHSNMVTDWUBI-UHFFFAOYSA-N
CH$LINK: CHEMSPIDER 123
AC$INSTRUMENT: Exploris 240 Orbitrap Thermo Scientific
AC$INSTRUMENT_TYPE: LC-ESI-QFT
AC$MASS_SPECTROMETRY: MS_TYPE MS2
AC$MASS_SPECTROMETRY: ION_MODE NEGATIVE
AC$MASS_SPECTROMETRY: IONIZATION ESI
AC$MASS_SPECTROMETRY: FRAGMENTATION_MODE HCD
AC$MASS_SPECTROMETRY: COLLISION_ENERGY 150 % (nominal)
AC$MASS_SPECTROMETRY: RESOLUTION 17500
AC$MASS_SPECTROMETRY: MASS_RANGE_M/Z 40-144
AC$CHROMATOGRAPHY: COLUMN_NAME XBridge C18 3.5um, 2.1x50mm, Waters
AC$CHROMATOGRAPHY: FLOW_GRADIENT 90/10 at 0 min, 50/50 at 4 min, 5/95 at 17 min, 5/95 at 25 min, 90/10 at 25.1 min, 90/10 at 30 min
AC$CHROMATOGRAPHY: FLOW_RATE 200 uL/min
AC$CHROMATOGRAPHY: RETENTION_TIME 3.313 min
MS$FOCUSED_ION: BASE_PEAK 121.0295
MS$FOCUSED_ION: PRECURSOR_M/Z 121.0295
MS$FOCUSED_ION: PRECURSOR_TYPE [M-H]-
MS$DATA_PROCESSING: RECALIBRATE loess on assigned fragments and MS1
MS$DATA_PROCESSING: REANALYZE Peaks with additional N2/O included
MS$DATA_PROCESSING: WHOLE RMassBank 3.15.1
PK$SPLASH: splash10-0006-9000000000-6929d4bf68291b78a108
PK$ANNOTATION: m/z tentative_formula formula_count mass error(ppm)
  41.0033 C2HO- 1 41.0033 0.21
  49.0084 C4H- 1 49.0084 0.75
  65.0033 C4HO- 1 65.0033 -0.43
  65.0396 C5H5- 1 65.0397 -0.56
  67.019 C4H3O- 1 67.0189 0.7
  70.0058 C3H2O2- 1 70.006 -3.03
  91.0191 C6H3O- 1 91.0189 1.71
  92.0268 C6H4O- 1 92.0268 0.38
  93.0347 C6H5O- 1 93.0346 0.97
  95.0139 C5H3O2- 1 95.0139 0.1
  108.0216 C6H4O2- 1 108.0217 -0.74
  120.0219 C7H4O2- 1 120.0217 1.96
  121.0295 C7H5O2- 1 121.0295 0.13
PK$NUM_PEAK: 13
PK$PEAK: m/z int. rel.int.
  41.0033 4995375.5 118
  49.0084 576042.9 13
  65.0033 480617.4 11
  65.0396 1582320.8 37
  67.019 381659.8 9
  70.0058 458193.8 10
  91.0191 1854980.1 44
  92.0268 42024592 999
  93.0347 3993307 94
  95.0139 1229394.8 29
  108.0216 1277167.1 30
  120.0219 1145020.8 27
  121.0295 2475501 58
//
