ACCESSION: MSBNK-Eawag-EQ368651
RECORD_TITLE: Indapamide; LC-ESI-QFT; MS2; CE: 15; R=35000; [M-H]-
DATE: 2015.08.26
AUTHORS: Stravs M, Schymanski E, Singer H, Department of Environmental Chemistry, Eawag and Thomaidis N, University of Athens
LICENSE: CC BY
COPYRIGHT: Copyright (C) 2015 Eawag, Duebendorf, Switzerland
COMMENT: CONFIDENCE standard compound
COMMENT: EAWAG_UCHEM_ID 3686
CH$NAME: Indapamide
CH$NAME: 4-chloro-N-(2-methyl-2,3-dihydroindol-1-yl)-3-sulfamoylbenzamide
CH$COMPOUND_CLASS: N/A; Environmental Standard
CH$FORMULA: C16H16ClN3O3S
CH$EXACT_MASS: 365.06009
CH$SMILES: CC1CC2=CC=CC=C2N1NC(=O)C3=CC(=C(C=C3)Cl)S(=O)(=O)N
CH$IUPAC: InChI=1S/C16H16ClN3O3S/c1-10-8-11-4-2-3-5-14(11)20(10)19-16(21)12-6-7-13(17)15(9-12)24(18,22)23/h2-7,9-10H,8H2,1H3,(H,19,21)(H2,18,22,23)
CH$LINK: CAS 26807-65-8
CH$LINK: CHEBI CHEBI:5893
CH$LINK: PUBCHEM CID:3702
CH$LINK: INCHIKEY NDDAHWYSQHTHNT-UHFFFAOYSA-N
CH$LINK: CHEMSPIDER 3574
CH$LINK: COMPTOX DTXSID7044633
AC$INSTRUMENT: Q Exactive Plus Orbitrap Thermo Scientific
AC$INSTRUMENT_TYPE: LC-ESI-QFT
AC$MASS_SPECTROMETRY: MS_TYPE MS2
AC$MASS_SPECTROMETRY: ION_MODE NEGATIVE
AC$MASS_SPECTROMETRY: IONIZATION ESI
AC$MASS_SPECTROMETRY: FRAGMENTATION_MODE HCD
AC$MASS_SPECTROMETRY: COLLISION_ENERGY 15 (nominal)
AC$MASS_SPECTROMETRY: RESOLUTION 35000
AC$CHROMATOGRAPHY: COLUMN_NAME XBridge C18 3.5um, 2.1x50mm, Waters
AC$CHROMATOGRAPHY: FLOW_GRADIENT 90/10 at 0 min, 50/50 at 4 min, 5/95 at 17 min, 5/95 at 25 min, 90/10 at 25.1 min, 90/10 at 30 min
AC$CHROMATOGRAPHY: FLOW_RATE 200 ul/min
AC$CHROMATOGRAPHY: RETENTION_TIME 6.7 min
AC$CHROMATOGRAPHY: SOLVENT A water with 0.1% formic acid
AC$CHROMATOGRAPHY: SOLVENT B methanol with 0.1% formic acid
MS$FOCUSED_ION: BASE_PEAK 364.0524
MS$FOCUSED_ION: PRECURSOR_M/Z 364.0528
MS$FOCUSED_ION: PRECURSOR_TYPE [M-H]-
MS$DATA_PROCESSING: RECALIBRATE loess on assigned fragments and MS1
MS$DATA_PROCESSING: REANALYZE Peaks with additional N2/O included
MS$DATA_PROCESSING: WHOLE RMassBank 1.9.6
PK$SPLASH: splash10-03di-0009000000-ed04e0a5871badc8b166
PK$ANNOTATION: m/z tentative_formula formula_count mass error(ppm)
  188.9645 C9HO3S- 1 188.9652 -3.54
  215.9526 C7H3ClNO3S- 1 215.9528 -0.72
  232.9792 C7H6ClN2O3S- 3 232.9793 -0.49
  364.0526 C16H15ClN3O3S- 1 364.0528 -0.7
PK$NUM_PEAK: 4
PK$PEAK: m/z int. rel.int.
  188.9645 705708.1 4
  215.9526 179332.1 1
  232.9792 380635.7 2
  364.0526 142449280 999
//
