ACCESSION: MSBNK-Eawag-EQ00376605
RECORD_TITLE: Carbetapentane; LC-ESI-QFT; MS2; CE: 75%; R=15000; [M+H]+
DATE: 2024.06.14
AUTHORS: F. Jud [dtc], K. Arturi [dtc], J. Hollender [dtc], A. Dax [com]
LICENSE: CC BY-SA
COPYRIGHT: Copyright (C) Eawag 2024
COMMENT: CONFIDENCE standard compound
COMMENT: UCHEM_ID 3766
CH$NAME: Carbetapentane
CH$NAME: 2-[2-(diethylamino)ethoxy]ethyl 1-phenylcyclopentane-1-carboxylate
CH$COMPOUND_CLASS: N/A
CH$FORMULA: C20H31NO3
CH$EXACT_MASS: 333.2303939
CH$SMILES: CCN(CC)CCOCCOC(=O)C1(CCCC1)C2=CC=CC=C2
CH$IUPAC: InChI=1S/C20H31NO3/c1-3-21(4-2)14-15-23-16-17-24-19(22)20(12-8-9-13-20)18-10-6-5-7-11-18/h5-7,10-11H,3-4,8-9,12-17H2,1-2H3
CH$LINK: CAS 77-23-6
CH$LINK: CHEBI CHEBI:94484
CH$LINK: KEGG D08334
CH$LINK: PUBCHEM CID:2562
CH$LINK: INCHIKEY CFJMRBQWBDQYMK-UHFFFAOYSA-N
CH$LINK: CHEMSPIDER 2464
AC$INSTRUMENT: Exploris 240 Thermo Scientific
AC$INSTRUMENT_TYPE: LC-ESI-QFT
AC$MASS_SPECTROMETRY: MS_TYPE MS2
AC$MASS_SPECTROMETRY: ION_MODE POSITIVE
AC$MASS_SPECTROMETRY: IONIZATION ESI
AC$MASS_SPECTROMETRY: FRAGMENTATION_MODE HCD
AC$MASS_SPECTROMETRY: COLLISION_ENERGY 75 % (nominal)
AC$MASS_SPECTROMETRY: RESOLUTION 15000
AC$MASS_SPECTROMETRY: MASS_RANGE_M/Z 50-362
AC$CHROMATOGRAPHY: COLUMN_NAME XBridge C18 3.5um, 2.1x50mm, Waters
AC$CHROMATOGRAPHY: FLOW_GRADIENT 90/10 at 0 min, 50/50 at 4 min, 5/95 at 17 min, 5/95 at 25 min, 90/10 at 25.1 min, 90/10 at 30 min
AC$CHROMATOGRAPHY: FLOW_RATE 200 uL/min
AC$CHROMATOGRAPHY: RETENTION_TIME 6.712 min
MS$FOCUSED_ION: BASE_PEAK 334.2377
MS$FOCUSED_ION: PRECURSOR_M/Z 334.2377
MS$FOCUSED_ION: PRECURSOR_TYPE [M+H]+
MS$DATA_PROCESSING: RECALIBRATE loess on assigned fragments and MS1
MS$DATA_PROCESSING: REANALYZE Peaks with additional N2/O included
MS$DATA_PROCESSING: WHOLE RMassBank 3.15.1.1
PK$SPLASH: splash10-0ukc-9600000000-ad5d4961e6237e895794
PK$ANNOTATION: m/z tentative_formula formula_count mass error(ppm)
  67.0542 C5H7+ 1 67.0542 0.1
  72.0808 C4H10N+ 1 72.0808 0.6
  73.0285 C3H5O2+ 1 73.0284 1.13
  91.0543 C7H7+ 1 91.0542 0.84
  100.1121 C6H14N+ 1 100.1121 0.66
  145.1013 C11H13+ 1 145.1012 0.99
PK$NUM_PEAK: 6
PK$PEAK: m/z int. rel.int.
  67.0542 12624488 93
  72.0808 104853688 778
  73.0285 22067878 163
  91.0543 77758712 576
  100.1121 134638352 999
  145.1013 21965632 162
//
