ACCESSION: MSBNK-Eawag-EQ00379301
RECORD_TITLE: Butachlor; LC-ESI-QFT; MS2; CE: 15%; R=15000; [M+H]+
DATE: 2024.06.14
AUTHORS: F. Jud [dtc], K. Arturi [dtc], J. Hollender [dtc], A. Dax [com]
LICENSE: CC BY-SA
COPYRIGHT: Copyright (C) Eawag 2024
COMMENT: CONFIDENCE standard compound
COMMENT: UCHEM_ID 3793
CH$NAME: Butachlor
CH$NAME: N-(butoxymethyl)-2-chloro-N-(2,6-diethylphenyl)acetamide
CH$COMPOUND_CLASS: N/A
CH$FORMULA: C17H26ClNO2
CH$EXACT_MASS: 311.1652068
CH$SMILES: CCCCOCN(C1=C(C=CC=C1CC)CC)C(=O)CCl
CH$IUPAC: InChI=1S/C17H26ClNO2/c1-4-7-11-21-13-19(16(20)12-18)17-14(5-2)9-8-10-15(17)6-3/h8-10H,4-7,11-13H2,1-3H3
CH$LINK: CAS 23184-66-9
CH$LINK: CHEBI CHEBI:3230
CH$LINK: KEGG C10931
CH$LINK: PUBCHEM CID:31677
CH$LINK: INCHIKEY HKPHPIREJKHECO-UHFFFAOYSA-N
CH$LINK: CHEMSPIDER 29376
AC$INSTRUMENT: Exploris 240 Thermo Scientific
AC$INSTRUMENT_TYPE: LC-ESI-QFT
AC$MASS_SPECTROMETRY: MS_TYPE MS2
AC$MASS_SPECTROMETRY: ION_MODE POSITIVE
AC$MASS_SPECTROMETRY: IONIZATION ESI
AC$MASS_SPECTROMETRY: FRAGMENTATION_MODE HCD
AC$MASS_SPECTROMETRY: COLLISION_ENERGY 15 % (nominal)
AC$MASS_SPECTROMETRY: RESOLUTION 15000
AC$MASS_SPECTROMETRY: MASS_RANGE_M/Z 50-339
AC$CHROMATOGRAPHY: COLUMN_NAME XBridge C18 3.5um, 2.1x50mm, Waters
AC$CHROMATOGRAPHY: FLOW_GRADIENT 90/10 at 0 min, 50/50 at 4 min, 5/95 at 17 min, 5/95 at 25 min, 90/10 at 25.1 min, 90/10 at 30 min
AC$CHROMATOGRAPHY: FLOW_RATE 200 uL/min
AC$CHROMATOGRAPHY: RETENTION_TIME 13.643 min
MS$FOCUSED_ION: BASE_PEAK 238.0989
MS$FOCUSED_ION: PRECURSOR_M/Z 312.1725
MS$FOCUSED_ION: PRECURSOR_TYPE [M+H]+
MS$DATA_PROCESSING: RECALIBRATE loess on assigned fragments and MS1
MS$DATA_PROCESSING: REANALYZE Peaks with additional N2/O included
MS$DATA_PROCESSING: WHOLE RMassBank 3.15.1.1
PK$SPLASH: splash10-000i-3090000000-0e4cb1e2c9517b023450
PK$ANNOTATION: m/z tentative_formula formula_count mass error(ppm)
  57.0698 C4H9+ 1 57.0699 -1.47
  87.0803 C5H11O+ 1 87.0804 -1.94
  162.1271 C11H16N+ 1 162.1277 -4.11
  238.0988 C16H14O2+ 2 238.0988 -0.11
PK$NUM_PEAK: 4
PK$PEAK: m/z int. rel.int.
  57.0698 1446854.4 235
  87.0803 986168.9 160
  162.1271 200470.6 32
  238.0988 6145965 999
//
