ACCESSION: MSBNK-Eawag-EA016704
RECORD_TITLE: 5-Methyl-1H-benzotriazole; LC-ESI-ITFT; MS2; CE: 45%; R=7500; [M+H]+
DATE: 2014.01.14
AUTHORS: Stravs M, Schymanski E, Singer H, Department of Environmental Chemistry, Eawag
LICENSE: CC BY
COPYRIGHT: Copyright (C) 2012 Eawag, Duebendorf, Switzerland
COMMENT: CONFIDENCE standard compound
COMMENT: EAWAG_UCHEM_ID 167
CH$NAME: 5-Methyl-1H-benzotriazole
CH$COMPOUND_CLASS: N/A; Environmental Standard
CH$FORMULA: C7H7N3
CH$EXACT_MASS: 133.0640
CH$SMILES: c12c(cc(C)cc2)nn[nH]1
CH$IUPAC: InChI=1S/C7H7N3/c1-5-2-3-6-7(4-5)9-10-8-6/h2-4H,1H3,(H,8,9,10)
CH$LINK: CAS 136-85-6
CH$LINK: PUBCHEM CID:8705
CH$LINK: INCHIKEY LRUDIIUSNGCQKF-UHFFFAOYSA-N
CH$LINK: CHEMSPIDER 8381
CH$LINK: COMPTOX DTXSID1038743
AC$INSTRUMENT: LTQ Orbitrap XL Thermo Scientific
AC$INSTRUMENT_TYPE: LC-ESI-ITFT
AC$MASS_SPECTROMETRY: MS_TYPE MS2
AC$MASS_SPECTROMETRY: ION_MODE POSITIVE
AC$MASS_SPECTROMETRY: IONIZATION ESI
AC$MASS_SPECTROMETRY: FRAGMENTATION_MODE HCD
AC$MASS_SPECTROMETRY: COLLISION_ENERGY 45 % (nominal)
AC$MASS_SPECTROMETRY: RESOLUTION 7500
AC$CHROMATOGRAPHY: COLUMN_NAME XBridge C18 3.5um, 2.1x50mm, Waters
AC$CHROMATOGRAPHY: FLOW_GRADIENT 90/10 at 0 min, 50/50 at 4 min, 5/95 at 17 min, 5/95 at 25 min, 90/10 at 25.1 min, 90/10 at 30 min
AC$CHROMATOGRAPHY: FLOW_RATE 200 ul/min
AC$CHROMATOGRAPHY: RETENTION_TIME 5.8 min
AC$CHROMATOGRAPHY: SOLVENT A water with 0.1% formic acid
AC$CHROMATOGRAPHY: SOLVENT B methanol with 0.1% formic acid
MS$FOCUSED_ION: BASE_PEAK 134.0712
MS$FOCUSED_ION: PRECURSOR_M/Z 134.0713
MS$FOCUSED_ION: PRECURSOR_TYPE [M+H]+
MS$DATA_PROCESSING: DEPROFILE Spline
MS$DATA_PROCESSING: RECALIBRATE loess on assigned fragments and MS1
MS$DATA_PROCESSING: REANALYZE Peaks with additional N2/O included
MS$DATA_PROCESSING: WHOLE RMassBank 1.3.1
PK$SPLASH: splash10-001i-0900000000-ea3a14d29ef3c2b67188
PK$ANNOTATION: m/z tentative_formula formula_count mass error(ppm)
  77.0384 C6H5+ 1 77.0386 -1.9
  79.0543 C6H7+ 1 79.0542 1.18
  106.0653 C7H8N+ 1 106.0651 1.36
  134.0715 C7H8N3+ 1 134.0713 1.54
PK$NUM_PEAK: 4
PK$PEAK: m/z int. rel.int.
  77.0384 122221.7 4
  79.0543 359202.1 14
  106.0653 485892.6 19
  134.0715 24850128.5 999
//
