ACCESSION: MSBNK-Eawag-EA008514
RECORD_TITLE: 2,6-Dichlorobenzamide; LC-ESI-ITFT; MS2; CE: 35%; R=30000; [M+H]+
DATE: 2014.01.14
AUTHORS: Stravs M, Schymanski E, Singer H, Department of Environmental Chemistry, Eawag
LICENSE: CC BY
COPYRIGHT: Copyright (C) 2012 Eawag, Duebendorf, Switzerland
COMMENT: CONFIDENCE standard compound
COMMENT: EAWAG_UCHEM_ID 85
CH$NAME: 2,6-Dichlorobenzamide
CH$NAME: 2,6-bis(chloranyl)benzamide
CH$COMPOUND_CLASS: N/A; Environmental Standard
CH$FORMULA: C7H5Cl2NO
CH$EXACT_MASS: 188.9748
CH$SMILES: ClC1=C(C(N)=O)C(Cl)=CC=C1
CH$IUPAC: InChI=1S/C7H5Cl2NO/c8-4-2-1-3-5(9)6(4)7(10)11/h1-3H,(H2,10,11)
CH$LINK: CAS 2008-58-4
CH$LINK: CHEBI CHEBI:28435
CH$LINK: KEGG C10934
CH$LINK: PUBCHEM CID:16183
CH$LINK: INCHIKEY JHSPCUHPSIUQRB-UHFFFAOYSA-N
CH$LINK: CHEMSPIDER 15359
CH$LINK: COMPTOX DTXSID7022170
AC$INSTRUMENT: LTQ Orbitrap XL Thermo Scientific
AC$INSTRUMENT_TYPE: LC-ESI-ITFT
AC$MASS_SPECTROMETRY: MS_TYPE MS2
AC$MASS_SPECTROMETRY: ION_MODE POSITIVE
AC$MASS_SPECTROMETRY: IONIZATION ESI
AC$MASS_SPECTROMETRY: FRAGMENTATION_MODE CID
AC$MASS_SPECTROMETRY: COLLISION_ENERGY 35 % (nominal)
AC$MASS_SPECTROMETRY: RESOLUTION 30000
AC$CHROMATOGRAPHY: COLUMN_NAME XBridge C18 3.5um, 2.1x50mm, Waters
AC$CHROMATOGRAPHY: FLOW_GRADIENT 90/10 at 0 min, 50/50 at 4 min, 5/95 at 17 min, 5/95 at 25 min, 90/10 at 25.1 min, 90/10 at 30 min
AC$CHROMATOGRAPHY: FLOW_RATE 200 ul/min
AC$CHROMATOGRAPHY: RETENTION_TIME 4.0 min
AC$CHROMATOGRAPHY: SOLVENT A water with 0.1% formic acid
AC$CHROMATOGRAPHY: SOLVENT B methanol with 0.1% formic acid
MS$FOCUSED_ION: BASE_PEAK 189.9823
MS$FOCUSED_ION: PRECURSOR_M/Z 189.9821
MS$FOCUSED_ION: PRECURSOR_TYPE [M+H]+
MS$DATA_PROCESSING: DEPROFILE Spline
MS$DATA_PROCESSING: RECALIBRATE loess on assigned fragments and MS1
MS$DATA_PROCESSING: REANALYZE Peaks with additional N2/O included
MS$DATA_PROCESSING: WHOLE RMassBank 1.3.1
PK$SPLASH: splash10-00di-0900000000-ae198fc22397fbb99ab8
PK$ANNOTATION: m/z tentative_formula formula_count mass error(ppm)
  108.9837 C6H2Cl+ 1 108.984 -2.24
  144.9605 C6H3Cl2+ 1 144.9606 -1.05
  146.9762 C6H5Cl2+ 1 146.9763 -0.83
  171.9714 C7H4Cl2N+ 1 171.9715 -0.53
  172.9555 C7H3Cl2O+ 1 172.9555 -0.44
  189.9818 C7H6Cl2NO+ 1 189.9821 -1.82
PK$NUM_PEAK: 6
PK$PEAK: m/z int. rel.int.
  108.9837 3277.6 1
  144.9605 2800.4 1
  146.9762 50647.2 19
  171.9714 30643.8 11
  172.9555 2651656.5 999
  189.9818 21934.3 8
//
