ACCESSION: MSBNK-Eawag-EQ300606
RECORD_TITLE: Pyrilamine; LC-ESI-QFT; MS2; CE: 90; R=35000; [M+H]+
DATE: 2015.08.25
AUTHORS: Beck B, Stravs M, Schymanski E, Singer H, Department of Environmental Chemistry, Eawag
LICENSE: CC BY
COPYRIGHT: Copyright (C) 2015 Eawag, Duebendorf, Switzerland
COMMENT: CONFIDENCE standard compound
COMMENT: EAWAG_UCHEM_ID 3006
CH$NAME: Pyrilamine
CH$NAME: N`-[(4-methoxyphenyl)methyl]-N,N-dimethyl-N`-(2-pyridinyl)ethane-1,2-diamine
CH$COMPOUND_CLASS: N/A; Environmental Standard
CH$FORMULA: C17H23N3O
CH$EXACT_MASS: 285.18411
CH$SMILES: O(c1ccc(cc1)CN(c2ncccc2)CCN(C)C)C
CH$IUPAC: InChI=1S/C17H23N3O/c1-19(2)12-13-20(17-6-4-5-11-18-17)14-15-7-9-16(21-3)10-8-15/h4-11H,12-14H2,1-3H3
CH$LINK: CAS 102206-59-7
CH$LINK: CHEBI CHEBI:6762
CH$LINK: KEGG C11798
CH$LINK: PUBCHEM CID:4992
CH$LINK: INCHIKEY YECBIJXISLIIDS-UHFFFAOYSA-N
CH$LINK: CHEMSPIDER 4818
CH$LINK: COMPTOX DTXSID9023542
AC$INSTRUMENT: Q Exactive Orbitrap Thermo Scientific
AC$INSTRUMENT_TYPE: LC-ESI-QFT
AC$MASS_SPECTROMETRY: MS_TYPE MS2
AC$MASS_SPECTROMETRY: ION_MODE POSITIVE
AC$MASS_SPECTROMETRY: IONIZATION ESI
AC$MASS_SPECTROMETRY: FRAGMENTATION_MODE HCD
AC$MASS_SPECTROMETRY: COLLISION_ENERGY 90 (nominal)
AC$MASS_SPECTROMETRY: RESOLUTION 35000
AC$CHROMATOGRAPHY: COLUMN_NAME XBridge C18 3.5um, 2.1x50mm, Waters
AC$CHROMATOGRAPHY: FLOW_GRADIENT 90/10 at 0 min, 50/50 at 4 min, 5/95 at 17 min, 5/95 at 25 min, 90/10 at 25.1 min, 90/10 at 30 min
AC$CHROMATOGRAPHY: FLOW_RATE 200 ul/min
AC$CHROMATOGRAPHY: RETENTION_TIME 5.2 min
AC$CHROMATOGRAPHY: SOLVENT A water with 0.1% formic acid
AC$CHROMATOGRAPHY: SOLVENT B methanol with 0.1% formic acid
MS$FOCUSED_ION: BASE_PEAK 286.1919
MS$FOCUSED_ION: PRECURSOR_M/Z 286.1914
MS$FOCUSED_ION: PRECURSOR_TYPE [M+H]+
MS$DATA_PROCESSING: DEPROFILE Spline
MS$DATA_PROCESSING: RECALIBRATE loess on assigned fragments and MS1
MS$DATA_PROCESSING: REANALYZE Peaks with additional N2/O included
MS$DATA_PROCESSING: WHOLE RMassBank 1.9.6
PK$SPLASH: splash10-00di-2900000000-fbd3ea6b25f6238e4903
PK$ANNOTATION: m/z tentative_formula formula_count mass error(ppm)
  65.0387 C5H5+ 1 65.0386 1.74
  70.0652 C4H8N+ 1 70.0651 1.63
  72.0809 C4H10N+ 1 72.0808 1.31
  77.0387 C6H5+ 1 77.0386 1.6
  78.0465 C6H6+ 1 78.0464 1.52
  79.018 C5H3O+ 1 79.0178 1.5
  81.0336 C5H5O+ 1 81.0335 1.59
  91.0544 C7H7+ 1 91.0542 1.46
  93.07 C7H9+ 1 93.0699 1.32
  95.0493 C6H7O+ 1 95.0491 1.35
  96.0446 C5H6NO+ 1 96.0444 1.66
  103.0545 C8H7+ 1 103.0542 2.26
  105.0449 C6H5N2+ 1 105.0447 1.48
  106.0415 C7H6O+ 1 106.0413 1.36
  107.0492 C7H7O+ 1 107.0491 0.64
  119.0606 C7H7N2+ 1 119.0604 1.72
  121.065 C8H9O+ 1 121.0648 1.64
PK$NUM_PEAK: 17
PK$PEAK: m/z int. rel.int.
  65.0387 4478930.8 10
  70.0652 623648.5 1
  72.0809 3393460.5 7
  77.0387 7053528.7 16
  78.0465 30166509.5 69
  79.018 704305.7 1
  81.0336 1026142.4 2
  91.0544 55451325.3 128
  93.07 3881526 8
  95.0493 43898221.2 101
  96.0446 928015 2
  103.0545 860553 1
  105.0449 12624410.2 29
  106.0415 10827390.9 25
  107.0492 956523.4 2
  119.0606 1327279.8 3
  121.065 430936071.4 999
//
