ACCESSION: MSBNK-Eawag-EQ324705
RECORD_TITLE: MCLF; LC-ESI-QFT; MS2; CE: 75%; R=17500; [M+H]+
DATE: 2020.02.03
AUTHORS: E. Janssen [dtc], B. Lauper [com]
LICENSE: CC BY-SA
COPYRIGHT: Copyright (C) Eawag 2019
COMMENT: CONFIDENCE standard compound
COMMENT: UCHEM_ID 3247
COMMENT: NaToxAq - Natural Toxins and Drinking Water Quality - From Source to Tap (https://natoxaq.ku.dk)
CH$NAME: MCLF
CH$NAME: Microcystin LF
CH$NAME: 15-benzyl-18-[(1E,3E)-6-methoxy-3,5-dimethyl-7-phenylhepta-1,3-dienyl]-1,5,12,19-tetramethyl-2-methylidene-8-(2-methylpropyl)-3,6,9,13,16,20,25-heptaoxo-1,4,7,10,14,17,21-heptazacyclopentacosane-11,22-dicarboxylic acid
CH$COMPOUND_CLASS: NA
CH$FORMULA: C52H71N7O12
CH$EXACT_MASS: 985.5161
CH$SMILES: COC(Cc1ccccc1)C(C)/C=C(C)/C=C/C2NC(=O)C(Cc3ccccc3)NC(=O)C(C)C(NC(=O)C(CC(C)C)NC(=O)C(C)NC(=O)C(=C)N(C)C(=O)CCC(NC(=O)C2C)C(O)=O)C(O)=O
CH$IUPAC: InChI=1S/C52H71N7O12/c1-29(2)25-40-50(66)58-44(52(69)70)33(6)46(62)56-41(27-36-17-13-11-14-18-36)49(65)54-38(22-21-30(3)26-31(4)42(71-10)28-37-19-15-12-16-20-37)32(5)45(61)55-39(51(67)68)23-24-43(60)59(9)35(8)48(64)53-34(7)47(63)57-40/h11-22,26,29,31-34,38-42,44H,8,23-25,27-28H2,1-7,9-10H3,(H,53,64)(H,54,65)(H,55,61)(H,56,62)(H,57,63)(H,58,66)(H,67,68)(H,69,70)/b22-21+,30-26+
CH$LINK: PUBCHEM CID:6442256
CH$LINK: INCHIKEY FEVBMCJUKWWWBT-BNIOFCGNSA-N
CH$LINK: CHEMSPIDER 4946344
AC$INSTRUMENT: Q Exactive Plus Orbitrap Thermo Scientific
AC$INSTRUMENT_TYPE: LC-ESI-QFT
AC$MASS_SPECTROMETRY: MS_TYPE MS2
AC$MASS_SPECTROMETRY: ION_MODE POSITIVE
AC$MASS_SPECTROMETRY: IONIZATION ESI
AC$MASS_SPECTROMETRY: FRAGMENTATION_MODE HCD
AC$MASS_SPECTROMETRY: COLLISION_ENERGY 75 % (nominal)
AC$MASS_SPECTROMETRY: RESOLUTION 17500
AC$CHROMATOGRAPHY: COLUMN_NAME XBridge C18 3.5um, 2.1x50mm, Waters
AC$CHROMATOGRAPHY: FLOW_GRADIENT 90/10 at 0 min, 50/50 at 4 min, 5/95 at 17 min, 5/95 at 25 min, 90/10 at 25.1 min, 90/10 at 30 min
AC$CHROMATOGRAPHY: FLOW_RATE 200 uL/min
AC$CHROMATOGRAPHY: RETENTION_TIME 12.318 min
AC$CHROMATOGRAPHY: SOLVENT A water with 0.1% formic acid
AC$CHROMATOGRAPHY: SOLVENT B MeOH with 0.1% formic acid
MS$FOCUSED_ION: BASE_PEAK 164.9846
MS$FOCUSED_ION: PRECURSOR_M/Z 986.5233
MS$FOCUSED_ION: PRECURSOR_TYPE [M+H]+
MS$DATA_PROCESSING: RECALIBRATE loess on assigned fragments and MS1
MS$DATA_PROCESSING: REANALYZE Peaks with additional N2/O included
MS$DATA_PROCESSING: WHOLE RMassBank 2.99.1
PK$SPLASH: splash10-0pdl-3900000000-cff9e2de6fadb914f2c5
PK$ANNOTATION: m/z tentative_formula formula_count mass error(ppm)
  69.0335 C4H5O+ 1 69.0335 0.25
  69.0698 C5H9+ 1 69.0699 -0.42
  74.0236 C2H4NO2+ 1 74.0237 -0.24
  77.0384 C6H5+ 1 77.0386 -2.71
  79.0542 C6H7+ 1 79.0542 -0.4
  80.0495 C5H6N+ 1 80.0495 0.37
  81.0698 C6H9+ 1 81.0699 -0.97
  82.0287 C4H4NO+ 1 82.0287 -0.56
  82.0651 C5H8N+ 1 82.0651 -0.2
  84.0444 C4H6NO+ 1 84.0444 0.26
  85.0283 C4H5O2+ 1 85.0284 -1.54
  86.0964 C5H12N+ 1 86.0964 -0.26
  91.0543 C7H7+ 1 91.0542 0.26
  92.062 C7H8+ 1 92.0621 -0.38
  93.0699 C7H9+ 1 93.0699 0.62
  94.0651 C6H8N+ 1 94.0651 -0.23
  95.0491 C6H7O+ 1 95.0491 -0.06
  95.0856 C7H11+ 1 95.0855 1.29
  96.0446 C5H6NO+ 1 96.0444 1.68
  96.0807 C6H10N+ 1 96.0808 -0.32
  99.0917 C5H11N2+ 1 99.0917 -0.04
  102.0463 C8H6+ 1 102.0464 -0.63
  102.055 C4H8NO2+ 1 102.055 -0.04
  103.0542 C8H7+ 1 103.0542 -0.14
  105.0447 C6H5N2+ 1 105.0447 0
  105.0699 C8H9+ 1 105.0699 0.16
  106.065 C7H8N+ 1 106.0651 -1.08
  107.0855 C8H11+ 1 107.0855 -0.21
  108.0682 C6H8N2+ 1 108.0682 0.08
  108.0806 C7H10N+ 1 108.0808 -1.64
  109.0648 C7H9O+ 1 109.0648 0.34
  110.0601 C6H8NO+ 1 110.06 0.53
  110.0965 C7H12N+ 1 110.0964 0.24
  113.0233 C5H5O3+ 1 113.0233 -0.37
  113.0706 C5H9N2O+ 1 113.0709 -2.63
  115.0543 C9H7+ 1 115.0542 0.49
  116.062 C9H8+ 1 116.0621 -0.68
  117.0699 C9H9+ 1 117.0699 -0.08
  118.065 C8H8N+ 1 118.0651 -1.01
  119.0604 C7H7N2+ 1 119.0604 -0.02
  119.0854 C9H11+ 1 119.0855 -0.71
  120.0808 C8H10N+ 1 120.0808 -0.04
  121.0759 C7H9N2+ 1 121.076 -0.82
  121.101 C9H13+ 1 121.1012 -1.44
  122.0598 C7H8NO+ 1 122.06 -2.05
  122.0841 C7H10N2+ 1 122.0838 1.71
  122.0963 C8H12N+ 1 122.0964 -1.12
  123.0915 C7H11N2+ 1 123.0917 -1.24
  124.0754 C7H10NO+ 1 124.0757 -1.99
  124.1118 C8H14N+ 1 124.1121 -2
  127.0866 C6H11N2O+ 1 127.0866 -0.22
  128.0621 C10H8+ 1 128.0621 0.12
  128.0708 C6H10NO2+ 1 128.0706 1.24
  129.0698 C10H9+ 1 129.0699 -0.9
  130.0498 C5H8NO3+ 1 130.0499 -0.28
  130.0651 C9H8N+ 1 130.0651 -0.14
  130.0776 C10H10+ 1 130.0777 -0.98
  131.0855 C10H11+ 1 131.0855 -0.13
  132.0807 C9H10N+ 1 132.0808 -0.55
  133.1009 C10H13+ 1 133.1012 -2.16
  134.0961 C9H12N+ 1 134.0964 -2.12
  135.0803 C9H11O+ 1 135.0804 -0.68
  135.1167 C10H15+ 1 135.1168 -1.2
  138.0549 C7H8NO2+ 1 138.055 -0.64
  139.0867 C7H11N2O+ 1 139.0866 0.44
  141.0695 C11H9+ 1 141.0699 -2.9
  143.0736 C10H9N+ 1 143.073 4.78
  143.0855 C11H11+ 1 143.0855 -0.25
  145.101 C11H13+ 1 145.1012 -1.04
  146.0599 C9H8NO+ 1 146.06 -1.15
  146.0966 C10H12N+ 1 146.0964 1.51
  146.1078 C11H14+ NA 146.109 -8.54
  149.071 C8H9N2O+ 1 149.0709 0.5
  151.0868 C8H11N2O+ 1 151.0866 1.17
  155.0602 C10H7N2+ 1 155.0604 -1.44
  155.0818 C7H11N2O2+ 1 155.0815 2.03
  158.0962 C11H12N+ 1 158.0964 -1.21
  159.0805 C11H11O+ 1 159.0804 0.31
  159.1165 C12H15+ 1 159.1168 -2.23
  160.1122 C11H14N+ 1 160.1121 0.7
  163.1114 C11H15O+ 1 163.1117 -1.93
  165.0703 C13H9+ 1 165.0699 2.67
  166.0774 C13H10+ 1 166.0777 -1.97
  167.0817 C8H11N2O2+ 1 167.0815 1.08
  179.0858 H13N5O6+ 2 179.086 -1.31
  180.0933 C14H12+ 2 180.0934 -0.03
  186.0913 C12H12NO+ 1 186.0913 -0.03
  193.1011 C15H13+ 3 193.1012 -0.43
  195.0767 C9H11N2O3+ 1 195.0764 1.19
  213.0877 C10H9N6+ 2 213.0883 -2.75
PK$NUM_PEAK: 94
PK$PEAK: m/z int. rel.int.
  69.0335 80954.1 55
  69.0698 40291.5 27
  74.0236 35115.6 24
  77.0384 47977 32
  79.0542 378165.2 258
  80.0495 70461.8 48
  81.0698 30125.6 20
  82.0287 43578.3 29
  82.0651 242929.1 166
  84.0444 296088.3 202
  84.0809 10656.6 7
  85.0283 27526.4 18
  86.06 19044.8 13
  86.0964 388961.9 266
  91.0543 1103047.2 755
  92.062 28787.2 19
  93.0699 396158.6 271
  94.0651 73312 50
  95.0491 316636.9 216
  95.0856 31941.1 21
  96.0446 7707.6 5
  96.0807 21292.3 14
  99.0917 173341 118
  102.0463 18652.2 12
  102.055 21593.6 14
  103.0542 1459332.8 999
  105.0447 122690.2 83
  105.0699 800237.7 547
  106.065 10557.3 7
  107.0855 1345020.2 920
  108.0682 21766.2 14
  108.0806 17128.5 11
  109.0648 124171.2 85
  110.0601 92536.1 63
  110.0965 18533.3 12
  113.0233 78025.1 53
  113.0706 7334.7 5
  115.0543 176011.4 120
  116.062 14665.7 10
  117.0699 200571.6 137
  118.065 16877.2 11
  119.0604 62150.1 42
  119.0854 87835.7 60
  120.0569 22684 15
  120.0808 1030252.5 705
  121.0759 129457.2 88
  121.101 16812.7 11
  122.0598 25439.4 17
  122.0841 13477.1 9
  122.0963 26284.7 17
  123.0915 25011.3 17
  124.0754 18590.6 12
  124.1118 18534.1 12
  127.0866 898381.4 614
  128.0621 77932.2 53
  128.0708 14261.6 9
  129.0698 84869.7 58
  130.0498 20508.5 14
  130.0651 114770.9 78
  130.0776 26322.8 18
  131.0855 108627.8 74
  132.0807 15611.3 10
  133.1009 34345.5 23
  134.0961 17396.6 11
  135.0803 224132.7 153
  135.1058 8591 5
  135.1167 185369.2 126
  138.0549 54441.4 37
  139.0867 17867.7 12
  141.0695 17416.4 11
  143.0736 14161.5 9
  143.0855 43320.6 29
  145.101 53169.4 36
  146.0599 15945.5 10
  146.0966 62127.7 42
  146.1078 11021.5 7
  149.071 109763.2 75
  151.0868 9988.9 6
  155.0602 13429.9 9
  155.0818 35589.3 24
  158.0962 24330.6 16
  159.0805 13305.5 9
  159.1165 8885.9 6
  160.1122 23894.8 16
  163.1114 34008.8 23
  165.0703 41374.9 28
  166.0774 19419.4 13
  167.0817 246423.4 168
  179.0858 21960.1 15
  180.0933 19018 13
  186.0913 16091.2 11
  193.1011 18262.9 12
  195.0767 50661.3 34
  213.0877 36695.4 25
//
