ACCESSION: MSBNK-Eawag-EA023214
RECORD_TITLE: Norfloxacin; LC-ESI-ITFT; MS2; CE: 35%; R=30000; [M+H]+
DATE: 2014.01.14
AUTHORS: Stravs M, Schymanski E, Singer H, Department of Environmental Chemistry, Eawag
LICENSE: CC BY
COPYRIGHT: Copyright (C) 2012 Eawag, Duebendorf, Switzerland
COMMENT: CONFIDENCE standard compound
COMMENT: EAWAG_UCHEM_ID 232
CH$NAME: Norfloxacin
CH$NAME: 1-ethyl-6-fluoro-4-oxo-7-piperazin-1-yl-1,4-dihydroquinoline-3-carboxylic acid
CH$COMPOUND_CLASS: N/A; Environmental Standard
CH$FORMULA: C16H18FN3O3
CH$EXACT_MASS: 319.1332
CH$SMILES: CCN1C=C(C(O)=O)C(=O)C2=CC(F)=C(C=C12)N3CCNCC3
CH$IUPAC: InChI=1S/C16H18FN3O3/c1-2-19-9-11(16(22)23)15(21)10-7-12(17)14(8-13(10)19)20-5-3-18-4-6-20/h7-9,18H,2-6H2,1H3,(H,22,23)
CH$LINK: CAS 70458-96-7
CH$LINK: KEGG C06687
CH$LINK: PUBCHEM CID:4539
CH$LINK: INCHIKEY OGJPXUAPXNRGGI-UHFFFAOYSA-N
CH$LINK: CHEMSPIDER 4380
CH$LINK: COMPTOX DTXSID7037680
AC$INSTRUMENT: LTQ Orbitrap XL Thermo Scientific
AC$INSTRUMENT_TYPE: LC-ESI-ITFT
AC$MASS_SPECTROMETRY: MS_TYPE MS2
AC$MASS_SPECTROMETRY: ION_MODE POSITIVE
AC$MASS_SPECTROMETRY: IONIZATION ESI
AC$MASS_SPECTROMETRY: FRAGMENTATION_MODE CID
AC$MASS_SPECTROMETRY: COLLISION_ENERGY 35 % (nominal)
AC$MASS_SPECTROMETRY: RESOLUTION 30000
AC$CHROMATOGRAPHY: COLUMN_NAME XBridge C18 3.5um, 2.1x50mm, Waters
AC$CHROMATOGRAPHY: FLOW_GRADIENT 90/10 at 0 min, 50/50 at 4 min, 5/95 at 17 min, 5/95 at 25 min, 90/10 at 25.1 min, 90/10 at 30 min
AC$CHROMATOGRAPHY: FLOW_RATE 200 ul/min
AC$CHROMATOGRAPHY: RETENTION_TIME 4.4 min
AC$CHROMATOGRAPHY: SOLVENT A water with 0.1% formic acid
AC$CHROMATOGRAPHY: SOLVENT B methanol with 0.1% formic acid
MS$FOCUSED_ION: BASE_PEAK 320.1415
MS$FOCUSED_ION: PRECURSOR_M/Z 320.1405
MS$FOCUSED_ION: PRECURSOR_TYPE [M+H]+
MS$DATA_PROCESSING: DEPROFILE Spline
MS$DATA_PROCESSING: RECALIBRATE loess on assigned fragments and MS1
MS$DATA_PROCESSING: REANALYZE Peaks with additional N2/O included
MS$DATA_PROCESSING: WHOLE RMassBank 1.3.1
PK$SPLASH: splash10-0ufr-0069000000-5c4650a9bab59ded6701
PK$ANNOTATION: m/z tentative_formula formula_count mass error(ppm)
  219.093 C12H12FN2O+ 1 219.0928 0.97
  227.1053 C13H13N3O+ 1 227.1053 0.03
  228.1132 C13H14N3O+ 2 228.1131 0.09
  233.1087 C13H14FN2O+ 1 233.1085 0.91
  256.1447 C12H19FN3O2+ 2 256.1456 -3.64
  274.1357 C15H17FN3O+ 1 274.135 2.49
  276.1507 C15H19FN3O+ 1 276.1507 0.19
  302.1299 C16H17FN3O2+ 1 302.1299 -0.04
  320.1405 C16H19FN3O3+ 1 320.1405 -0.08
PK$NUM_PEAK: 9
PK$PEAK: m/z int. rel.int.
  219.093 38535.7 3
  227.1053 11937.9 1
  228.1132 19341.8 1
  233.1087 273519.9 27
  256.1447 374632.4 37
  274.1357 40982.6 4
  276.1507 6681604.6 664
  302.1299 10043811.5 999
  320.1405 703887.5 70
//
