ACCESSION: MSBNK-Eawag-EQ01152051
RECORD_TITLE: N-Methylpregabalin; LC-ESI-QFT; MS2; CE: 15%; R=17500; [M-H]-
DATE: 2024.05.08
AUTHORS: C. Meyer [dtc], B. Beck [dtc,com], J. Hollender [dtc]
LICENSE: CC BY-SA
COPYRIGHT: Copyright (C) Eawag 2023
PUBLICATION: Meyer, C., Stravs, M., Hollender, J.. How Wastewater Reflects Human Metabolism - Suspect Screening of Pharmaceutical Metabolites in Wastewater Influent. doi:10.1021/acs.est.4c00968
COMMENT: CONFIDENCE standard compound
COMMENT: UCHEM_ID 11520
CH$NAME: N-Methylpregabalin
CH$NAME: 5-methyl-3-[(methylazaniumyl)methyl]hexanoate
CH$COMPOUND_CLASS: N/A; Environmental Standard
CH$FORMULA: C9H19NO2
CH$EXACT_MASS: 173.1415788
CH$SMILES: CC(C)CC(CC(=O)O)CNC
CH$IUPAC: InChI=1S/C9H19NO2/c1-7(2)4-8(6-10-3)5-9(11)12/h7-8,10H,4-6H2,1-3H3,(H,11,12)
CH$LINK: PUBCHEM CID:74603439
CH$LINK: INCHIKEY MADUVMLGQASXOK-UHFFFAOYSA-N
CH$LINK: CHEMSPIDER 22547163
AC$INSTRUMENT: Exploris 240 Orbitrap Thermo Scientific
AC$INSTRUMENT_TYPE: LC-ESI-QFT
AC$MASS_SPECTROMETRY: MS_TYPE MS2
AC$MASS_SPECTROMETRY: ION_MODE NEGATIVE
AC$MASS_SPECTROMETRY: IONIZATION ESI
AC$MASS_SPECTROMETRY: FRAGMENTATION_MODE HCD
AC$MASS_SPECTROMETRY: COLLISION_ENERGY 15 % (nominal)
AC$MASS_SPECTROMETRY: RESOLUTION 17500
AC$MASS_SPECTROMETRY: MASS_RANGE_M/Z 40-197
AC$CHROMATOGRAPHY: COLUMN_NAME XBridge C18 3.5um, 2.1x50mm, Waters
AC$CHROMATOGRAPHY: FLOW_GRADIENT 90/10 at 0 min, 50/50 at 4 min, 5/95 at 17 min, 5/95 at 25 min, 90/10 at 25.1 min, 90/10 at 30 min
AC$CHROMATOGRAPHY: FLOW_RATE 200 uL/min
AC$CHROMATOGRAPHY: RETENTION_TIME 3.319 min
MS$FOCUSED_ION: BASE_PEAK 318.0643
MS$FOCUSED_ION: PRECURSOR_M/Z 172.1343
MS$FOCUSED_ION: PRECURSOR_TYPE [M-H]-
MS$DATA_PROCESSING: RECALIBRATE loess on assigned fragments and MS1
MS$DATA_PROCESSING: REANALYZE Peaks with additional N2/O included
MS$DATA_PROCESSING: WHOLE RMassBank 3.15.1
PK$SPLASH: splash10-00di-0900000000-e8430f040059e8ea9a8a
PK$ANNOTATION: m/z tentative_formula formula_count mass error(ppm)
  154.1235 C9H16NO- 1 154.1237 -1.49
  172.1343 C9H18NO2- 1 172.1343 0.07
PK$NUM_PEAK: 2
PK$PEAK: m/z int. rel.int.
  154.1235 27547.8 14
  172.1343 1938059.4 999
//
