ACCESSION: MSBNK-Eawag-EQ01150702
RECORD_TITLE: Quinine; LC-ESI-QFT; MS2; CE: 30%; R=17500; [M+H]+
DATE: 2024.05.08
AUTHORS: C. Meyer [dtc], B. Beck [dtc,com], J. Hollender [dtc]
LICENSE: CC BY-SA
COPYRIGHT: Copyright (C) Eawag 2023
PUBLICATION: Meyer, C., Stravs, M., Hollender, J.. How Wastewater Reflects Human Metabolism - Suspect Screening of Pharmaceutical Metabolites in Wastewater Influent. doi:10.1021/acs.est.4c00968
COMMENT: CONFIDENCE standard compound
COMMENT: UCHEM_ID 11507
CH$NAME: Quinine
CH$NAME: Cinchonan-9-ol, 6`-methoxy-, (8alpha,9R)-
CH$NAME: (5-ethenyl-1-azabicyclo[2.2.2]octan-2-yl)-(6-methoxyquinolin-4-yl)methanol
CH$COMPOUND_CLASS: N/A; Environmental Standard
CH$FORMULA: C20H24N2O2
CH$EXACT_MASS: 324.183778
CH$SMILES: COC1=CC2=C(C=CN=C2C=C1)C(C3CC4CCN3CC4C=C)O
CH$IUPAC: InChI=1S/C20H24N2O2/c1-3-13-12-22-9-7-14(13)10-19(22)20(23)16-6-8-21-18-5-4-15(24-2)11-17(16)18/h3-6,8,11,13-14,19-20,23H,1,7,9-10,12H2,2H3
CH$LINK: CHEBI CHEBI:94416
CH$LINK: PUBCHEM CID:1065
CH$LINK: INCHIKEY LOUPRKONTZGTKE-UHFFFAOYSA-N
CH$LINK: CHEMSPIDER 1036
AC$INSTRUMENT: Exploris 240 Orbitrap Thermo Scientific
AC$INSTRUMENT_TYPE: LC-ESI-QFT
AC$MASS_SPECTROMETRY: MS_TYPE MS2
AC$MASS_SPECTROMETRY: ION_MODE POSITIVE
AC$MASS_SPECTROMETRY: IONIZATION ESI
AC$MASS_SPECTROMETRY: FRAGMENTATION_MODE HCD
AC$MASS_SPECTROMETRY: COLLISION_ENERGY 30 % (nominal)
AC$MASS_SPECTROMETRY: RESOLUTION 17500
AC$MASS_SPECTROMETRY: MASS_RANGE_M/Z 50-353
AC$CHROMATOGRAPHY: COLUMN_NAME XBridge C18 3.5um, 2.1x50mm, Waters
AC$CHROMATOGRAPHY: FLOW_GRADIENT 90/10 at 0 min, 50/50 at 4 min, 5/95 at 17 min, 5/95 at 25 min, 90/10 at 25.1 min, 90/10 at 30 min
AC$CHROMATOGRAPHY: FLOW_RATE 200 uL/min
AC$CHROMATOGRAPHY: RETENTION_TIME 4.008 min
MS$FOCUSED_ION: BASE_PEAK 325.1906
MS$FOCUSED_ION: PRECURSOR_M/Z 325.1911
MS$FOCUSED_ION: PRECURSOR_TYPE [M+H]+
MS$DATA_PROCESSING: RECALIBRATE loess on assigned fragments and MS1
MS$DATA_PROCESSING: REANALYZE Peaks with additional N2/O included
MS$DATA_PROCESSING: WHOLE RMassBank 3.15.1
PK$SPLASH: splash10-004i-0009000000-97c7ec9775193e661071
PK$ANNOTATION: m/z tentative_formula formula_count mass error(ppm)
  110.0964 C7H12N+ 1 110.0964 -0.45
  160.0758 C10H10NO+ 1 160.0757 0.91
  166.1225 C10H16NO+ 1 166.1226 -1.14
  184.0755 C12H10NO+ 1 184.0757 -1.09
  253.1333 C16H17N2O+ 1 253.1335 -1.09
  264.1389 C18H18NO+ 1 264.1383 2.25
  279.1485 C18H19N2O+ 1 279.1492 -2.55
  307.1805 C20H23N2O+ 1 307.1805 0.1
  325.1909 C20H25N2O2+ 1 325.1911 -0.5
PK$NUM_PEAK: 9
PK$PEAK: m/z int. rel.int.
  110.0964 2239660.5 6
  160.0758 1505469.9 4
  166.1225 1464695.4 4
  184.0755 3633901.2 10
  253.1333 3125624.5 9
  264.1389 1762905.2 5
  279.1485 1183594.2 3
  307.1805 13000419 38
  325.1909 334786336 999
//
