ACCESSION: MSBNK-Eawag-EA018910
RECORD_TITLE: Erythromycin; LC-ESI-ITFT; MS2; CE: 45%; R=15000; [M+H]+
DATE: 2014.01.14
AUTHORS: Stravs M, Schymanski E, Singer H, Department of Environmental Chemistry, Eawag
LICENSE: CC BY
COPYRIGHT: Copyright (C) 2012 Eawag, Duebendorf, Switzerland
COMMENT: CONFIDENCE standard compound
COMMENT: EAWAG_UCHEM_ID 189
CH$NAME: Erythromycin
CH$NAME: Abboticin
CH$NAME: 6-[4-(dimethylamino)-3-hydroxy-6-methyl-tetrahydropyran-2-yl]oxy-14-ethyl-7,12,13-trihydroxy-4-(5-hydroxy-4-methoxy-4,6-dimethyl-tetrahydropyran-2-yl)oxy-3,5,7,9,11,13-hexamethyl-oxacyclotetradecane-2,10-quinone
CH$COMPOUND_CLASS: N/A; Environmental Standard
CH$FORMULA: C37H67NO13
CH$EXACT_MASS: 733.4612
CH$SMILES: CC[C@@H]1[C@@]([C@@H]([C@H](C(=O)[C@@H](C[C@@]([C@@H]([C@H]([C@@H]([C@H](C(=O)O1)C)O[C@H]2C[C@@]([C@H]([C@@H](O2)C)O)(C)OC)C)O[C@H]3[C@@H]([C@H](C[C@H](O3)C)N(C)C)O)(C)O)C)C)O)(C)O
CH$IUPAC: InChI=1S/C37H67NO13/c1-14-25-37(10,45)30(41)20(4)27(39)18(2)16-35(8,44)32(51-34-28(40)24(38(11)12)15-19(3)47-34)21(5)29(22(6)33(43)49-25)50-26-17-36(9,46-13)31(42)23(7)48-26/h18-26,28-32,34,40-42,44-45H,14-17H2,1-13H3/t18-,19-,20+,21+,22-,23+,24+,25-,26+,28-,29+,30-,31+,32-,34+,35-,36-,37-/m1/s1
CH$LINK: CAS 114-07-8
CH$LINK: PUBCHEM CID:12560
CH$LINK: INCHIKEY ULGZDMOVFRHVEP-RWJQBGPGSA-N
CH$LINK: CHEMSPIDER 12041
CH$LINK: COMPTOX DTXSID4022991
AC$INSTRUMENT: LTQ Orbitrap XL Thermo Scientific
AC$INSTRUMENT_TYPE: LC-ESI-ITFT
AC$MASS_SPECTROMETRY: MS_TYPE MS2
AC$MASS_SPECTROMETRY: ION_MODE POSITIVE
AC$MASS_SPECTROMETRY: IONIZATION ESI
AC$MASS_SPECTROMETRY: FRAGMENTATION_MODE HCD
AC$MASS_SPECTROMETRY: COLLISION_ENERGY 45 % (nominal)
AC$MASS_SPECTROMETRY: RESOLUTION 15000
AC$CHROMATOGRAPHY: COLUMN_NAME XBridge C18 3.5um, 2.1x50mm, Waters
AC$CHROMATOGRAPHY: FLOW_GRADIENT 90/10 at 0 min, 50/50 at 4 min, 5/95 at 17 min, 5/95 at 25 min, 90/10 at 25.1 min, 90/10 at 30 min
AC$CHROMATOGRAPHY: FLOW_RATE 200 ul/min
AC$CHROMATOGRAPHY: RETENTION_TIME 8.5 min
AC$CHROMATOGRAPHY: SOLVENT A water with 0.1% formic acid
AC$CHROMATOGRAPHY: SOLVENT B methanol with 0.1% formic acid
MS$FOCUSED_ION: BASE_PEAK 734.4685
MS$FOCUSED_ION: PRECURSOR_M/Z 734.4685
MS$FOCUSED_ION: PRECURSOR_TYPE [M+H]+
MS$DATA_PROCESSING: DEPROFILE Spline
MS$DATA_PROCESSING: RECALIBRATE loess on assigned fragments and MS1
MS$DATA_PROCESSING: REANALYZE Peaks with additional N2/O included
MS$DATA_PROCESSING: WHOLE RMassBank 1.3.1
PK$SPLASH: splash10-053r-9800000000-07e4c66bcd0be93f7c09
PK$ANNOTATION: m/z tentative_formula formula_count mass error(ppm)
  83.0491 C5H7O+ 1 83.0491 -0.26
  116.0702 C5H10NO2+ 1 116.0706 -3.4
  116.1068 C6H14NO+ 1 116.107 -2.07
  158.1174 C8H16NO2+ 1 158.1176 -1.04
PK$NUM_PEAK: 4
PK$PEAK: m/z int. rel.int.
  83.0491 21545.5 999
  116.0702 2250.2 104
  116.1068 6113 283
  158.1174 11265.3 522
//
