ACCESSION: MSBNK-Eawag-EQ01077102
RECORD_TITLE: Dorzolamide; LC-ESI-QFT; MS2; CE: 20%; R=15000; [M+H]+
DATE: 2024.06.14
AUTHORS: B. Beck [dtc], J. Bosshard [dtc], H. Singer [dtc], A. Dax [com]
LICENSE: CC BY-SA
COPYRIGHT: Copyright (C) Eawag 2024
COMMENT: CONFIDENCE standard compound
COMMENT: UCHEM_ID 10771
CH$NAME: Dorzolamide
CH$NAME: (4S,6S)-4-(ethylamino)-6-methyl-7,7-bis(oxidanylidene)-5,6-dihydro-4H-thieno[2,3-b]thiopyran-2-sulfonamide
CH$NAME: 4-(ethylamino)-6-methyl-7,7-dioxo-5,6-dihydro-4H-thieno[2,3-b]thiopyran-2-sulfonamide
CH$COMPOUND_CLASS: N/A
CH$FORMULA: C10H16N2O4S3
CH$EXACT_MASS: 324.02722
CH$SMILES: CCNC1CC(S(=O)(=O)C2=C1C=C(S2)S(=O)(=O)N)C
CH$IUPAC: InChI=1S/C10H16N2O4S3/c1-3-12-8-4-6(2)18(13,14)10-7(8)5-9(17-10)19(11,15)16/h5-6,8,12H,3-4H2,1-2H3,(H2,11,15,16)
CH$LINK: CAS 1209-66-1
CH$LINK: PUBCHEM CID:5284549
CH$LINK: INCHIKEY IAVUPMFITXYVAF-UHFFFAOYSA-N
CH$LINK: CHEMSPIDER 3042
AC$INSTRUMENT: Exploris 240 Thermo Scientific
AC$INSTRUMENT_TYPE: LC-ESI-QFT
AC$MASS_SPECTROMETRY: MS_TYPE MS2
AC$MASS_SPECTROMETRY: ION_MODE POSITIVE
AC$MASS_SPECTROMETRY: IONIZATION ESI
AC$MASS_SPECTROMETRY: FRAGMENTATION_MODE HCD
AC$MASS_SPECTROMETRY: COLLISION_ENERGY 20 % (nominal)
AC$MASS_SPECTROMETRY: RESOLUTION 15000
AC$MASS_SPECTROMETRY: MASS_RANGE_M/Z 50-353
AC$CHROMATOGRAPHY: COLUMN_NAME XBridge C18 3.5um, 2.1x50mm, Waters
AC$CHROMATOGRAPHY: FLOW_GRADIENT 90/10 at 0 min, 50/50 at 4 min, 5/95 at 17 min, 5/95 at 25 min, 90/10 at 25.1 min, 90/10 at 30 min
AC$CHROMATOGRAPHY: FLOW_RATE 200 uL/min
AC$CHROMATOGRAPHY: RETENTION_TIME 1.509 min
MS$FOCUSED_ION: BASE_PEAK 325.0341
MS$FOCUSED_ION: PRECURSOR_M/Z 325.0345
MS$FOCUSED_ION: PRECURSOR_TYPE [M+H]+
MS$DATA_PROCESSING: RECALIBRATE loess on assigned fragments and MS1
MS$DATA_PROCESSING: REANALYZE Peaks with additional N2/O included
MS$DATA_PROCESSING: WHOLE RMassBank 3.15.1.1
PK$SPLASH: splash10-0002-0981000000-cc6e5050449b8b448044
PK$ANNOTATION: m/z tentative_formula formula_count mass error(ppm)
  135.0262 C8H7S+ 2 135.0263 -0.4
  136.0344 C8H8S+ 1 136.0341 1.96
  151.0211 C8H7OS+ 2 151.0212 -0.58
  198.9881 C8H7O2S2+ 2 198.9882 -0.47
  202.0777 C8H14N2O2S+ 1 202.0771 2.99
  215.0067 C8H9NO2S2+ 1 215.0069 -0.87
  216.0146 C8H10NO2S2+ 1 216.0147 -0.79
  235.9503 C6H6NO3S3+ 1 235.9504 -0.64
  279.9765 C8H10NO4S3+ 1 279.9766 -0.52
  325.0348 C10H17N2O4S3+ 1 325.0345 0.84
PK$NUM_PEAK: 10
PK$PEAK: m/z int. rel.int.
  135.0262 2575437.2 90
  136.0344 1558017.8 54
  151.0211 2700930 95
  198.9881 28357326 999
  202.0777 5857491 206
  215.0067 2075478.5 73
  216.0146 13983188 492
  235.9503 6201750.5 218
  279.9765 4206152 148
  325.0348 7325091.5 258
//
