ACCESSION: MSBNK-Eawag-EQ308406
RECORD_TITLE: Meclozine; LC-ESI-QFT; MS2; CE: 90; R=35000; [M+H]+
DATE: 2015.08.25
AUTHORS: Beck B, Stravs M, Schymanski E, Singer H, Department of Environmental Chemistry, Eawag
LICENSE: CC BY
COPYRIGHT: Copyright (C) 2015 Eawag, Duebendorf, Switzerland
COMMENT: CONFIDENCE standard compound
COMMENT: EAWAG_UCHEM_ID 3084
CH$NAME: Meclozine
CH$NAME: Meclizine
CH$NAME: 1-[(4-chlorophenyl)-phenyl-methyl]-4-(3-methylbenzyl)piperazine
CH$COMPOUND_CLASS: N/A; Environmental Standard
CH$FORMULA: C25H27ClN2
CH$EXACT_MASS: 390.18628
CH$SMILES: Clc1ccc(cc1)C(c2ccccc2)N3CCN(CC3)Cc4cccc(c4)C
CH$IUPAC: InChI=1S/C25H27ClN2/c1-20-6-5-7-21(18-20)19-27-14-16-28(17-15-27)25(22-8-3-2-4-9-22)23-10-12-24(26)13-11-23/h2-13,18,25H,14-17,19H2,1H3
CH$LINK: CAS 569-65-3
CH$LINK: KEGG C07116
CH$LINK: PUBCHEM CID:4034
CH$LINK: INCHIKEY OCJYIGYOJCODJL-UHFFFAOYSA-N
CH$LINK: CHEMSPIDER 3894
CH$LINK: COMPTOX DTXSID0023242
AC$INSTRUMENT: Q Exactive Orbitrap Thermo Scientific
AC$INSTRUMENT_TYPE: LC-ESI-QFT
AC$MASS_SPECTROMETRY: MS_TYPE MS2
AC$MASS_SPECTROMETRY: ION_MODE POSITIVE
AC$MASS_SPECTROMETRY: IONIZATION ESI
AC$MASS_SPECTROMETRY: FRAGMENTATION_MODE HCD
AC$MASS_SPECTROMETRY: COLLISION_ENERGY 90 (nominal)
AC$MASS_SPECTROMETRY: RESOLUTION 35000
AC$CHROMATOGRAPHY: COLUMN_NAME XBridge C18 3.5um, 2.1x50mm, Waters
AC$CHROMATOGRAPHY: FLOW_GRADIENT 90/10 at 0 min, 50/50 at 4 min, 5/95 at 17 min, 5/95 at 25 min, 90/10 at 25.1 min, 90/10 at 30 min
AC$CHROMATOGRAPHY: FLOW_RATE 200 ul/min
AC$CHROMATOGRAPHY: RETENTION_TIME 11.3 min
AC$CHROMATOGRAPHY: SOLVENT A water with 0.1% formic acid
AC$CHROMATOGRAPHY: SOLVENT B methanol with 0.1% formic acid
MS$FOCUSED_ION: BASE_PEAK 391.1956
MS$FOCUSED_ION: PRECURSOR_M/Z 391.1936
MS$FOCUSED_ION: PRECURSOR_TYPE [M+H]+
MS$DATA_PROCESSING: DEPROFILE Spline
MS$DATA_PROCESSING: RECALIBRATE loess on assigned fragments and MS1
MS$DATA_PROCESSING: REANALYZE Peaks with additional N2/O included
MS$DATA_PROCESSING: WHOLE RMassBank 1.9.6
PK$SPLASH: splash10-014i-0900000000-9b3d5063cf1e4fd0ecda
PK$ANNOTATION: m/z tentative_formula formula_count mass error(ppm)
  65.0388 C5H5+ 1 65.0386 3.74
  105.0703 C8H9+ 1 105.0699 4.12
  115.0544 C9H7+ 1 115.0542 1.25
  121.0287 C4H8ClNO+ 1 121.0289 -1.35
  139.0544 C11H7+ 1 139.0542 1.32
  163.0549 C13H7+ 1 163.0542 4.13
  164.0627 C13H8+ 1 164.0621 4.2
  165.0706 C13H9+ 1 165.0699 4.44
  166.0782 C13H10+ 1 166.0777 3.24
  183.0812 C10H14ClN+ 1 183.0809 1.48
  193.0767 C13H9N2+ 1 193.076 3.24
  199.0315 C13H8Cl+ 1 199.0309 3.19
  201.0474 C13H10Cl+ 1 201.0466 4.01
PK$NUM_PEAK: 13
PK$PEAK: m/z int. rel.int.
  65.0388 454422.7 1
  105.0703 3594629.8 12
  115.0544 916283.5 3
  121.0287 482029.8 1
  139.0544 904286 3
  163.0549 764499.2 2
  164.0627 2677649.4 9
  165.0706 293933491.2 999
  166.0782 235412982.7 800
  183.0812 3256920.2 11
  193.0767 1661789.6 5
  199.0315 5538869.4 18
  201.0474 7384944.1 25
//
