ACCESSION: MSBNK-Eawag-EQ01133306
RECORD_TITLE: Carbophenothion; LC-ESI-QFT; MS2; CE: 90%; R=17500; [M+H]+
DATE: 2023.04.27
AUTHORS: B. Beck [dtc,com], J. Hollender [dtc]
LICENSE: CC BY-SA
COPYRIGHT: Copyright (C) Eawag 2023
COMMENT: CONFIDENCE standard compound
COMMENT: UCHEM_ID 11333
CH$NAME: Carbophenothion
CH$NAME: (4-chlorophenyl)sulfanylmethylsulfanyl-diethoxy-sulfanylidene-lambda5-phosphane
CH$COMPOUND_CLASS: N/A; Environmental Standard
CH$FORMULA: C11H16ClO2PS3
CH$EXACT_MASS: 341.9739
CH$SMILES: CCOP(=S)(OCC)SCSC1=CC=C(C=C1)Cl
CH$IUPAC: InChI=1S/C11H16ClO2PS3/c1-3-13-15(16,14-4-2)18-9-17-11-7-5-10(12)6-8-11/h5-8H,3-4,9H2,1-2H3
CH$LINK: CAS 786-19-6
CH$LINK: CHEBI CHEBI:82107
CH$LINK: KEGG C18968
CH$LINK: PUBCHEM CID:13081
CH$LINK: INCHIKEY VEDTXTNSFWUXGQ-UHFFFAOYSA-N
CH$LINK: CHEMSPIDER 12536
AC$INSTRUMENT: Exploris 240 Orbitrap Thermo Scientific
AC$INSTRUMENT_TYPE: LC-ESI-QFT
AC$MASS_SPECTROMETRY: MS_TYPE MS2
AC$MASS_SPECTROMETRY: ION_MODE POSITIVE
AC$MASS_SPECTROMETRY: IONIZATION ESI
AC$MASS_SPECTROMETRY: FRAGMENTATION_MODE HCD
AC$MASS_SPECTROMETRY: COLLISION_ENERGY 90 % (nominal)
AC$MASS_SPECTROMETRY: RESOLUTION 17500
AC$MASS_SPECTROMETRY: MASS_RANGE_M/Z 50-371
AC$CHROMATOGRAPHY: COLUMN_NAME XBridge C18 3.5um, 2.1x50mm, Waters
AC$CHROMATOGRAPHY: FLOW_GRADIENT 90/10 at 0 min, 50/50 at 4 min, 5/95 at 17 min, 5/95 at 25 min, 90/10 at 25.1 min, 90/10 at 30 min
AC$CHROMATOGRAPHY: FLOW_RATE 200 uL/min
AC$CHROMATOGRAPHY: RETENTION_TIME 14.141 min
MS$FOCUSED_ION: BASE_PEAK 360.9651
MS$FOCUSED_ION: PRECURSOR_M/Z 342.9811
MS$FOCUSED_ION: PRECURSOR_TYPE [M+H]+
MS$DATA_PROCESSING: RECALIBRATE loess on assigned fragments and MS1
MS$DATA_PROCESSING: REANALYZE Peaks with additional N2/O included
MS$DATA_PROCESSING: WHOLE RMassBank 3.11.0.1
PK$SPLASH: splash10-024j-4900000000-310f40861cd759691e68
PK$ANNOTATION: m/z tentative_formula formula_count mass error(ppm)
  59.0492 C3H7O+ 1 59.0491 0.17
  75.023 C6H3+ 1 75.0229 0.39
  77.0386 C6H5+ 1 77.0386 0.27
  78.0464 C6H6+ 1 78.0464 -0.15
  96.9507 H2O2PS+ 2 96.9508 -0.99
  114.9613 CH4ClO2S+ 1 114.9615 -1.99
  121.0107 C7H5S+ 1 121.0106 0.73
  122.0186 C7H6S+ 1 122.0185 0.73
  125.0155 C7H6Cl+ 2 125.0153 1.79
  156.9877 C7H6ClS+ 2 156.9873 2.09
PK$NUM_PEAK: 10
PK$PEAK: m/z int. rel.int.
  59.0492 16336.4 192
  75.023 14550.1 171
  77.0386 13750.5 162
  78.0464 12633 149
  96.9507 58951.7 695
  114.9613 84649.6 999
  121.0107 62470.5 737
  122.0186 39954.1 471
  125.0155 12570.8 148
  156.9877 23371.3 275
//
