ACCESSION: MSBNK-Eawag-EA009511
RECORD_TITLE: Epoxiconazole; LC-ESI-ITFT; MS2; CE: 60%; R=15000; [M+H]+
DATE: 2014.01.14
AUTHORS: Stravs M, Schymanski E, Singer H, Department of Environmental Chemistry, Eawag
LICENSE: CC BY
COPYRIGHT: Copyright (C) 2012 Eawag, Duebendorf, Switzerland
COMMENT: CONFIDENCE standard compound
COMMENT: EAWAG_UCHEM_ID 95
CH$NAME: Epoxiconazole
CH$NAME: 1-[[(2S,3R)-3-(2-chlorophenyl)-2-(4-fluorophenyl)-2-oxiranyl]methyl]-1,2,4-triazole
CH$COMPOUND_CLASS: N/A; Environmental Standard
CH$FORMULA: C17H13ClFN3O
CH$EXACT_MASS: 329.0726
CH$SMILES: C1=CC=C(C(=C1)C2C(O2)(CN3C=NC=N3)C4=CC=C(C=C4)F)Cl
CH$IUPAC: InChI=1S/C17H13ClFN3O/c18-15-4-2-1-3-14(15)16-17(23-16,9-22-11-20-10-21-22)12-5-7-13(19)8-6-12/h1-8,10-11,16H,9H2/t16-,17-/m1/s1
CH$LINK: CAS 133855-98-8
CH$LINK: KEGG C11229
CH$LINK: PUBCHEM CID:107901
CH$LINK: INCHIKEY ZMYFCFLJBGAQRS-IAGOWNOFSA-N
CH$LINK: CHEMSPIDER 97030
AC$INSTRUMENT: LTQ Orbitrap XL Thermo Scientific
AC$INSTRUMENT_TYPE: LC-ESI-ITFT
AC$MASS_SPECTROMETRY: MS_TYPE MS2
AC$MASS_SPECTROMETRY: ION_MODE POSITIVE
AC$MASS_SPECTROMETRY: IONIZATION ESI
AC$MASS_SPECTROMETRY: FRAGMENTATION_MODE HCD
AC$MASS_SPECTROMETRY: COLLISION_ENERGY 60 % (nominal)
AC$MASS_SPECTROMETRY: RESOLUTION 15000
AC$CHROMATOGRAPHY: COLUMN_NAME XBridge C18 3.5um, 2.1x50mm, Waters
AC$CHROMATOGRAPHY: FLOW_GRADIENT 90/10 at 0 min, 50/50 at 4 min, 5/95 at 17 min, 5/95 at 25 min, 90/10 at 25.1 min, 90/10 at 30 min
AC$CHROMATOGRAPHY: FLOW_RATE 200 ul/min
AC$CHROMATOGRAPHY: RETENTION_TIME 11.7 min
AC$CHROMATOGRAPHY: SOLVENT A water with 0.1% formic acid
AC$CHROMATOGRAPHY: SOLVENT B methanol with 0.1% formic acid
MS$FOCUSED_ION: BASE_PEAK 330.0812
MS$FOCUSED_ION: PRECURSOR_M/Z 330.0804
MS$FOCUSED_ION: PRECURSOR_TYPE [M+H]+
MS$DATA_PROCESSING: DEPROFILE Spline
MS$DATA_PROCESSING: RECALIBRATE loess on assigned fragments and MS1
MS$DATA_PROCESSING: REANALYZE Peaks with additional N2/O included
MS$DATA_PROCESSING: WHOLE RMassBank 1.3.1
PK$SPLASH: splash10-00di-0900000000-653044c39c1537c4a992
PK$ANNOTATION: m/z tentative_formula formula_count mass error(ppm)
  70.04 C2H4N3+ 1 70.04 0.09
  71.0289 C4H4F+ 1 71.0292 -4.15
  75.0229 C6H3+ 2 75.0229 0.18
  77.0386 C6H5+ 2 77.0386 -0.09
  95.0292 C6H4F+ 1 95.0292 0.48
  101.0383 C3H4FN3+ 2 101.0384 -0.26
  109.0446 C7H6F+ 1 109.0448 -2.34
  113.0152 C6H6Cl+ 2 113.0153 -0.21
  121.0449 C8H6F+ 1 121.0448 0.79
  123.0241 C7H4FO+ 2 123.0241 0.25
  123.0353 C6H4FN2+ 1 123.0353 0.06
  129.0447 C8H5N2+ 1 129.0447 0.04
  138.9946 C7H4ClO+ 2 138.9945 0.22
  141.0102 C7H6ClO+ 2 141.0102 -0.06
  196.0686 C14H9F+ 1 196.0683 1.68
  197.0753 C14H10F+ 1 197.0761 -3.93
  198.084 C14H11F+ 1 198.0839 0.61
PK$NUM_PEAK: 17
PK$PEAK: m/z int. rel.int.
  70.04 369227.4 75
  71.0289 7922.1 1
  75.0229 22964.7 4
  77.0386 45265 9
  95.0292 9017.9 1
  101.0383 45448.2 9
  109.0446 17923.3 3
  113.0152 95409.2 19
  121.0449 4893016.1 999
  123.0241 1120342.5 228
  123.0353 131936.1 26
  129.0447 507259.1 103
  138.9946 86548.4 17
  141.0102 246174.6 50
  196.0686 16509.4 3
  197.0753 12003.8 2
  198.084 10807.3 2
//
