ACCESSION: MSBNK-Eawag-EQ01151602
RECORD_TITLE: Benzophenone; LC-ESI-QFT; MS2; CE: 30%; R=17500; [M+H]+
DATE: 2024.05.08
AUTHORS: C. Meyer [dtc], B. Beck [dtc,com], J. Hollender [dtc]
LICENSE: CC BY-SA
COPYRIGHT: Copyright (C) Eawag 2023
PUBLICATION: Meyer, C., Stravs, M., Hollender, J.. How Wastewater Reflects Human Metabolism - Suspect Screening of Pharmaceutical Metabolites in Wastewater Influent. doi:10.1021/acs.est.4c00968
COMMENT: CONFIDENCE standard compound
COMMENT: UCHEM_ID 11516
CH$NAME: Benzophenone
CH$NAME: diphenylmethanone
CH$COMPOUND_CLASS: N/A; Environmental Standard
CH$FORMULA: C13H10O
CH$EXACT_MASS: 182.0731649
CH$SMILES: C1=CC=C(C=C1)C(=O)C2=CC=CC=C2
CH$IUPAC: InChI=1S/C13H10O/c14-13(11-7-3-1-4-8-11)12-9-5-2-6-10-12/h1-10H
CH$LINK: CHEBI CHEBI:41308
CH$LINK: PUBCHEM CID:3102
CH$LINK: INCHIKEY RWCCWEUUXYIKHB-UHFFFAOYSA-N
CH$LINK: CHEMSPIDER 2991
AC$INSTRUMENT: Exploris 240 Orbitrap Thermo Scientific
AC$INSTRUMENT_TYPE: LC-ESI-QFT
AC$MASS_SPECTROMETRY: MS_TYPE MS2
AC$MASS_SPECTROMETRY: ION_MODE POSITIVE
AC$MASS_SPECTROMETRY: IONIZATION ESI
AC$MASS_SPECTROMETRY: FRAGMENTATION_MODE HCD
AC$MASS_SPECTROMETRY: COLLISION_ENERGY 30 % (nominal)
AC$MASS_SPECTROMETRY: RESOLUTION 17500
AC$MASS_SPECTROMETRY: MASS_RANGE_M/Z 41-208
AC$CHROMATOGRAPHY: COLUMN_NAME XBridge C18 3.5um, 2.1x50mm, Waters
AC$CHROMATOGRAPHY: FLOW_GRADIENT 90/10 at 0 min, 50/50 at 4 min, 5/95 at 17 min, 5/95 at 25 min, 90/10 at 25.1 min, 90/10 at 30 min
AC$CHROMATOGRAPHY: FLOW_RATE 200 uL/min
AC$CHROMATOGRAPHY: RETENTION_TIME 8.799 min
MS$FOCUSED_ION: BASE_PEAK 183.0803
MS$FOCUSED_ION: PRECURSOR_M/Z 183.0804
MS$FOCUSED_ION: PRECURSOR_TYPE [M+H]+
MS$DATA_PROCESSING: RECALIBRATE loess on assigned fragments and MS1
MS$DATA_PROCESSING: REANALYZE Peaks with additional N2/O included
MS$DATA_PROCESSING: WHOLE RMassBank 3.15.1
PK$SPLASH: splash10-0a59-0900000000-517f4065777389c261dc
PK$ANNOTATION: m/z tentative_formula formula_count mass error(ppm)
  105.0335 C7H5O+ 1 105.0335 -0.37
  183.0805 C13H11O+ 1 183.0804 0.05
PK$NUM_PEAK: 2
PK$PEAK: m/z int. rel.int.
  105.0335 91419320 999
  183.0805 62875460 687
//
