ACCESSION: MSBNK-Eawag-EQ332551
RECORD_TITLE: Epinephrine; LC-ESI-QFT; MS2; CE: 15; R=35000; [M-H]-
DATE: 2015.08.25
AUTHORS: Otto J, Stravs M, Schymanski E, Singer H, Department of Environmental Chemistry, Eawag
LICENSE: CC BY
COPYRIGHT: Copyright (C) 2015 Eawag, Duebendorf, Switzerland
COMMENT: CONFIDENCE standard compound
COMMENT: EAWAG_UCHEM_ID 3325
CH$NAME: Epinephrine
CH$NAME: 4-[(1R)-1-hydroxy-2-(methylamino)ethyl]benzene-1,2-diol
CH$COMPOUND_CLASS: N/A; Environmental Standard
CH$FORMULA: C9H13NO3
CH$EXACT_MASS: 183.08954
CH$SMILES: CNC[C@@H](C1=CC(=C(C=C1)O)O)O
CH$IUPAC: InChI=1S/C9H13NO3/c1-10-5-9(13)6-2-3-7(11)8(12)4-6/h2-4,9-13H,5H2,1H3/t9-/m0/s1
CH$LINK: CAS 51-43-4
CH$LINK: KEGG C00788
CH$LINK: PUBCHEM CID:5816
CH$LINK: INCHIKEY UCTWMZQNUQWSLP-VIFPVBQESA-N
CH$LINK: CHEMSPIDER 5611
CH$LINK: COMPTOX DTXSID5022986
AC$INSTRUMENT: Q Exactive Orbitrap Thermo Scientific
AC$INSTRUMENT_TYPE: LC-ESI-QFT
AC$MASS_SPECTROMETRY: MS_TYPE MS2
AC$MASS_SPECTROMETRY: ION_MODE NEGATIVE
AC$MASS_SPECTROMETRY: IONIZATION ESI
AC$MASS_SPECTROMETRY: FRAGMENTATION_MODE HCD
AC$MASS_SPECTROMETRY: COLLISION_ENERGY 15 (nominal)
AC$MASS_SPECTROMETRY: RESOLUTION 35000
AC$CHROMATOGRAPHY: COLUMN_NAME XBridge C18 3.5um, 2.1x50mm, Waters
AC$CHROMATOGRAPHY: FLOW_GRADIENT 90/10 at 0 min, 50/50 at 4 min, 5/95 at 17 min, 5/95 at 25 min, 90/10 at 25.1 min, 90/10 at 30 min
AC$CHROMATOGRAPHY: FLOW_RATE 200 ul/min
AC$CHROMATOGRAPHY: RETENTION_TIME 0.8 min
AC$CHROMATOGRAPHY: SOLVENT A water with 0.1% formic acid
AC$CHROMATOGRAPHY: SOLVENT B methanol with 0.1% formic acid
MS$FOCUSED_ION: BASE_PEAK 182.0824
MS$FOCUSED_ION: PRECURSOR_M/Z 182.0823
MS$FOCUSED_ION: PRECURSOR_TYPE [M-H]-
MS$DATA_PROCESSING: DEPROFILE vendor picking in Proteowizard
MS$DATA_PROCESSING: RECALIBRATE loess on assigned fragments and MS1
MS$DATA_PROCESSING: REANALYZE Peaks with additional N2/O included
MS$DATA_PROCESSING: WHOLE RMassBank 1.9.6
PK$SPLASH: splash10-03di-0900000000-32c82b77af021d75c50c
PK$ANNOTATION: m/z tentative_formula formula_count mass error(ppm)
  109.0295 C6H5O2- 1 109.0295 0.06
  121.0293 C7H5O2- 1 121.0295 -1.51
  122.0374 C7H6O2- 1 122.0373 0.59
  123.0453 C7H7O2- 1 123.0452 0.95
  124.0164 C6H4O3- 1 124.0166 -1.63
  135.0451 C8H7O2- 1 135.0452 -0.24
  137.0245 C7H5O3- 1 137.0244 0.53
  137.0608 C8H9O2- 1 137.0608 0.05
  139.0401 C7H7O3- 1 139.0401 0.38
  148.0403 C8H6NO2- 1 148.0404 -0.76
  149.0482 C8H7NO2- 1 149.0482 -0.18
  154.0273 C7H6O4- 1 154.0272 0.93
  162.0564 C9H8NO2- 1 162.0561 2.21
  164.0717 C9H10NO2- 1 164.0717 -0.07
  182.0823 C9H12NO3- 1 182.0823 0.46
PK$NUM_PEAK: 15
PK$PEAK: m/z int. rel.int.
  109.0295 97652.9 4
  121.0293 27241.6 1
  122.0374 2260314.5 94
  123.0453 100775.7 4
  124.0164 40121.2 1
  135.0451 175472.1 7
  137.0245 116339.1 4
  137.0608 42369.3 1
  139.0401 24337.9 1
  148.0403 51646.2 2
  149.0482 1348326.4 56
  154.0273 83542.1 3
  162.0564 225729.1 9
  164.0717 23863776 999
  182.0823 2644482.2 110
//
