ACCESSION: MSBNK-Eawag-EQ309056
RECORD_TITLE: Coumachlor; LC-ESI-QFT; MS2; CE: 90; R=35000; [M-H]-
DATE: 2015.08.25
AUTHORS: Beck B, Stravs M, Schymanski E, Singer H, Department of Environmental Chemistry, Eawag
LICENSE: CC BY
COPYRIGHT: Copyright (C) 2015 Eawag, Duebendorf, Switzerland
COMMENT: CONFIDENCE standard compound
COMMENT: EAWAG_UCHEM_ID 3090
CH$NAME: Coumachlor
CH$NAME: Ratilan
CH$NAME: 3-[1-(4-chlorophenyl)-3-oxobutyl]-4-hydroxychromen-2-one
CH$COMPOUND_CLASS: N/A; Environmental Standard
CH$FORMULA: C19H15ClO4
CH$EXACT_MASS: 342.06589
CH$SMILES: CC(=O)CC(C1=CC=C(C=C1)Cl)C2=C(C3=CC=CC=C3OC2=O)O
CH$IUPAC: InChI=1S/C19H15ClO4/c1-11(21)10-15(12-6-8-13(20)9-7-12)17-18(22)14-4-2-3-5-16(14)24-19(17)23/h2-9,15,22H,10H2,1H3
CH$LINK: CAS 81-82-3
CH$LINK: KEGG C16805
CH$LINK: PUBCHEM CID:54682651
CH$LINK: INCHIKEY DEKWZWCFHUABHE-UHFFFAOYSA-N
CH$LINK: CHEMSPIDER 10443016
CH$LINK: COMPTOX DTXSID8041797
AC$INSTRUMENT: Q Exactive Orbitrap Thermo Scientific
AC$INSTRUMENT_TYPE: LC-ESI-QFT
AC$MASS_SPECTROMETRY: MS_TYPE MS2
AC$MASS_SPECTROMETRY: ION_MODE NEGATIVE
AC$MASS_SPECTROMETRY: IONIZATION ESI
AC$MASS_SPECTROMETRY: FRAGMENTATION_MODE HCD
AC$MASS_SPECTROMETRY: COLLISION_ENERGY 90 (nominal)
AC$MASS_SPECTROMETRY: RESOLUTION 35000
AC$CHROMATOGRAPHY: COLUMN_NAME XBridge C18 3.5um, 2.1x50mm, Waters
AC$CHROMATOGRAPHY: FLOW_GRADIENT 90/10 at 0 min, 50/50 at 4 min, 5/95 at 17 min, 5/95 at 25 min, 90/10 at 25.1 min, 90/10 at 30 min
AC$CHROMATOGRAPHY: FLOW_RATE 200 ul/min
AC$CHROMATOGRAPHY: RETENTION_TIME 12.3 min
AC$CHROMATOGRAPHY: SOLVENT A water with 0.1% formic acid
AC$CHROMATOGRAPHY: SOLVENT B methanol with 0.1% formic acid
MS$FOCUSED_ION: BASE_PEAK 341.0588
MS$FOCUSED_ION: PRECURSOR_M/Z 341.0586
MS$FOCUSED_ION: PRECURSOR_TYPE [M-H]-
MS$DATA_PROCESSING: DEPROFILE Spline
MS$DATA_PROCESSING: RECALIBRATE loess on assigned fragments and MS1
MS$DATA_PROCESSING: REANALYZE Peaks with additional N2/O included
MS$DATA_PROCESSING: WHOLE RMassBank 1.9.6
PK$SPLASH: splash10-014i-1900000000-10096e55720073434fe7
PK$ANNOTATION: m/z tentative_formula formula_count mass error(ppm)
  57.0346 C3H5O- 1 57.0346 -0.32
  83.0139 C4H3O2- 1 83.0139 0.45
  93.0346 C6H5O- 1 93.0346 0.23
  117.0347 C8H5O- 1 117.0346 0.95
  135.0008 C8H4Cl- 1 135.0007 0.8
  145.0291 C9H5O2- 1 145.0295 -2.78
  161.0244 C9H5O3- 1 161.0244 -0.17
  239.0273 C15H8ClO- 1 239.0269 1.56
  255.0211 C15H8ClO2- 1 255.0218 -2.75
  283.0177 C16H8ClO3- 1 283.0167 3.23
  284.0248 C16H9ClO3- 1 284.0246 0.81
PK$NUM_PEAK: 11
PK$PEAK: m/z int. rel.int.
  57.0346 4007390.1 144
  83.0139 355328 12
  93.0346 1096385.5 39
  117.0347 27736464.1 999
  135.0008 935456.1 33
  145.0291 54616 1
  161.0244 2117295.3 76
  239.0273 47732.3 1
  255.0211 54176.1 1
  283.0177 57084.2 2
  284.0248 97417 3
//
