ACCESSION: MSBNK-Eawag-EA285110
RECORD_TITLE: Albuterol; LC-ESI-ITFT; MS2; CE: 45%; R=15000; [M+H]+
DATE: 2014.01.14
AUTHORS: Stravs M, Schymanski E, Singer H, Department of Environmental Chemistry, Eawag
LICENSE: CC BY
COPYRIGHT: Copyright (C) 2012 Eawag, Duebendorf, Switzerland
COMMENT: CONFIDENCE standard compound
COMMENT: EAWAG_UCHEM_ID 2851
CH$NAME: Albuterol
CH$NAME: Salbutamol
CH$NAME: 4-[2-(tert-butylamino)-1-hydroxy-ethyl]-2-methylol-phenol
CH$COMPOUND_CLASS: N/A; Environmental Standard
CH$FORMULA: C13H21NO3
CH$EXACT_MASS: 239.1521
CH$SMILES: OCc1cc(ccc1O)C(O)CNC(C)(C)C
CH$IUPAC: InChI=1S/C13H21NO3/c1-13(2,3)14-7-12(17)9-4-5-11(16)10(6-9)8-15/h4-6,12,14-17H,7-8H2,1-3H3
CH$LINK: CAS 18559-94-9
CH$LINK: CHEBI CHEBI:2549
CH$LINK: KEGG D02147
CH$LINK: PUBCHEM CID:2083
CH$LINK: INCHIKEY NDAUXUAQIAJITI-UHFFFAOYSA-N
CH$LINK: CHEMSPIDER 1999
CH$LINK: COMPTOX DTXSID5021255
AC$INSTRUMENT: LTQ Orbitrap XL Thermo Scientific
AC$INSTRUMENT_TYPE: LC-ESI-ITFT
AC$MASS_SPECTROMETRY: MS_TYPE MS2
AC$MASS_SPECTROMETRY: ION_MODE POSITIVE
AC$MASS_SPECTROMETRY: IONIZATION ESI
AC$MASS_SPECTROMETRY: FRAGMENTATION_MODE HCD
AC$MASS_SPECTROMETRY: COLLISION_ENERGY 45 % (nominal)
AC$MASS_SPECTROMETRY: RESOLUTION 15000
AC$CHROMATOGRAPHY: COLUMN_NAME XBridge C18 3.5um, 2.1x50mm, Waters
AC$CHROMATOGRAPHY: FLOW_GRADIENT 90/10 at 0 min, 50/50 at 4 min, 5/95 at 17 min, 5/95 at 25 min, 90/10 at 25.1 min, 90/10 at 30 min
AC$CHROMATOGRAPHY: FLOW_RATE 200 ul/min
AC$CHROMATOGRAPHY: RETENTION_TIME 2.0 min
AC$CHROMATOGRAPHY: SOLVENT A water with 0.1% formic acid
AC$CHROMATOGRAPHY: SOLVENT B methanol with 0.1% formic acid
MS$FOCUSED_ION: BASE_PEAK 240.1602
MS$FOCUSED_ION: PRECURSOR_M/Z 240.1594
MS$FOCUSED_ION: PRECURSOR_TYPE [M+H]+
MS$DATA_PROCESSING: DEPROFILE Spline
MS$DATA_PROCESSING: RECALIBRATE loess on assigned fragments and MS1
MS$DATA_PROCESSING: REANALYZE Peaks with additional N2/O included
MS$DATA_PROCESSING: WHOLE RMassBank 1.3.1
PK$SPLASH: splash10-0002-0900000000-af9a8ad8ae6e7ade3b9b
PK$ANNOTATION: m/z tentative_formula formula_count mass error(ppm)
  57.0699 C4H9+ 1 57.0699 0.06
  77.0384 C6H5+ 1 77.0386 -2.55
  91.0542 C7H7+ 1 91.0542 -0.84
  103.0541 C8H7+ 1 103.0542 -0.94
  106.0653 C7H8N+ 1 106.0651 1.27
  120.0809 C8H10N+ 1 120.0808 0.87
  121.0648 C8H9O+ 1 121.0648 0.32
  130.0652 C9H8N+ 1 130.0651 0.65
  131.0492 C9H7O+ 1 131.0491 0.75
  133.0523 C8H7NO+ 1 133.0522 0.49
  136.0759 C8H10NO+ 1 136.0757 1.25
  148.0758 C9H10NO+ 1 148.0757 1.01
  166.0863 C9H12NO2+ 1 166.0863 0.45
  204.1383 C13H18NO+ 1 204.1383 0.05
  222.149 C13H20NO2+ 1 222.1489 0.88
PK$NUM_PEAK: 15
PK$PEAK: m/z int. rel.int.
  57.0699 33266.7 8
  77.0384 5726.4 1
  91.0542 6930 1
  103.0541 9063.4 2
  106.0653 11068.5 2
  120.0809 42892.3 11
  121.0648 70245.7 18
  130.0652 95162.8 24
  131.0492 12430.7 3
  133.0523 84275 22
  136.0759 20112.4 5
  148.0758 3803388.2 999
  166.0863 297092.8 78
  204.1383 8450.9 2
  222.149 151281.8 39
//
