ACCESSION: MSBNK-Eawag-EA066509
RECORD_TITLE: Propachlor ESA; LC-ESI-ITFT; MS2; CE: 30%; R=15000; [M+H]+
DATE: 2014.01.14
AUTHORS: Stravs M, Schymanski E, Singer H, Department of Environmental Chemistry, Eawag
LICENSE: CC BY
COPYRIGHT: Copyright (C) 2012 Eawag, Duebendorf, Switzerland
COMMENT: CONFIDENCE standard compound
COMMENT: EAWAG_UCHEM_ID 665
CH$NAME: Propachlor ESA
CH$NAME: 2-[Isopropyl(phenyl)amino]-2-oxoethanesulfonic acid
CH$COMPOUND_CLASS: N/A; Environmental Standard
CH$FORMULA: C11H15NO4S
CH$EXACT_MASS: 257.0722
CH$SMILES: O=S(=O)(O)CC(=O)N(c1ccccc1)C(C)C
CH$IUPAC: InChI=1S/C11H15NO4S/c1-9(2)12(10-6-4-3-5-7-10)11(13)8-17(14,15)16/h3-7,9H,8H2,1-2H3,(H,14,15,16)
CH$LINK: CAS 123732-85-4
CH$LINK: PUBCHEM CID:16212221
CH$LINK: INCHIKEY BFSZJLBDHMMCAH-UHFFFAOYSA-N
CH$LINK: CHEMSPIDER 17340099
CH$LINK: COMPTOX DTXSID20891452
AC$INSTRUMENT: LTQ Orbitrap XL Thermo Scientific
AC$INSTRUMENT_TYPE: LC-ESI-ITFT
AC$MASS_SPECTROMETRY: MS_TYPE MS2
AC$MASS_SPECTROMETRY: ION_MODE POSITIVE
AC$MASS_SPECTROMETRY: IONIZATION ESI
AC$MASS_SPECTROMETRY: FRAGMENTATION_MODE HCD
AC$MASS_SPECTROMETRY: COLLISION_ENERGY 30 % (nominal)
AC$MASS_SPECTROMETRY: RESOLUTION 15000
AC$CHROMATOGRAPHY: COLUMN_NAME XBridge C18 3.5um, 2.1x50mm, Waters
AC$CHROMATOGRAPHY: FLOW_GRADIENT 90/10 at 0 min, 50/50 at 4 min, 5/95 at 17 min, 5/95 at 25 min, 90/10 at 25.1 min, 90/10 at 30 min
AC$CHROMATOGRAPHY: FLOW_RATE 200 ul/min
AC$CHROMATOGRAPHY: RETENTION_TIME 5.9 min
AC$CHROMATOGRAPHY: SOLVENT A water with 0.1% formic acid
AC$CHROMATOGRAPHY: SOLVENT B methanol with 0.1% formic acid
MS$FOCUSED_ION: BASE_PEAK 258.0802
MS$FOCUSED_ION: PRECURSOR_M/Z 258.0795
MS$FOCUSED_ION: PRECURSOR_TYPE [M+H]+
MS$DATA_PROCESSING: DEPROFILE Spline
MS$DATA_PROCESSING: RECALIBRATE loess on assigned fragments and MS1
MS$DATA_PROCESSING: REANALYZE Peaks with additional N2/O included
MS$DATA_PROCESSING: WHOLE RMassBank 1.3.1
PK$SPLASH: splash10-014i-1190000000-f67b8dcff8b4a5bc32a5
PK$ANNOTATION: m/z tentative_formula formula_count mass error(ppm)
  59.013 C2H3O2+ 1 59.0128 4.82
  94.0651 C6H8N+ 1 94.0651 -0.27
  106.0653 C7H8N+ 1 106.0651 1.93
  117.0574 C8H7N+ 1 117.0573 1.02
  118.0648 C8H8N+ 1 118.0651 -2.84
  120.0444 C7H6NO+ 1 120.0444 0.08
  134.0599 C8H8NO+ 1 134.06 -0.67
  136.0756 C8H10NO+ 1 136.0757 -0.81
  176.1069 C11H14NO+ 1 176.107 -0.46
  198.0218 C8H8NO3S+ 1 198.0219 -0.66
  216.0326 C8H10NO4S+ 1 216.0325 0.3
  240.0688 C11H14NO3S+ 1 240.0689 -0.46
  258.0793 C11H16NO4S+ 1 258.0795 -0.72
PK$NUM_PEAK: 13
PK$PEAK: m/z int. rel.int.
  59.013 1555.2 1
  94.0651 175967.8 177
  106.0653 7523.7 7
  117.0574 2255.4 2
  118.0648 3125.8 3
  120.0444 5153 5
  134.0599 27403.6 27
  136.0756 93661.6 94
  176.1069 5851.5 5
  198.0218 98669.4 99
  216.0326 991496.4 999
  240.0688 4734.8 4
  258.0793 174385.2 175
//
