ACCESSION: MSBNK-Eawag-EA009952
RECORD_TITLE: Alachlor ESA; LC-ESI-ITFT; MS2; CE: 15%; R=7500; [M-H]-
DATE: 2014.01.14
AUTHORS: Stravs M, Schymanski E, Singer H, Department of Environmental Chemistry, Eawag
LICENSE: CC BY
COPYRIGHT: Copyright (C) 2012 Eawag, Duebendorf, Switzerland
COMMENT: CONFIDENCE standard compound
COMMENT: EAWAG_UCHEM_ID 99
CH$NAME: Alachlor ESA
CH$NAME: 2-[(2,6-diethylphenyl)-(methoxymethyl)amino]-2-oxidanylidene-ethanesulfonic acid
CH$COMPOUND_CLASS: N/A; Environmental Standard
CH$FORMULA: C14H21NO5S
CH$EXACT_MASS: 315.1140
CH$SMILES: CCC1=CC=CC(CC)=C1N(COC)C(=O)CS(O)(=O)=O
CH$IUPAC: InChI=1S/C14H21NO5S/c1-4-11-7-6-8-12(5-2)14(11)15(10-20-3)13(16)9-21(17,18)19/h6-8H,4-5,9-10H2,1-3H3,(H,17,18,19)
CH$LINK: CAS 142363-53-9
CH$LINK: PUBCHEM CID:115236
CH$LINK: INCHIKEY UTCJUUGCHWHUNI-UHFFFAOYSA-N
CH$LINK: CHEMSPIDER 103108
CH$LINK: COMPTOX DTXSID6037485
AC$INSTRUMENT: LTQ Orbitrap XL Thermo Scientific
AC$INSTRUMENT_TYPE: LC-ESI-ITFT
AC$MASS_SPECTROMETRY: MS_TYPE MS2
AC$MASS_SPECTROMETRY: ION_MODE NEGATIVE
AC$MASS_SPECTROMETRY: IONIZATION ESI
AC$MASS_SPECTROMETRY: FRAGMENTATION_MODE HCD
AC$MASS_SPECTROMETRY: COLLISION_ENERGY 15 % (nominal)
AC$MASS_SPECTROMETRY: RESOLUTION 7500
AC$CHROMATOGRAPHY: COLUMN_NAME XBridge C18 3.5um, 2.1x50mm, Waters
AC$CHROMATOGRAPHY: FLOW_GRADIENT 90/10 at 0 min, 50/50 at 4 min, 5/95 at 17 min, 5/95 at 25 min, 90/10 at 25.1 min, 90/10 at 30 min
AC$CHROMATOGRAPHY: FLOW_RATE 200 ul/min
AC$CHROMATOGRAPHY: RETENTION_TIME 7.7 min
AC$CHROMATOGRAPHY: SOLVENT A water with 0.1% formic acid
AC$CHROMATOGRAPHY: SOLVENT B methanol with 0.1% formic acid
MS$FOCUSED_ION: BASE_PEAK 314.1062
MS$FOCUSED_ION: PRECURSOR_M/Z 314.1068
MS$FOCUSED_ION: PRECURSOR_TYPE [M-H]-
MS$DATA_PROCESSING: DEPROFILE Spline
MS$DATA_PROCESSING: RECALIBRATE loess on assigned fragments and MS1
MS$DATA_PROCESSING: REANALYZE Peaks with additional N2/O included
MS$DATA_PROCESSING: WHOLE RMassBank 1.3.1
PK$SPLASH: splash10-03di-0009000000-5c3e3d72270fd783bd7c
PK$ANNOTATION: m/z tentative_formula formula_count mass error(ppm)
  270.0767 C7H16N3O6S- 1 270.0765 0.67
  314.1065 C14H20NO5S- 1 314.1068 -0.85
PK$NUM_PEAK: 2
PK$PEAK: m/z int. rel.int.
  270.0767 14986.2 3
  314.1065 4019285.9 999
//
