ACCESSION: MSBNK-Eawag-EA027314
RECORD_TITLE: Chlortoluron; LC-ESI-ITFT; MS2; CE: 35%; R=30000; [M+H]+
DATE: 2014.01.14
AUTHORS: Stravs M, Schymanski E, Singer H, Department of Environmental Chemistry, Eawag
LICENSE: CC BY
COPYRIGHT: Copyright (C) 2012 Eawag, Duebendorf, Switzerland
COMMENT: CONFIDENCE standard compound
COMMENT: EAWAG_UCHEM_ID 273
CH$NAME: Chlortoluron
CH$NAME: Chlorotoluron
CH$NAME: 3-(3-chloranyl-4-methyl-phenyl)-1,1-dimethyl-urea
CH$COMPOUND_CLASS: N/A; Environmental Standard
CH$FORMULA: C10H13ClN2O
CH$EXACT_MASS: 212.0711
CH$SMILES: c1(c(ccc(c1)NC(N(C)C)=O)C)Cl
CH$IUPAC: InChI=1S/C10H13ClN2O/c1-7-4-5-8(6-9(7)11)12-10(14)13(2)3/h4-6H,1-3H3,(H,12,14)
CH$LINK: CAS 15545-48-9
CH$LINK: PUBCHEM CID:27375
CH$LINK: INCHIKEY JXCGFZXSOMJFOA-UHFFFAOYSA-N
CH$LINK: CHEMSPIDER 25472
CH$LINK: COMPTOX DTXSID8052853
AC$INSTRUMENT: LTQ Orbitrap XL Thermo Scientific
AC$INSTRUMENT_TYPE: LC-ESI-ITFT
AC$MASS_SPECTROMETRY: MS_TYPE MS2
AC$MASS_SPECTROMETRY: ION_MODE POSITIVE
AC$MASS_SPECTROMETRY: IONIZATION ESI
AC$MASS_SPECTROMETRY: FRAGMENTATION_MODE CID
AC$MASS_SPECTROMETRY: COLLISION_ENERGY 35 % (nominal)
AC$MASS_SPECTROMETRY: RESOLUTION 30000
AC$CHROMATOGRAPHY: COLUMN_NAME XBridge C18 3.5um, 2.1x50mm, Waters
AC$CHROMATOGRAPHY: FLOW_GRADIENT 90/10 at 0 min, 50/50 at 4 min, 5/95 at 17 min, 5/95 at 25 min, 90/10 at 25.1 min, 90/10 at 30 min
AC$CHROMATOGRAPHY: FLOW_RATE 200 ul/min
AC$CHROMATOGRAPHY: RETENTION_TIME 8.2 min
AC$CHROMATOGRAPHY: SOLVENT A water with 0.1% formic acid
AC$CHROMATOGRAPHY: SOLVENT B methanol with 0.1% formic acid
MS$FOCUSED_ION: BASE_PEAK 213.0793
MS$FOCUSED_ION: PRECURSOR_M/Z 213.0789
MS$FOCUSED_ION: PRECURSOR_TYPE [M+H]+
MS$DATA_PROCESSING: DEPROFILE Spline
MS$DATA_PROCESSING: RECALIBRATE loess on assigned fragments and MS1
MS$DATA_PROCESSING: REANALYZE Peaks with additional N2/O included
MS$DATA_PROCESSING: WHOLE RMassBank 1.3.1
PK$SPLASH: splash10-00di-9000000000-c626bcaf63447d359250
PK$ANNOTATION: m/z tentative_formula formula_count mass error(ppm)
  72.0444 C3H6NO+ 1 72.0444 0
  168.0212 C8H7ClNO+ 1 168.0211 0.49
  213.0786 C10H14ClN2O+ 1 213.0789 -1.44
PK$NUM_PEAK: 3
PK$PEAK: m/z int. rel.int.
  72.0444 1390585.3 999
  168.0212 9806.1 7
  213.0786 13459.8 9
//
