ACCESSION: MSBNK-Eawag-EQ01132608
RECORD_TITLE: 2,4-Dimethylaniline; LC-ESI-QFT; MS2; CE: 150%; R=17500; [M+H]+
DATE: 2023.04.27
AUTHORS: B. Beck [dtc,com], J. Hollender [dtc]
LICENSE: CC BY-SA
COPYRIGHT: Copyright (C) Eawag 2023
COMMENT: CONFIDENCE standard compound
COMMENT: UCHEM_ID 11326
CH$NAME: 2,4-Dimethylaniline
CH$COMPOUND_CLASS: N/A; Environmental Standard
CH$FORMULA: C8H11N
CH$EXACT_MASS: 121.0891
CH$SMILES: CC1=CC(=C(C=C1)N)C
CH$IUPAC: InChI=1S/C8H11N/c1-6-3-4-8(9)7(2)5-6/h3-5H,9H2,1-2H3
CH$LINK: CAS 95-68-1
CH$LINK: CHEBI CHEBI:27840
CH$LINK: KEGG C11003
CH$LINK: PUBCHEM CID:7250
CH$LINK: INCHIKEY CZZZABOKJQXEBO-UHFFFAOYSA-N
CH$LINK: CHEMSPIDER 13869462
AC$INSTRUMENT: Exploris 240 Orbitrap Thermo Scientific
AC$INSTRUMENT_TYPE: LC-ESI-QFT
AC$MASS_SPECTROMETRY: MS_TYPE MS2
AC$MASS_SPECTROMETRY: ION_MODE POSITIVE
AC$MASS_SPECTROMETRY: IONIZATION ESI
AC$MASS_SPECTROMETRY: FRAGMENTATION_MODE HCD
AC$MASS_SPECTROMETRY: COLLISION_ENERGY 150 % (nominal)
AC$MASS_SPECTROMETRY: RESOLUTION 17500
AC$MASS_SPECTROMETRY: MASS_RANGE_M/Z 40-146
AC$CHROMATOGRAPHY: COLUMN_NAME XBridge C18 3.5um, 2.1x50mm, Waters
AC$CHROMATOGRAPHY: FLOW_GRADIENT 90/10 at 0 min, 50/50 at 4 min, 5/95 at 17 min, 5/95 at 25 min, 90/10 at 25.1 min, 90/10 at 30 min
AC$CHROMATOGRAPHY: FLOW_RATE 200 uL/min
AC$CHROMATOGRAPHY: RETENTION_TIME 2.610 min
MS$FOCUSED_ION: BASE_PEAK 122.0964
MS$FOCUSED_ION: PRECURSOR_M/Z 122.0964
MS$FOCUSED_ION: PRECURSOR_TYPE [M+H]+
MS$DATA_PROCESSING: RECALIBRATE loess on assigned fragments and MS1
MS$DATA_PROCESSING: REANALYZE Peaks with additional N2/O included
MS$DATA_PROCESSING: WHOLE RMassBank 3.11.0.1
PK$SPLASH: splash10-004i-9300000000-93103212af845c106d20
PK$ANNOTATION: m/z tentative_formula formula_count mass error(ppm)
  51.0229 C4H3+ 1 51.0229 0.23
  53.0386 C4H5+ 1 53.0386 0.37
  65.0386 C5H5+ 1 65.0386 -0.27
  66.0464 C5H6+ 1 66.0464 0.61
  77.0386 C6H5+ 1 77.0386 0.37
  78.0464 C6H6+ 1 78.0464 -0.44
  79.0543 C6H7+ 1 79.0542 0.51
  89.0387 C7H5+ 1 89.0386 1.8
  90.0463 C7H6+ 1 90.0464 -0.95
  102.0464 C8H6+ 1 102.0464 0.45
  103.0542 C8H7+ 1 103.0542 0.2
  104.0622 C8H8+ 1 104.0621 1.55
  105.0695 C8H9+ 1 105.0699 -3.21
  106.0652 C7H8N+ 1 106.0651 0.57
  107.0731 C7H9N+ 1 107.073 1.33
PK$NUM_PEAK: 15
PK$PEAK: m/z int. rel.int.
  51.0229 24218576 368
  53.0386 11100514 168
  65.0386 6355087 96
  66.0464 1156293.2 17
  77.0386 65670940 999
  78.0464 1242082.5 18
  79.0543 28310024 430
  89.0387 930012.2 14
  90.0463 702681.6 10
  102.0464 371865.3 5
  103.0542 11334890 172
  104.0622 365603 5
  105.0695 3651061.2 55
  106.0652 29961384 455
  107.0731 6832747.5 103
//
