ACCESSION: MSBNK-Eawag-EQ01127102
RECORD_TITLE: Hexaconazole; LC-ESI-QFT; MS2; CE: 30%; R=17500; [M+H]+
DATE: 2023.04.27
AUTHORS: B. Beck [dtc,com], J. Hollender [dtc]
LICENSE: CC BY-SA
COPYRIGHT: Copyright (C) Eawag 2023
COMMENT: CONFIDENCE standard compound
COMMENT: UCHEM_ID 11271
CH$NAME: Hexaconazole
CH$NAME: 2-(2,4-dichlorophenyl)-1-(1,2,4-triazol-1-yl)hexan-2-ol
CH$COMPOUND_CLASS: N/A; Environmental Standard
CH$FORMULA: C14H17Cl2N3O
CH$EXACT_MASS: 313.0749
CH$SMILES: CCCCC(CN1C=NC=N1)(C2=C(C=C(C=C2)Cl)Cl)O
CH$IUPAC: InChI=1S/C14H17Cl2N3O/c1-2-3-6-14(20,8-19-10-17-9-18-19)12-5-4-11(15)7-13(12)16/h4-5,7,9-10,20H,2-3,6,8H2,1H3
CH$LINK: CAS 79983-71-4
CH$LINK: CHEBI CHEBI:83711
CH$LINK: KEGG C18466
CH$LINK: PUBCHEM CID:66461
CH$LINK: INCHIKEY STMIIPIFODONDC-UHFFFAOYSA-N
CH$LINK: CHEMSPIDER 59833
AC$INSTRUMENT: Exploris 240 Orbitrap Thermo Scientific
AC$INSTRUMENT_TYPE: LC-ESI-QFT
AC$MASS_SPECTROMETRY: MS_TYPE MS2
AC$MASS_SPECTROMETRY: ION_MODE POSITIVE
AC$MASS_SPECTROMETRY: IONIZATION ESI
AC$MASS_SPECTROMETRY: FRAGMENTATION_MODE HCD
AC$MASS_SPECTROMETRY: COLLISION_ENERGY 30 % (nominal)
AC$MASS_SPECTROMETRY: RESOLUTION 17500
AC$MASS_SPECTROMETRY: MASS_RANGE_M/Z 50-341
AC$CHROMATOGRAPHY: COLUMN_NAME XBridge C18 3.5um, 2.1x50mm, Waters
AC$CHROMATOGRAPHY: FLOW_GRADIENT 90/10 at 0 min, 50/50 at 4 min, 5/95 at 17 min, 5/95 at 25 min, 90/10 at 25.1 min, 90/10 at 30 min
AC$CHROMATOGRAPHY: FLOW_RATE 200 uL/min
AC$CHROMATOGRAPHY: RETENTION_TIME 11.635 min
MS$FOCUSED_ION: BASE_PEAK 320.1519
MS$FOCUSED_ION: PRECURSOR_M/Z 314.0821
MS$FOCUSED_ION: PRECURSOR_TYPE [M+H]+
MS$DATA_PROCESSING: RECALIBRATE loess on assigned fragments and MS1
MS$DATA_PROCESSING: REANALYZE Peaks with additional N2/O included
MS$DATA_PROCESSING: WHOLE RMassBank 3.11.0.1
PK$SPLASH: splash10-00di-9003000000-4410bdaa978fce7576a1
PK$ANNOTATION: m/z tentative_formula formula_count mass error(ppm)
  70.0399 C2H4N3+ 1 70.04 -1.15
  158.9758 C7H5Cl2+ 1 158.9763 -2.81
  174.9711 C7H5Cl2O+ 1 174.9712 -0.72
  184.9919 C9H7Cl2+ 1 184.9919 -0.16
  188.987 C8H7Cl2O+ 1 188.9868 0.89
  314.082 C14H18Cl2N3O+ 1 314.0821 -0.59
PK$NUM_PEAK: 6
PK$PEAK: m/z int. rel.int.
  70.0399 229437552 999
  158.9758 9498926 41
  174.9711 1852045.9 8
  184.9919 4243026.5 18
  188.987 2829454.8 12
  314.082 94609376 411
//
