ACCESSION: MSBNK-Eawag-EQ418151
RECORD_TITLE: Fipronil-TP RPA 200761; LC-ESI-QFT; MS2; CE: 15%; R=17500; [M-H]-
DATE: 2019.12.03
AUTHORS: K. Kiefer [dtc], J. Hollender [dtc], H. Singer [dtc], M. Stravs [com]
LICENSE: CC BY-SA
COPYRIGHT: Copyright (C) Eawag 2019
PUBLICATION: Kiefer, K.; Mueller, A.; Singer, H.; Hollender, J. New relevant pesticide transformation products in groundwater detected using target and suspect screening for agricultural and urban micropollutants with LC-HRMS. Water Research 2019, 165. DOI: https://doi.org/10.1016/j.watres.2019.114972
COMMENT: CONFIDENCE standard compound
COMMENT: UCHEM_ID 4181
CH$NAME: Fipronil-TP RPA 200761
CH$NAME: 5-amino-1-[2,6-dichloro-4-(trifluoromethyl)phenyl]-4-(trifluoromethylsulfinyl)pyrazole-3-carboxylic acid
CH$COMPOUND_CLASS: N/A; Environmental Standard
CH$FORMULA: C12H5Cl2F6N3O3S
CH$EXACT_MASS: 454.9333
CH$SMILES: NC1=C(C(=NN1C1=C(Cl)C=C(C=C1Cl)C(F)(F)F)C(O)=O)S(=O)C(F)(F)F
CH$IUPAC: InChI=1S/C12H5Cl2F6N3O3S/c13-4-1-3(11(15,16)17)2-5(14)7(4)23-9(21)8(6(22-23)10(24)25)27(26)12(18,19)20/h1-2H,21H2,(H,24,25)
CH$LINK: PUBCHEM CID:23079075
CH$LINK: INCHIKEY OHWPIAZSHNMBAC-UHFFFAOYSA-N
CH$LINK: CHEMSPIDER 16106629
AC$INSTRUMENT: Q Exactive Plus Orbitrap Thermo Scientific
AC$INSTRUMENT_TYPE: LC-ESI-QFT
AC$MASS_SPECTROMETRY: MS_TYPE MS2
AC$MASS_SPECTROMETRY: ION_MODE NEGATIVE
AC$MASS_SPECTROMETRY: IONIZATION ESI
AC$MASS_SPECTROMETRY: FRAGMENTATION_MODE HCD
AC$MASS_SPECTROMETRY: COLLISION_ENERGY 15 % (nominal)
AC$MASS_SPECTROMETRY: RESOLUTION 17500
AC$CHROMATOGRAPHY: COLUMN_NAME XBridge C18 3.5um, 2.1x50mm, Waters
AC$CHROMATOGRAPHY: FLOW_GRADIENT 90/10 at 0 min, 50/50 at 4 min, 5/95 at 17 min, 5/95 at 25 min, 90/10 at 25.1 min, 90/10 at 30 min
AC$CHROMATOGRAPHY: FLOW_RATE 200 uL/min
AC$CHROMATOGRAPHY: RETENTION_TIME 8.064 min
AC$CHROMATOGRAPHY: SOLVENT A water with 0.1% formic acid
AC$CHROMATOGRAPHY: SOLVENT B MeOH with 0.1% formic acid
MS$FOCUSED_ION: BASE_PEAK 453.926
MS$FOCUSED_ION: PRECURSOR_M/Z 453.926
MS$FOCUSED_ION: PRECURSOR_TYPE [M-H]-
MS$DATA_PROCESSING: RECALIBRATE loess on assigned fragments and MS1
MS$DATA_PROCESSING: REANALYZE Peaks with additional N2/O included
MS$DATA_PROCESSING: WHOLE RMassBank 2.99.1
PK$SPLASH: splash10-0udi-0093100000-94f3a21c266df331cee9
PK$ANNOTATION: m/z tentative_formula formula_count mass error(ppm)
  85.9706 C2NOS- 1 85.9706 0.05
  111.9733 C2H2ClFO2- 2 111.9733 0.22
  155.9736 C3HF3NOS- 5 155.9736 -0.04
  180.9689 C4F3N2OS- 7 180.9689 -0.01
  252.9552 C8H2Cl2F3N2- 5 252.9553 -0.33
  256.9974 C10H3ClF3N3- 3 256.9973 0.35
  287.9612 C9H4Cl2F4NO- 9 287.9612 0.28
  303.9563 C10H2ClF3N3OS- 9 303.9565 -0.57
  304.9642 C10H3ClF3N3OS- 7 304.9643 -0.41
  336.9647 C9H4ClF6N2OS- 4 336.9643 1.46
  339.933 C10H3Cl2F3N3OS- 6 339.9331 -0.41
  340.9408 C10H4Cl2F3N3OS- 4 340.941 -0.53
  409.9362 C11H4Cl2F6N3OS- 1 409.9362 -0.07
  453.926 C12H4Cl2F6N3O3S- 1 453.926 -0.12
PK$NUM_PEAK: 15
PK$PEAK: m/z int. rel.int.
  67.0394 224268.2 11
  85.9706 976069 51
  111.9733 82824.7 4
  155.9736 508806.2 27
  180.9689 742994.6 39
  252.9552 18813132 999
  256.9974 1265887.4 67
  287.9612 271723.5 14
  303.9563 3860478.2 204
  304.9642 1674399.2 88
  336.9647 89171.1 4
  339.933 1770904.8 94
  340.9408 165429.6 8
  409.9362 1594285.1 84
  453.926 907695.6 48
//
