ACCESSION: MSBNK-Eawag-EQ305906
RECORD_TITLE: Imidacloprid-guanidine; LC-ESI-QFT; MS2; CE: 90; R=35000; [M+H]+
DATE: 2015.08.25
AUTHORS: Beck B, Stravs M, Schymanski E, Singer H, Department of Environmental Chemistry, Eawag
LICENSE: CC BY
COPYRIGHT: Copyright (C) 2015 Eawag, Duebendorf, Switzerland
COMMENT: CONFIDENCE standard compound
COMMENT: EAWAG_UCHEM_ID 3059
CH$NAME: Imidacloprid-guanidine
CH$NAME: Desnitro-imidacloprid
CH$NAME: 1-[(6-Chloro-3-pyridinyl)methyl]-4,5-dihydro-1H-imidazol-2-amine
CH$COMPOUND_CLASS: N/A; Environmental Standard
CH$FORMULA: C9H11ClN4
CH$EXACT_MASS: 210.06722
CH$SMILES: Clc1ncc(cc1)CN2\C(=N/CC2)N
CH$IUPAC: InChI=1S/C9H11ClN4/c10-8-2-1-7(5-13-8)6-14-4-3-12-9(14)11/h1-2,5H,3-4,6H2,(H2,11,12)
CH$LINK: CAS 115970-17-7
CH$LINK: CHEBI CHEBI:212822
CH$LINK: PUBCHEM CID:10130527
CH$LINK: INCHIKEY UEQZFAGVRGWPDK-UHFFFAOYSA-N
CH$LINK: CHEMSPIDER 8306043
CH$LINK: COMPTOX DTXSID90436011
AC$INSTRUMENT: Q Exactive Orbitrap Thermo Scientific
AC$INSTRUMENT_TYPE: LC-ESI-QFT
AC$MASS_SPECTROMETRY: MS_TYPE MS2
AC$MASS_SPECTROMETRY: ION_MODE POSITIVE
AC$MASS_SPECTROMETRY: IONIZATION ESI
AC$MASS_SPECTROMETRY: FRAGMENTATION_MODE HCD
AC$MASS_SPECTROMETRY: COLLISION_ENERGY 90 (nominal)
AC$MASS_SPECTROMETRY: RESOLUTION 35000
AC$CHROMATOGRAPHY: COLUMN_NAME XBridge C18 3.5um, 2.1x50mm, Waters
AC$CHROMATOGRAPHY: FLOW_GRADIENT 90/10 at 0 min, 50/50 at 4 min, 5/95 at 17 min, 5/95 at 25 min, 90/10 at 25.1 min, 90/10 at 30 min
AC$CHROMATOGRAPHY: FLOW_RATE 200 ul/min
AC$CHROMATOGRAPHY: RETENTION_TIME 2.4 min
AC$CHROMATOGRAPHY: SOLVENT A water with 0.1% formic acid
AC$CHROMATOGRAPHY: SOLVENT B methanol with 0.1% formic acid
MS$FOCUSED_ION: BASE_PEAK 211.0747
MS$FOCUSED_ION: PRECURSOR_M/Z 211.0745
MS$FOCUSED_ION: PRECURSOR_TYPE [M+H]+
MS$DATA_PROCESSING: DEPROFILE Spline
MS$DATA_PROCESSING: RECALIBRATE loess on assigned fragments and MS1
MS$DATA_PROCESSING: REANALYZE Peaks with additional N2/O included
MS$DATA_PROCESSING: WHOLE RMassBank 1.9.6
PK$SPLASH: splash10-004i-4900000000-e1d0ca4bf0b809337946
PK$ANNOTATION: m/z tentative_formula formula_count mass error(ppm)
  57.0448 C2H5N2+ 1 57.0447 0.8
  63.0229 C5H3+ 1 63.0229 -0.26
  64.0182 C4H2N+ 1 64.0182 0.07
  65.0386 C5H5+ 1 65.0386 0.05
  72.9839 C3H2Cl+ 1 72.984 -1.02
  79.0542 C6H7+ 1 79.0542 -0.72
  80.0495 C5H6N+ 1 80.0495 0.05
  81.0335 C5H5O+ 1 81.0335 -0.26
  84.0556 C3H6N3+ 1 84.0556 -0.28
  85.0635 C3H7N3+ 1 85.0634 0.49
  86.0711 C3H8N3+ 1 86.0713 -1.67
  90.0338 C6H4N+ 1 90.0338 -0.28
  91.0416 C6H5N+ 1 91.0417 -0.78
  98.9996 C5H4Cl+ 1 98.9996 -0.04
  106.0651 C7H8N+ 1 106.0651 0.14
  108.0443 C3H9ClN2+ 1 108.0449 -4.88
  126.0105 C6H5ClN+ 1 126.0105 0.13
  132.0555 C7H6N3+ 1 132.0556 -0.78
  132.068 C8H8N2+ 1 132.0682 -1.51
  133.0761 C8H9N2+ 1 133.076 0.27
  144.0211 C6H7ClNO+ 1 144.0211 0.22
  168.0322 C7H7ClN3+ 1 168.0323 -0.54
  175.0979 C9H11N4+ 1 175.0978 0.33
  194.0479 C9H9ClN3+ 1 194.048 -0.26
  211.0745 C9H12ClN4+ 1 211.0745 0.23
PK$NUM_PEAK: 25
PK$PEAK: m/z int. rel.int.
  57.0448 405943.6 4
  63.0229 1950604.7 21
  64.0182 199202.7 2
  65.0386 628900 6
  72.9839 2579603.5 28
  79.0542 276134.4 3
  80.0495 532808.5 5
  81.0335 2958489.3 32
  84.0556 6340511.7 68
  85.0635 180562.4 1
  86.0711 136184.2 1
  90.0338 19304174 209
  91.0416 3933476.6 42
  98.9996 14763014.9 160
  106.0651 1542995.9 16
  108.0443 1890566.6 20
  126.0105 91844344.9 999
  132.0555 340039 3
  132.068 93731.6 1
  133.0761 1915345.9 20
  144.0211 4449805.2 48
  168.0322 163511.8 1
  175.0979 402010.6 4
  194.0479 154532.4 1
  211.0745 592116.1 6
//
