ACCESSION: MSBNK-Eawag-EQ00379509
RECORD_TITLE: Triazophos; LC-ESI-QFT; MS2; CE: 180%; R=15000; [M+H]+
DATE: 2024.06.14
AUTHORS: F. Jud [dtc], K. Arturi [dtc], J. Hollender [dtc], A. Dax [com]
LICENSE: CC BY-SA
COPYRIGHT: Copyright (C) Eawag 2024
COMMENT: CONFIDENCE standard compound
COMMENT: UCHEM_ID 3795
CH$NAME: Triazophos
CH$NAME: diethoxy-[(1-phenyl-1,2,4-triazol-3-yl)oxy]-sulfanylidene-lambda5-phosphane
CH$COMPOUND_CLASS: N/A
CH$FORMULA: C12H16N3O3PS
CH$EXACT_MASS: 313.064999
CH$SMILES: CCOP(=S)(OCC)OC1=NN(C=N1)C2=CC=CC=C2
CH$IUPAC: InChI=1S/C12H16N3O3PS/c1-3-16-19(20,17-4-2)18-12-13-10-15(14-12)11-8-6-5-7-9-11/h5-10H,3-4H2,1-2H3
CH$LINK: CAS 24017-47-8
CH$LINK: CHEBI CHEBI:38963
CH$LINK: KEGG C18657
CH$LINK: PUBCHEM CID:32184
CH$LINK: INCHIKEY AMFGTOFWMRQMEM-UHFFFAOYSA-N
CH$LINK: CHEMSPIDER 29847
AC$INSTRUMENT: Exploris 240 Thermo Scientific
AC$INSTRUMENT_TYPE: LC-ESI-QFT
AC$MASS_SPECTROMETRY: MS_TYPE MS2
AC$MASS_SPECTROMETRY: ION_MODE POSITIVE
AC$MASS_SPECTROMETRY: IONIZATION ESI
AC$MASS_SPECTROMETRY: FRAGMENTATION_MODE HCD
AC$MASS_SPECTROMETRY: COLLISION_ENERGY 180 % (nominal)
AC$MASS_SPECTROMETRY: RESOLUTION 15000
AC$MASS_SPECTROMETRY: MASS_RANGE_M/Z 50-341
AC$CHROMATOGRAPHY: COLUMN_NAME XBridge C18 3.5um, 2.1x50mm, Waters
AC$CHROMATOGRAPHY: FLOW_GRADIENT 90/10 at 0 min, 50/50 at 4 min, 5/95 at 17 min, 5/95 at 25 min, 90/10 at 25.1 min, 90/10 at 30 min
AC$CHROMATOGRAPHY: FLOW_RATE 200 uL/min
AC$CHROMATOGRAPHY: RETENTION_TIME 9.744 min
MS$FOCUSED_ION: BASE_PEAK 314.072
MS$FOCUSED_ION: PRECURSOR_M/Z 314.0723
MS$FOCUSED_ION: PRECURSOR_TYPE [M+H]+
MS$DATA_PROCESSING: RECALIBRATE loess on assigned fragments and MS1
MS$DATA_PROCESSING: REANALYZE Peaks with additional N2/O included
MS$DATA_PROCESSING: WHOLE RMassBank 3.15.1.1
PK$SPLASH: splash10-0i29-9000000000-21377442ce2013335d5d
PK$ANNOTATION: m/z tentative_formula formula_count mass error(ppm)
  50.0151 C4H2+ 1 50.0151 -0.59
  51.0229 C4H3+ 1 51.0229 -0.38
  64.9787 H2O2P+ 1 64.9787 -0.41
  65.0385 C5H5+ 1 65.0386 -0.42
  66.0463 C5H6+ 1 66.0464 -1.55
  77.0386 C6H5+ 2 77.0386 -0.06
  78.9402 OPS+ 1 78.9402 -0.12
  93.0573 C6H7N+ 2 93.0573 0.12
  95.0492 C6H7O+ 2 95.0491 0.41
  96.9507 H2O2PS+ 1 96.9508 -0.66
  105.0445 C6H5N2+ 1 105.0447 -2.15
  114.9612 H4O3PS+ 1 114.9613 -1.45
PK$NUM_PEAK: 12
PK$PEAK: m/z int. rel.int.
  50.0151 2930062.8 133
  51.0229 14293528 650
  64.9787 17331160 789
  65.0385 21940434 999
  66.0463 3013961 137
  77.0386 8143891.5 370
  78.9402 5704621 259
  93.0573 4664442.5 212
  95.0492 4765430.5 216
  96.9507 2940223.2 133
  105.0445 1688967.5 76
  114.9612 3679489.2 167
//
