ACCESSION: MSBNK-Eawag-EA294907
RECORD_TITLE: Lenacil; LC-ESI-ITFT; MS2; CE: 90%; R=7500; [M+H]+
DATE: 2014.01.14
AUTHORS: Stravs M, Schymanski E, Singer H, Department of Environmental Chemistry, Eawag
LICENSE: CC BY
COPYRIGHT: Copyright (C) 2012 Eawag, Duebendorf, Switzerland
COMMENT: CONFIDENCE standard compound
COMMENT: EAWAG_UCHEM_ID 2949
CH$NAME: Lenacil
CH$NAME: 3-cyclohexyl-1,5,6,7-tetrahydrocyclopenta[d]pyrimidine-2,4-dione
CH$COMPOUND_CLASS: N/A; Environmental Standard
CH$FORMULA: C13H18N2O2
CH$EXACT_MASS: 234.1368
CH$SMILES: O=C1\C3=C(/NC(=O)N1C2CCCCC2)CCC3
CH$IUPAC: InChI=1S/C13H18N2O2/c16-12-10-7-4-8-11(10)14-13(17)15(12)9-5-2-1-3-6-9/h9H,1-8H2,(H,14,17)
CH$LINK: CAS 2164-08-1
CH$LINK: KEGG C11200
CH$LINK: PUBCHEM CID:16559
CH$LINK: INCHIKEY ZTMKADLOSYKWCA-UHFFFAOYSA-N
CH$LINK: CHEMSPIDER 15699
CH$LINK: COMPTOX DTXSID9042093
AC$INSTRUMENT: LTQ Orbitrap XL Thermo Scientific
AC$INSTRUMENT_TYPE: LC-ESI-ITFT
AC$MASS_SPECTROMETRY: MS_TYPE MS2
AC$MASS_SPECTROMETRY: ION_MODE POSITIVE
AC$MASS_SPECTROMETRY: IONIZATION ESI
AC$MASS_SPECTROMETRY: FRAGMENTATION_MODE HCD
AC$MASS_SPECTROMETRY: COLLISION_ENERGY 90 % (nominal)
AC$MASS_SPECTROMETRY: RESOLUTION 7500
AC$CHROMATOGRAPHY: COLUMN_NAME XBridge C18 3.5um, 2.1x50mm, Waters
AC$CHROMATOGRAPHY: FLOW_GRADIENT 90/10 at 0 min, 50/50 at 4 min, 5/95 at 17 min, 5/95 at 25 min, 90/10 at 25.1 min, 90/10 at 30 min
AC$CHROMATOGRAPHY: FLOW_RATE 200 ul/min
AC$CHROMATOGRAPHY: RETENTION_TIME 8.6 min
AC$CHROMATOGRAPHY: SOLVENT A water with 0.1% formic acid
AC$CHROMATOGRAPHY: SOLVENT B methanol with 0.1% formic acid
MS$FOCUSED_ION: BASE_PEAK 235.1446
MS$FOCUSED_ION: PRECURSOR_M/Z 235.1441
MS$FOCUSED_ION: PRECURSOR_TYPE [M+H]+
MS$DATA_PROCESSING: DEPROFILE Spline
MS$DATA_PROCESSING: RECALIBRATE loess on assigned fragments and MS1
MS$DATA_PROCESSING: REANALYZE Peaks with additional N2/O included
MS$DATA_PROCESSING: WHOLE RMassBank 1.3.1
PK$SPLASH: splash10-0f79-1900000000-fa9d0b9a85c4a89a308f
PK$ANNOTATION: m/z tentative_formula formula_count mass error(ppm)
  53.0385 C4H5+ 1 53.0386 -1.44
  55.0541 C4H7+ 1 55.0542 -1.57
  65.0386 C5H5+ 1 65.0386 0.21
  67.0416 C4H5N+ 1 67.0417 -0.61
  80.0494 C5H6N+ 1 80.0495 -0.44
  82.0651 C5H8N+ 1 82.0651 -0.07
  83.0855 C6H11+ 1 83.0855 -0.68
  92.0496 C6H6N+ 1 92.0495 1.57
  107.0603 C6H7N2+ 1 107.0604 -1.07
  108.0443 C6H6NO+ 1 108.0444 -0.93
  109.0759 C6H9N2+ 1 109.076 -0.96
  110.06 C6H8NO+ 1 110.06 -0.18
  125.0713 C6H9N2O+ 1 125.0709 3.28
  135.0553 C7H7N2O+ 1 135.0553 -0.29
  136.0393 C7H6NO2+ 1 136.0393 -0.26
  151.05 C7H7N2O2+ 1 151.0502 -1.22
  153.0657 C7H9N2O2+ 1 153.0659 -1.01
PK$NUM_PEAK: 17
PK$PEAK: m/z int. rel.int.
  53.0385 53294.3 4
  55.0541 277036 20
  65.0386 120734.2 9
  67.0416 184869.7 13
  80.0494 599045.8 45
  82.0651 2944184.4 222
  83.0855 164977.3 12
  92.0496 45115 3
  107.0603 67858.2 5
  108.0443 139927.6 10
  109.0759 337514 25
  110.06 4752604 359
  125.0713 40626.1 3
  135.0553 5336640.6 403
  136.0393 8673735.8 656
  151.05 37067.8 2
  153.0657 13201494.8 999
//
