ACCESSION: MSBNK-Eawag-EA295513
RECORD_TITLE: Thiacloprid-amide; LC-ESI-ITFT; MS2; CE: 90%; R=15000; [M+H]+
DATE: 2014.01.14
AUTHORS: Stravs M, Schymanski E, Singer H, Department of Environmental Chemistry, Eawag
LICENSE: CC BY
COPYRIGHT: Copyright (C) 2012 Eawag, Duebendorf, Switzerland
COMMENT: CONFIDENCE standard compound
COMMENT: EAWAG_UCHEM_ID 2955
CH$NAME: Thiacloprid-amide
CH$NAME: [3-(6-Chloro-3-pyridylmethyl)thiazolidin-2-ylidene]urea
CH$COMPOUND_CLASS: N/A; Environmental Standard
CH$FORMULA: C10H11ClN4OS
CH$EXACT_MASS: 270.0342
CH$SMILES: Clc1ncc(cc1)CN2C(=N/C(=O)N)/SCC2
CH$IUPAC: InChI=1S/C10H11ClN4OS/c11-8-2-1-7(5-13-8)6-15-3-4-17-10(15)14-9(12)16/h1-2,5H,3-4,6H2,(H2,12,16)/b14-10-
CH$LINK: CAS 676228-91-4
CH$LINK: PUBCHEM CID:16212161
CH$LINK: INCHIKEY LEZHOZPJYAQQNU-UVTDQMKNSA-N
CH$LINK: CHEMSPIDER 17340044
CH$LINK: COMPTOX DTXSID60583566
AC$INSTRUMENT: LTQ Orbitrap XL Thermo Scientific
AC$INSTRUMENT_TYPE: LC-ESI-ITFT
AC$MASS_SPECTROMETRY: MS_TYPE MS2
AC$MASS_SPECTROMETRY: ION_MODE POSITIVE
AC$MASS_SPECTROMETRY: IONIZATION ESI
AC$MASS_SPECTROMETRY: FRAGMENTATION_MODE HCD
AC$MASS_SPECTROMETRY: COLLISION_ENERGY 90 % (nominal)
AC$MASS_SPECTROMETRY: RESOLUTION 15000
AC$CHROMATOGRAPHY: COLUMN_NAME XBridge C18 3.5um, 2.1x50mm, Waters
AC$CHROMATOGRAPHY: FLOW_GRADIENT 90/10 at 0 min, 50/50 at 4 min, 5/95 at 17 min, 5/95 at 25 min, 90/10 at 25.1 min, 90/10 at 30 min
AC$CHROMATOGRAPHY: FLOW_RATE 200 ul/min
AC$CHROMATOGRAPHY: RETENTION_TIME 4.6 min
AC$CHROMATOGRAPHY: SOLVENT A water with 0.1% formic acid
AC$CHROMATOGRAPHY: SOLVENT B methanol with 0.1% formic acid
MS$FOCUSED_ION: BASE_PEAK 271.0418
MS$FOCUSED_ION: PRECURSOR_M/Z 271.0415
MS$FOCUSED_ION: PRECURSOR_TYPE [M+H]+
MS$DATA_PROCESSING: DEPROFILE Spline
MS$DATA_PROCESSING: RECALIBRATE loess on assigned fragments and MS1
MS$DATA_PROCESSING: REANALYZE Peaks with additional N2/O included
MS$DATA_PROCESSING: WHOLE RMassBank 1.3.1
PK$SPLASH: splash10-004i-3900000000-e7def5a7971957be649c
PK$ANNOTATION: m/z tentative_formula formula_count mass error(ppm)
  63.0229 C5H3+ 1 63.0229 0.21
  65.0386 C5H5+ 1 65.0386 -0.1
  72.984 C3H2Cl+ 1 72.984 0.22
  81.0335 C5H5O+ 1 81.0335 -0.51
  90.0338 C6H4N+ 1 90.0338 0.16
  91.0417 C6H5N+ 1 91.0417 0.1
  98.9996 C5H4Cl+ 1 98.9996 -0.04
  101.0168 C3H5N2S+ 1 101.0168 -0.35
  103.0324 C3H7N2S+ 1 103.0324 -0.35
  106.0652 C7H8N+ 1 106.0651 1.08
  108.0444 C6H6NO+ 2 108.0444 0.37
  126.0105 C6H5ClN+ 2 126.0105 0.05
  127.0183 C6H6ClN+ 2 127.0183 -0.54
  129.0118 C4H5N2OS+ 2 129.0117 0.85
  132.0557 C7H6N3+ 1 132.0556 0.2
  137.0169 C6H5N2S+ 1 137.0168 0.47
  144.0211 C6H7ClNO+ 1 144.0211 0.15
  165.0484 C8H9N2S+ 1 165.0481 1.72
  254.0264 C9H9ClN5S+ 1 254.0262 0.75
PK$NUM_PEAK: 19
PK$PEAK: m/z int. rel.int.
  63.0229 46766.5 13
  65.0386 12894.3 3
  72.984 75941 21
  81.0335 13740.6 3
  90.0338 689598.3 194
  91.0417 124707.8 35
  98.9996 625850.8 176
  101.0168 17054.2 4
  103.0324 11595.7 3
  106.0652 4173.7 1
  108.0444 38043.5 10
  126.0105 3546902.2 999
  127.0183 30633.9 8
  129.0118 9370.7 2
  132.0557 19936 5
  137.0169 7802.4 2
  144.0211 150517.1 42
  165.0484 4525.2 1
  254.0264 6661.9 1
//
