ACCESSION: MSBNK-Eawag-EQ365856
RECORD_TITLE: Diclazuril; LC-ESI-QFT; MS2; CE: 90; R=35000; [M-H]-
DATE: 2015.08.26
AUTHORS: Stravs M, Schymanski E, Singer H, Department of Environmental Chemistry, Eawag and Thomaidis N, University of Athens
LICENSE: CC BY
COPYRIGHT: Copyright (C) 2015 Eawag, Duebendorf, Switzerland
COMMENT: CONFIDENCE standard compound
COMMENT: EAWAG_UCHEM_ID 3658
CH$NAME: Diclazuril
CH$NAME: 2-(4-chlorophenyl)-2-[2,6-dichloro-4-(3,5-dioxo-1,2,4-triazin-2-yl)phenyl]acetonitrile
CH$COMPOUND_CLASS: N/A; Environmental Standard
CH$FORMULA: C17H9Cl3N4O2
CH$EXACT_MASS: 405.97911
CH$SMILES: C1=CC(=CC=C1C(C#N)C2=C(C=C(C=C2Cl)N3C(=O)NC(=O)C=N3)Cl)Cl
CH$IUPAC: InChI=1S/C17H9Cl3N4O2/c18-10-3-1-9(2-4-10)12(7-21)16-13(19)5-11(6-14(16)20)24-17(26)23-15(25)8-22-24/h1-6,8,12H,(H,23,25,26)
CH$LINK: CAS 101831-37-2
CH$LINK: PUBCHEM CID:456389
CH$LINK: INCHIKEY ZSZFUDFOPOMEET-UHFFFAOYSA-N
CH$LINK: CHEMSPIDER 401855
CH$LINK: COMPTOX DTXSID4046787
AC$INSTRUMENT: Q Exactive Plus Orbitrap Thermo Scientific
AC$INSTRUMENT_TYPE: LC-ESI-QFT
AC$MASS_SPECTROMETRY: MS_TYPE MS2
AC$MASS_SPECTROMETRY: ION_MODE NEGATIVE
AC$MASS_SPECTROMETRY: IONIZATION ESI
AC$MASS_SPECTROMETRY: FRAGMENTATION_MODE HCD
AC$MASS_SPECTROMETRY: COLLISION_ENERGY 90 (nominal)
AC$MASS_SPECTROMETRY: RESOLUTION 35000
AC$CHROMATOGRAPHY: COLUMN_NAME XBridge C18 3.5um, 2.1x50mm, Waters
AC$CHROMATOGRAPHY: FLOW_GRADIENT 90/10 at 0 min, 50/50 at 4 min, 5/95 at 17 min, 5/95 at 25 min, 90/10 at 25.1 min, 90/10 at 30 min
AC$CHROMATOGRAPHY: FLOW_RATE 200 ul/min
AC$CHROMATOGRAPHY: RETENTION_TIME 12.4 min
AC$CHROMATOGRAPHY: SOLVENT A water with 0.1% formic acid
AC$CHROMATOGRAPHY: SOLVENT B methanol with 0.1% formic acid
MS$FOCUSED_ION: BASE_PEAK 404.9721
MS$FOCUSED_ION: PRECURSOR_M/Z 404.9718
MS$FOCUSED_ION: PRECURSOR_TYPE [M-H]-
MS$DATA_PROCESSING: RECALIBRATE loess on assigned fragments and MS1
MS$DATA_PROCESSING: REANALYZE Peaks with additional N2/O included
MS$DATA_PROCESSING: WHOLE RMassBank 1.9.6
PK$SPLASH: splash10-0f79-0920000000-249408083c15561d5b67
PK$ANNOTATION: m/z tentative_formula formula_count mass error(ppm)
  151.0173 C9HN3- 1 151.0176 -2.22
  152.0256 C9H2N3- 1 152.0254 0.98
  186.9946 C9H2ClN3- 1 186.9943 1.96
  199.0299 C14H3N2- 1 199.0302 -1.47
  222.9711 C9H3Cl2N3- 2 222.971 0.58
  263.0023 C12H7Cl2N3- 2 263.0023 0.15
PK$NUM_PEAK: 6
PK$PEAK: m/z int. rel.int.
  151.0173 2960.8 244
  152.0256 5190.3 428
  186.9946 12102 999
  199.0299 4093.3 337
  222.9711 4292.6 354
  263.0023 3122.1 257
//
