ACCESSION: MSBNK-Eawag-EQ417601
RECORD_TITLE: Terbuthylazine-TP CSAA036479 (LM2); LC-ESI-QFT; MS2; CE: 15%; R=17500; [M+H]+
DATE: 2019.12.03
AUTHORS: K. Kiefer [dtc], J. Hollender [dtc], H. Singer [dtc], M. Stravs [com]
LICENSE: CC BY-SA
COPYRIGHT: Copyright (C) Eawag 2019
PUBLICATION: Kiefer, K.; Mueller, A.; Singer, H.; Hollender, J. New relevant pesticide transformation products in groundwater detected using target and suspect screening for agricultural and urban micropollutants with LC-HRMS. Water Research 2019, 165. DOI: https://doi.org/10.1016/j.watres.2019.114972
COMMENT: CONFIDENCE standard compound
COMMENT: UCHEM_ID 4176
CH$NAME: Terbuthylazine-TP CSAA036479 (LM2)
CH$NAME: 2-[(6-amino-4-oxo-1H-1,3,5-triazin-2-yl)amino]-2-methylpropanoic acid
CH$COMPOUND_CLASS: N/A; Environmental Standard
CH$FORMULA: C7H11N5O3
CH$EXACT_MASS: 213.0862
CH$SMILES: CC(C)(NC1=NC(N)=NC(O)=N1)C(O)=O
CH$IUPAC: InChI=1S/C7H11N5O3/c1-7(2,3(13)14)12-5-9-4(8)10-6(15)11-5/h1-2H3,(H,13,14)(H4,8,9,10,11,12,15)
CH$LINK: CAS 36576-45-1
CH$LINK: CHEMSPIDER 106348
CH$LINK: INCHIKEY QKOJUBFULGSCQS-UHFFFAOYSA-N
CH$LINK: PUBCHEM CID:135611801
AC$INSTRUMENT: Q Exactive Plus Orbitrap Thermo Scientific
AC$INSTRUMENT_TYPE: LC-ESI-QFT
AC$MASS_SPECTROMETRY: MS_TYPE MS2
AC$MASS_SPECTROMETRY: ION_MODE POSITIVE
AC$MASS_SPECTROMETRY: IONIZATION ESI
AC$MASS_SPECTROMETRY: FRAGMENTATION_MODE HCD
AC$MASS_SPECTROMETRY: COLLISION_ENERGY 15 % (nominal)
AC$MASS_SPECTROMETRY: RESOLUTION 17500
AC$CHROMATOGRAPHY: COLUMN_NAME XBridge C18 3.5um, 2.1x50mm, Waters
AC$CHROMATOGRAPHY: FLOW_GRADIENT 90/10 at 0 min, 50/50 at 4 min, 5/95 at 17 min, 5/95 at 25 min, 90/10 at 25.1 min, 90/10 at 30 min
AC$CHROMATOGRAPHY: FLOW_RATE 200 uL/min
AC$CHROMATOGRAPHY: RETENTION_TIME 1.352 min
AC$CHROMATOGRAPHY: SOLVENT A water with 0.1% formic acid
AC$CHROMATOGRAPHY: SOLVENT B MeOH with 0.1% formic acid
MS$FOCUSED_ION: BASE_PEAK 214.0934
MS$FOCUSED_ION: PRECURSOR_M/Z 214.0935
MS$FOCUSED_ION: PRECURSOR_TYPE [M+H]+
MS$DATA_PROCESSING: RECALIBRATE loess on assigned fragments and MS1
MS$DATA_PROCESSING: REANALYZE Peaks with additional N2/O included
MS$DATA_PROCESSING: WHOLE RMassBank 2.99.1
PK$SPLASH: splash10-03di-0490000000-b93dd1d3fac529b37a52
PK$ANNOTATION: m/z tentative_formula formula_count mass error(ppm)
  86.0352 C2H4N3O+ 1 86.0349 3.76
  112.0382 C3H4N4O+ 1 112.038 1.78
  128.0564 C3H6N5O+ 1 128.0567 -2.16
  168.088 C6H10N5O+ 1 168.088 -0.16
  196.0828 C7H10N5O2+ 1 196.0829 -0.46
  214.0934 C7H12N5O3+ 1 214.0935 -0.51
PK$NUM_PEAK: 6
PK$PEAK: m/z int. rel.int.
  86.0352 556124.2 3
  112.0382 381026.2 2
  128.0564 2126924 12
  168.088 61153044 366
  196.0828 10479277 62
  214.0934 166809696 999
//
