ACCESSION: MSBNK-Eawag-EQ01126902
RECORD_TITLE: Pyrifluquinazon; LC-ESI-QFT; MS2; CE: 30%; R=17500; [M+H]+
DATE: 2023.04.27
AUTHORS: B. Beck [dtc,com], J. Hollender [dtc]
LICENSE: CC BY-SA
COPYRIGHT: Copyright (C) Eawag 2023
COMMENT: CONFIDENCE standard compound
COMMENT: UCHEM_ID 11269
CH$NAME: Pyrifluquinazon
CH$NAME: 1-acetyl-6-(1,1,1,2,3,3,3-heptafluoropropan-2-yl)-3-(pyridin-3-ylmethylamino)-4H-quinazolin-2-one
CH$COMPOUND_CLASS: N/A; Environmental Standard
CH$FORMULA: C19H15F7N4O2
CH$EXACT_MASS: 464.1083
CH$SMILES: CC(=O)N1C2=C(CN(C1=O)NCC3=CN=CC=C3)C=C(C=C2)C(C(F)(F)F)(C(F)(F)F)F
CH$IUPAC: InChI=1S/C19H15F7N4O2/c1-11(31)30-15-5-4-14(17(20,18(21,22)23)19(24,25)26)7-13(15)10-29(16(30)32)28-9-12-3-2-6-27-8-12/h2-8,28H,9-10H2,1H3
CH$LINK: CAS 337458-27-2
CH$LINK: CHEBI CHEBI:142784
CH$LINK: PUBCHEM CID:11842644
CH$LINK: INCHIKEY MIOBBYRMXGNORL-UHFFFAOYSA-N
CH$LINK: CHEMSPIDER 10017121
AC$INSTRUMENT: Exploris 240 Orbitrap Thermo Scientific
AC$INSTRUMENT_TYPE: LC-ESI-QFT
AC$MASS_SPECTROMETRY: MS_TYPE MS2
AC$MASS_SPECTROMETRY: ION_MODE POSITIVE
AC$MASS_SPECTROMETRY: IONIZATION ESI
AC$MASS_SPECTROMETRY: FRAGMENTATION_MODE HCD
AC$MASS_SPECTROMETRY: COLLISION_ENERGY 30 % (nominal)
AC$MASS_SPECTROMETRY: RESOLUTION 17500
AC$MASS_SPECTROMETRY: MASS_RANGE_M/Z 50-495
AC$CHROMATOGRAPHY: COLUMN_NAME XBridge C18 3.5um, 2.1x50mm, Waters
AC$CHROMATOGRAPHY: FLOW_GRADIENT 90/10 at 0 min, 50/50 at 4 min, 5/95 at 17 min, 5/95 at 25 min, 90/10 at 25.1 min, 90/10 at 30 min
AC$CHROMATOGRAPHY: FLOW_RATE 200 uL/min
AC$CHROMATOGRAPHY: RETENTION_TIME 8.322 min
MS$FOCUSED_ION: BASE_PEAK 465.1151
MS$FOCUSED_ION: PRECURSOR_M/Z 465.1156
MS$FOCUSED_ION: PRECURSOR_TYPE [M+H]+
MS$DATA_PROCESSING: RECALIBRATE loess on assigned fragments and MS1
MS$DATA_PROCESSING: REANALYZE Peaks with additional N2/O included
MS$DATA_PROCESSING: WHOLE RMassBank 3.11.0.1
PK$SPLASH: splash10-00di-1100900000-330da39a35abcdbaee05
PK$ANNOTATION: m/z tentative_formula formula_count mass error(ppm)
  92.0495 C6H6N+ 2 92.0495 -0.07
  93.0573 C6H7N+ 2 93.0573 0.03
  94.0652 C6H8N+ 2 94.0651 1.01
  107.0604 C6H7N2+ 1 107.0604 0.26
  109.0765 C6H9N2+ 1 109.076 4.53
  403.0991 C17H13F6N4O+ 3 403.0988 0.63
  423.1054 C17H14F7N4O+ 2 423.105 0.88
  465.1159 C19H16F7N4O2+ 1 465.1156 0.73
PK$NUM_PEAK: 8
PK$PEAK: m/z int. rel.int.
  92.0495 35041368 133
  93.0573 12159949 46
  94.0652 5328417 20
  107.0604 37868236 144
  109.0765 1761698.2 6
  403.0991 7969482.5 30
  423.1054 261529184 999
  465.1159 87166944 332
//
