ACCESSION: MSBNK-Eawag-EQ01149706
RECORD_TITLE: 4-Hydroxybenzaldehyde; LC-ESI-QFT; MS2; CE: 90%; R=17500; [M+H]+
DATE: 2024.05.08
AUTHORS: C. Meyer [dtc], B. Beck [dtc,com], J. Hollender [dtc]
LICENSE: CC BY-SA
COPYRIGHT: Copyright (C) Eawag 2023
PUBLICATION: Meyer, C., Stravs, M., Hollender, J.. How Wastewater Reflects Human Metabolism - Suspect Screening of Pharmaceutical Metabolites in Wastewater Influent. doi:10.1021/acs.est.4c00968
COMMENT: CONFIDENCE standard compound
COMMENT: UCHEM_ID 11497
CH$NAME: 4-Hydroxybenzaldehyde
CH$COMPOUND_CLASS: N/A; Environmental Standard
CH$FORMULA: C7H6O2
CH$EXACT_MASS: 122.0367794
CH$SMILES: C1=CC(=CC=C1C=O)O
CH$IUPAC: InChI=1S/C7H6O2/c8-5-6-1-3-7(9)4-2-6/h1-5,9H
CH$LINK: CHEBI CHEBI:17597
CH$LINK: PUBCHEM CID:126
CH$LINK: INCHIKEY RGHHSNMVTDWUBI-UHFFFAOYSA-N
CH$LINK: CHEMSPIDER 123
AC$INSTRUMENT: Exploris 240 Orbitrap Thermo Scientific
AC$INSTRUMENT_TYPE: LC-ESI-QFT
AC$MASS_SPECTROMETRY: MS_TYPE MS2
AC$MASS_SPECTROMETRY: ION_MODE POSITIVE
AC$MASS_SPECTROMETRY: IONIZATION ESI
AC$MASS_SPECTROMETRY: FRAGMENTATION_MODE HCD
AC$MASS_SPECTROMETRY: COLLISION_ENERGY 90 % (nominal)
AC$MASS_SPECTROMETRY: RESOLUTION 17500
AC$MASS_SPECTROMETRY: MASS_RANGE_M/Z 40-147
AC$CHROMATOGRAPHY: COLUMN_NAME XBridge C18 3.5um, 2.1x50mm, Waters
AC$CHROMATOGRAPHY: FLOW_GRADIENT 90/10 at 0 min, 50/50 at 4 min, 5/95 at 17 min, 5/95 at 25 min, 90/10 at 25.1 min, 90/10 at 30 min
AC$CHROMATOGRAPHY: FLOW_RATE 200 uL/min
AC$CHROMATOGRAPHY: RETENTION_TIME 3.323 min
MS$FOCUSED_ION: BASE_PEAK 132.9582
MS$FOCUSED_ION: PRECURSOR_M/Z 123.0441
MS$FOCUSED_ION: PRECURSOR_TYPE [M+H]+
MS$DATA_PROCESSING: RECALIBRATE loess on assigned fragments and MS1
MS$DATA_PROCESSING: REANALYZE Peaks with additional N2/O included
MS$DATA_PROCESSING: WHOLE RMassBank 3.15.1
PK$SPLASH: splash10-002b-9000000000-09f9b3351881047a85ed
PK$ANNOTATION: m/z tentative_formula formula_count mass error(ppm)
  41.0385 C3H5+ 1 41.0386 -0.95
  51.0229 C4H3+ 1 51.0229 -0.27
  53.0386 C4H5+ 1 53.0386 -0.43
  55.0178 C3H3O+ 1 55.0178 0
  65.0385 C5H5+ 1 65.0386 -1.16
  67.0542 C5H7+ 1 67.0542 -0.52
  77.0385 C6H5+ 1 77.0386 -0.42
  81.0334 C5H5O+ 1 81.0335 -1.71
  94.0413 C6H6O+ 1 94.0413 -0.31
  95.0491 C6H7O+ 1 95.0491 -0.77
  123.044 C7H7O2+ 1 123.0441 -0.25
PK$NUM_PEAK: 11
PK$PEAK: m/z int. rel.int.
  41.0385 193265.1 11
  51.0229 491337.1 28
  53.0386 1892948.4 111
  55.0178 350631.8 20
  65.0385 432170.2 25
  67.0542 1684733.6 99
  77.0385 11084145 653
  81.0334 126095.1 7
  94.0413 279453.3 16
  95.0491 16948266 999
  123.044 454663.1 26
//
