ACCESSION: MSBNK-Eawag-EQ01126502
RECORD_TITLE: Dicrotophos; LC-ESI-QFT; MS2; CE: 30%; R=17500; [M+H]+
DATE: 2023.04.27
AUTHORS: B. Beck [dtc,com], J. Hollender [dtc]
LICENSE: CC BY-SA
COPYRIGHT: Copyright (C) Eawag 2023
COMMENT: CONFIDENCE standard compound
COMMENT: UCHEM_ID 11265
CH$NAME: Dicrotophos
CH$NAME: 3-Hydroxy-N,N-dimethylcrotonamide dimethyl phosphate
CH$NAME: [4-(dimethylamino)-4-oxobut-2-en-2-yl] dimethyl phosphate
CH$COMPOUND_CLASS: N/A; Environmental Standard
CH$FORMULA: C8H16NO5P
CH$EXACT_MASS: 237.0766
CH$SMILES: CC(=CC(=O)N(C)C)OP(=O)(OC)OC
CH$IUPAC: InChI=1S/C8H16NO5P/c1-7(6-8(10)9(2)3)14-15(11,12-4)13-5/h6H,1-5H3
CH$LINK: CAS 141-66-2
CH$LINK: PUBCHEM CID:8854
CH$LINK: INCHIKEY VEENJGZXVHKXNB-UHFFFAOYSA-N
CH$LINK: CHEMSPIDER 8522
AC$INSTRUMENT: Exploris 240 Orbitrap Thermo Scientific
AC$INSTRUMENT_TYPE: LC-ESI-QFT
AC$MASS_SPECTROMETRY: MS_TYPE MS2
AC$MASS_SPECTROMETRY: ION_MODE POSITIVE
AC$MASS_SPECTROMETRY: IONIZATION ESI
AC$MASS_SPECTROMETRY: FRAGMENTATION_MODE HCD
AC$MASS_SPECTROMETRY: COLLISION_ENERGY 30 % (nominal)
AC$MASS_SPECTROMETRY: RESOLUTION 17500
AC$MASS_SPECTROMETRY: MASS_RANGE_M/Z 50-264
AC$CHROMATOGRAPHY: COLUMN_NAME XBridge C18 3.5um, 2.1x50mm, Waters
AC$CHROMATOGRAPHY: FLOW_GRADIENT 90/10 at 0 min, 50/50 at 4 min, 5/95 at 17 min, 5/95 at 25 min, 90/10 at 25.1 min, 90/10 at 30 min
AC$CHROMATOGRAPHY: FLOW_RATE 200 uL/min
AC$CHROMATOGRAPHY: RETENTION_TIME 3.436 min
MS$FOCUSED_ION: BASE_PEAK 238.0837
MS$FOCUSED_ION: PRECURSOR_M/Z 238.0839
MS$FOCUSED_ION: PRECURSOR_TYPE [M+H]+
MS$DATA_PROCESSING: RECALIBRATE loess on assigned fragments and MS1
MS$DATA_PROCESSING: REANALYZE Peaks with additional N2/O included
MS$DATA_PROCESSING: WHOLE RMassBank 3.11.0.1
PK$SPLASH: splash10-03di-1900000000-0f28a6bc652b2b70ea36
PK$ANNOTATION: m/z tentative_formula formula_count mass error(ppm)
  67.0179 C4H3O+ 2 67.0178 0.23
  70.0649 C4H8N+ 1 70.0651 -2.95
  72.0444 C3H6NO+ 1 72.0444 -0.32
  112.0756 C6H10NO+ 1 112.0757 -0.47
  127.0154 C2H8O4P+ 1 127.0155 -0.27
  193.0261 C6H10O5P+ 1 193.026 0.08
  238.0835 C8H17NO5P+ 1 238.0839 -1.52
PK$NUM_PEAK: 7
PK$PEAK: m/z int. rel.int.
  67.0179 4380266.5 16
  70.0649 2599317.5 9
  72.0444 66928016 248
  112.0756 268922912 999
  127.0154 117827352 437
  193.0261 58125956 215
  238.0835 5878677.5 21
//
