ACCESSION: MSBNK-Eawag-EQ348757
RECORD_TITLE: Iodosulfuron-methyl; LC-ESI-QFT; MS2; CE: 120; R=35000; [M-H]-
DATE: 2015.08.26
AUTHORS: Stravs M, Schymanski E, Singer H, Department of Environmental Chemistry, Eawag and Thomaidis N, University of Athens
LICENSE: CC BY
COPYRIGHT: Copyright (C) 2015 Eawag, Duebendorf, Switzerland
COMMENT: CONFIDENCE standard compound
COMMENT: EAWAG_UCHEM_ID 3487
CH$NAME: Iodosulfuron-methyl
CH$NAME: Methyl 4-iodo-2-(N-(4-methoxy-6-methyl-1,3,5-triazin-2-ylcarbamoyl)sulfamoyl)benzoate
CH$NAME: Methyl 4-iodo-2-[(4-methoxy-6-methyl-1,3,5-triazin-2-yl)carbamoylsulfamoyl]benzoate
CH$COMPOUND_CLASS: N/A; Environmental Standard
CH$FORMULA: C14H14IN5O6S
CH$EXACT_MASS: 506.97095
CH$SMILES: Cc2nc(NC(=O)NS(=O)(=O)c1cc(I)ccc1C(=O)OC)nc(OC)n2
CH$IUPAC: InChI=1S/C14H14IN5O6S/c1-7-16-12(19-14(17-7)26-3)18-13(22)20-27(23,24)10-6-8(15)4-5-9(10)11(21)25-2/h4-6H,1-3H3,(H2,16,17,18,19,20,22)
CH$LINK: CAS 144550-36-7
CH$LINK: PUBCHEM CID:11027582
CH$LINK: INCHIKEY VWGAYSCWLXQJBQ-UHFFFAOYSA-N
CH$LINK: CHEMSPIDER 9202762
CH$LINK: COMPTOX DTXSID1043968
AC$INSTRUMENT: Q Exactive Plus Orbitrap Thermo Scientific
AC$INSTRUMENT_TYPE: LC-ESI-QFT
AC$MASS_SPECTROMETRY: MS_TYPE MS2
AC$MASS_SPECTROMETRY: ION_MODE NEGATIVE
AC$MASS_SPECTROMETRY: IONIZATION ESI
AC$MASS_SPECTROMETRY: FRAGMENTATION_MODE HCD
AC$MASS_SPECTROMETRY: COLLISION_ENERGY 120 (nominal)
AC$MASS_SPECTROMETRY: RESOLUTION 35000
AC$CHROMATOGRAPHY: COLUMN_NAME XBridge C18 3.5um, 2.1x50mm, Waters
AC$CHROMATOGRAPHY: FLOW_GRADIENT 90/10 at 0 min, 50/50 at 4 min, 5/95 at 17 min, 5/95 at 25 min, 90/10 at 25.1 min, 90/10 at 30 min
AC$CHROMATOGRAPHY: FLOW_RATE 200 ul/min
AC$CHROMATOGRAPHY: RETENTION_TIME 9.2 min
AC$CHROMATOGRAPHY: SOLVENT A water with 0.1% formic acid
AC$CHROMATOGRAPHY: SOLVENT B methanol with 0.1% formic acid
MS$FOCUSED_ION: BASE_PEAK 505.9636
MS$FOCUSED_ION: PRECURSOR_M/Z 505.9637
MS$FOCUSED_ION: PRECURSOR_TYPE [M-H]-
MS$DATA_PROCESSING: RECALIBRATE loess on assigned fragments and MS1
MS$DATA_PROCESSING: REANALYZE Peaks with additional N2/O included
MS$DATA_PROCESSING: WHOLE RMassBank 1.9.6
PK$SPLASH: splash10-014i-9200000000-b76b7041d549c5a6f94a
PK$ANNOTATION: m/z tentative_formula formula_count mass error(ppm)
  55.0302 C2H3N2- 1 55.0302 0.51
  61.9706 NOS- 1 61.9706 0.67
  64.0067 C3N2- 1 64.0067 0.83
  65.0146 C3HN2- 1 65.0145 1.36
  66.0099 C2N3- 1 66.0098 1.2
  81.0333 C3H3N3- 1 81.0332 0.67
  82.0411 C3H4N3- 1 82.0411 0.84
  92.0132 C3N4- 1 92.0128 3.97
  98.0359 C3H4N3O- 1 98.036 -0.36
  107.0364 C4H3N4- 1 107.0363 1.12
  109.052 C4H5N4- 1 109.052 0.37
  124.0392 C4H4N4O- 1 124.0391 1.46
  125.047 C4H5N4O- 1 125.0469 0.76
  126.9051 I- 1 126.905 0.85
  139.0626 C5H7N4O- 1 139.0625 0.69
  180.9841 C7H3NO3S- 1 180.9839 0.93
PK$NUM_PEAK: 16
PK$PEAK: m/z int. rel.int.
  55.0302 1330253.1 78
  61.9706 204384.9 12
  64.0067 411496.5 24
  65.0146 15973228 945
  66.0099 16873030 999
  81.0333 100268.8 5
  82.0411 1452040.6 85
  92.0132 39825.6 2
  98.0359 26514.3 1
  107.0364 6694790 396
  109.052 139560.3 8
  124.0392 167292.6 9
  125.047 485299.2 28
  126.9051 1078381.6 63
  139.0626 386468 22
  180.9841 84218.2 4
//
