ACCESSION: MSBNK-Eawag-EA026060
RECORD_TITLE: Dimethenamide ESA; LC-ESI-ITFT; MS2; CE: 45%; R=15000; [M-H]-
DATE: 2014.01.14
AUTHORS: Stravs M, Schymanski E, Singer H, Department of Environmental Chemistry, Eawag
LICENSE: CC BY
COPYRIGHT: Copyright (C) 2012 Eawag, Duebendorf, Switzerland
COMMENT: CONFIDENCE standard compound
COMMENT: EAWAG_UCHEM_ID 260
CH$NAME: Dimethenamide ESA
CH$NAME: 2-[(2,4-Dimethyl-3-thienyl)(1-methoxy-2-propanyl)amino]-2-oxoethanesulfonic acid
CH$COMPOUND_CLASS: N/A; Environmental Standard
CH$FORMULA: C12H19NO5S2
CH$EXACT_MASS: 321.0705
CH$SMILES: S(C=C1C)C(C)=C1N(C(=O)CS(=O)(=O)O)C(COC)C
CH$IUPAC: InChI=1S/C12H19NO5S2/c1-8-6-19-10(3)12(8)13(9(2)5-18-4)11(14)7-20(15,16)17/h6,9H,5,7H2,1-4H3,(H,15,16,17)
CH$LINK: PUBCHEM CID:6426850
CH$LINK: INCHIKEY YMYKMSAZEZQEER-UHFFFAOYSA-N
CH$LINK: CHEMSPIDER 4932270
CH$LINK: COMPTOX DTXSID50891445
AC$INSTRUMENT: LTQ Orbitrap XL Thermo Scientific
AC$INSTRUMENT_TYPE: LC-ESI-ITFT
AC$MASS_SPECTROMETRY: MS_TYPE MS2
AC$MASS_SPECTROMETRY: ION_MODE NEGATIVE
AC$MASS_SPECTROMETRY: IONIZATION ESI
AC$MASS_SPECTROMETRY: FRAGMENTATION_MODE HCD
AC$MASS_SPECTROMETRY: COLLISION_ENERGY 45 % (nominal)
AC$MASS_SPECTROMETRY: RESOLUTION 15000
AC$CHROMATOGRAPHY: COLUMN_NAME XBridge C18 3.5um, 2.1x50mm, Waters
AC$CHROMATOGRAPHY: FLOW_GRADIENT 90/10 at 0 min, 50/50 at 4 min, 5/95 at 17 min, 5/95 at 25 min, 90/10 at 25.1 min, 90/10 at 30 min
AC$CHROMATOGRAPHY: FLOW_RATE 200 ul/min
AC$CHROMATOGRAPHY: RETENTION_TIME 6.6 min
AC$CHROMATOGRAPHY: SOLVENT A water with 0.1% formic acid
AC$CHROMATOGRAPHY: SOLVENT B methanol with 0.1% formic acid
MS$FOCUSED_ION: BASE_PEAK 320.0627
MS$FOCUSED_ION: PRECURSOR_M/Z 320.0632
MS$FOCUSED_ION: PRECURSOR_TYPE [M-H]-
MS$DATA_PROCESSING: DEPROFILE Spline
MS$DATA_PROCESSING: RECALIBRATE loess on assigned fragments and MS1
MS$DATA_PROCESSING: REANALYZE Peaks with additional N2/O included
MS$DATA_PROCESSING: WHOLE RMassBank 1.3.1
PK$SPLASH: splash10-00fr-9603000000-1d71cf1f9fcebe9fcc24
PK$ANNOTATION: m/z tentative_formula formula_count mass error(ppm)
  76.9702 CHO2S- 1 76.9703 -1.61
  79.9573 O3S- 1 79.9574 -1.17
  120.96 C2HO4S- 1 120.9601 -0.44
  166.0693 C9H12NS- 1 166.0696 -1.53
  198.0959 C10H16NOS- 1 198.0958 0.31
  248.005 C8H10NO4S2- 1 248.0057 -2.92
  288.0368 C11H14NO4S2- 1 288.037 -0.71
  320.0626 C12H18NO5S2- 1 320.0632 -1.71
PK$NUM_PEAK: 8
PK$PEAK: m/z int. rel.int.
  76.9702 242577.5 237
  79.9573 1021707 999
  120.96 853855.4 834
  166.0693 48171.5 47
  198.0959 35637.5 34
  248.005 30464 29
  288.0368 13667.8 13
  320.0626 499288.9 488
//
