ACCESSION: MSBNK-Eawag-EA010701
RECORD_TITLE: Amitraz; LC-ESI-ITFT; MS2; CE: 35%; R=7500; [M+H]+
DATE: 2014.01.14
AUTHORS: Stravs M, Schymanski E, Singer H, Department of Environmental Chemistry, Eawag
LICENSE: CC BY
COPYRIGHT: Copyright (C) 2012 Eawag, Duebendorf, Switzerland
COMMENT: CONFIDENCE standard compound
COMMENT: EAWAG_UCHEM_ID 107
CH$NAME: Amitraz
CH$NAME: N'-(2,4-dimethylphenyl)-N-[(2,4-dimethylphenyl)iminomethyl]-N-methyl-formamidine
CH$COMPOUND_CLASS: N/A; Environmental Standard
CH$FORMULA: C19H23N3
CH$EXACT_MASS: 293.1892
CH$SMILES: c1(c(cc(C)cc1)C)\N=C\N(\C=N\c1c(cc(C)cc1)C)C
CH$IUPAC: InChI=1S/C19H23N3/c1-14-6-8-18(16(3)10-14)20-12-22(5)13-21-19-9-7-15(2)11-17(19)4/h6-13H,1-5H3
CH$LINK: CAS 33089-61-1
CH$LINK: CHEBI CHEBI:2665
CH$LINK: KEGG C10995
CH$LINK: PUBCHEM CID:36324
CH$LINK: INCHIKEY QXAITBQSYVNQDR-UHFFFAOYSA-N
CH$LINK: CHEMSPIDER 33405
AC$INSTRUMENT: LTQ Orbitrap XL Thermo Scientific
AC$INSTRUMENT_TYPE: LC-ESI-ITFT
AC$MASS_SPECTROMETRY: MS_TYPE MS2
AC$MASS_SPECTROMETRY: ION_MODE POSITIVE
AC$MASS_SPECTROMETRY: IONIZATION ESI
AC$MASS_SPECTROMETRY: FRAGMENTATION_MODE CID
AC$MASS_SPECTROMETRY: COLLISION_ENERGY 35 % (nominal)
AC$MASS_SPECTROMETRY: RESOLUTION 7500
AC$CHROMATOGRAPHY: COLUMN_NAME XBridge C18 3.5um, 2.1x50mm, Waters
AC$CHROMATOGRAPHY: FLOW_GRADIENT 90/10 at 0 min, 50/50 at 4 min, 5/95 at 17 min, 5/95 at 25 min, 90/10 at 25.1 min, 90/10 at 30 min
AC$CHROMATOGRAPHY: FLOW_RATE 200 ul/min
AC$CHROMATOGRAPHY: RETENTION_TIME 15.4 min
AC$CHROMATOGRAPHY: SOLVENT A water with 0.1% formic acid
AC$CHROMATOGRAPHY: SOLVENT B methanol with 0.1% formic acid
MS$FOCUSED_ION: BASE_PEAK 149.012
MS$FOCUSED_ION: PRECURSOR_M/Z 294.1965
MS$FOCUSED_ION: PRECURSOR_TYPE [M+H]+
MS$DATA_PROCESSING: DEPROFILE Spline
MS$DATA_PROCESSING: RECALIBRATE loess on assigned fragments and MS1
MS$DATA_PROCESSING: REANALYZE Peaks with additional N2/O included
MS$DATA_PROCESSING: WHOLE RMassBank 1.3.1
PK$SPLASH: splash10-03di-0910000000-3a96dc2da0c86712d6bc
PK$ANNOTATION: m/z tentative_formula formula_count mass error(ppm)
  163.1229 C10H15N2+ 1 163.123 -0.64
  253.1697 C17H21N2+ 1 253.1699 -0.77
PK$NUM_PEAK: 2
PK$PEAK: m/z int. rel.int.
  163.1229 497836.3 999
  253.1697 79208.9 158
//
