ACCESSION: MSBNK-Eawag-EA285214
RECORD_TITLE: Amisulpride; LC-ESI-ITFT; MS2; CE: 35%; R=30000; [M+H]+
DATE: 2014.01.14
AUTHORS: Stravs M, Schymanski E, Singer H, Department of Environmental Chemistry, Eawag
LICENSE: CC BY
COPYRIGHT: Copyright (C) 2012 Eawag, Duebendorf, Switzerland
COMMENT: CONFIDENCE standard compound
COMMENT: EAWAG_UCHEM_ID 2852
CH$NAME: Amisulpride
CH$NAME: 4-amino-5-esyl-N-[(1-ethylpyrrolidin-2-yl)methyl]-2-methoxy-benzamide
CH$COMPOUND_CLASS: N/A; Environmental Standard
CH$FORMULA: C17H27N3O4S
CH$EXACT_MASS: 369.1722
CH$SMILES: CCN1CCCC1CNC(=O)C2=CC(=C(C=C2OC)N)S(=O)(=O)CC
CH$IUPAC: InChI=1S/C17H27N3O4S/c1-4-20-8-6-7-12(20)11-19-17(21)13-9-16(25(22,23)5-2)14(18)10-15(13)24-3/h9-10,12H,4-8,11,18H2,1-3H3,(H,19,21)
CH$LINK: CAS 71675-85-9
CH$LINK: KEGG D07310
CH$LINK: PUBCHEM CID:2159
CH$LINK: INCHIKEY NTJOBXMMWNYJFB-UHFFFAOYSA-N
CH$LINK: CHEMSPIDER 2074
CH$LINK: COMPTOX DTXSID5042613
AC$INSTRUMENT: LTQ Orbitrap XL Thermo Scientific
AC$INSTRUMENT_TYPE: LC-ESI-ITFT
AC$MASS_SPECTROMETRY: MS_TYPE MS2
AC$MASS_SPECTROMETRY: ION_MODE POSITIVE
AC$MASS_SPECTROMETRY: IONIZATION ESI
AC$MASS_SPECTROMETRY: FRAGMENTATION_MODE CID
AC$MASS_SPECTROMETRY: COLLISION_ENERGY 35 % (nominal)
AC$MASS_SPECTROMETRY: RESOLUTION 30000
AC$CHROMATOGRAPHY: COLUMN_NAME XBridge C18 3.5um, 2.1x50mm, Waters
AC$CHROMATOGRAPHY: FLOW_GRADIENT 90/10 at 0 min, 50/50 at 4 min, 5/95 at 17 min, 5/95 at 25 min, 90/10 at 25.1 min, 90/10 at 30 min
AC$CHROMATOGRAPHY: FLOW_RATE 200 ul/min
AC$CHROMATOGRAPHY: RETENTION_TIME 3.8 min
AC$CHROMATOGRAPHY: SOLVENT A water with 0.1% formic acid
AC$CHROMATOGRAPHY: SOLVENT B methanol with 0.1% formic acid
MS$FOCUSED_ION: BASE_PEAK 370.1806
MS$FOCUSED_ION: PRECURSOR_M/Z 370.1795
MS$FOCUSED_ION: PRECURSOR_TYPE [M+H]+
MS$DATA_PROCESSING: DEPROFILE Spline
MS$DATA_PROCESSING: RECALIBRATE loess on assigned fragments and MS1
MS$DATA_PROCESSING: REANALYZE Peaks with additional N2/O included
MS$DATA_PROCESSING: WHOLE RMassBank 1.3.1
PK$SPLASH: splash10-0006-0190000000-458205e2fa61496c6a54
PK$ANNOTATION: m/z tentative_formula formula_count mass error(ppm)
  112.1121 C7H14N+ 1 112.1121 0.13
  127.0865 C6H11N2O+ 1 127.0866 -0.47
  129.1386 C7H17N2+ 1 129.1386 -0.43
  149.0464 H11N3O4S+ 1 149.0465 -0.73
  155.1179 C8H15N2O+ 1 155.1179 -0.19
  196.0059 C8H6NO3S+ 2 196.0063 -2.09
  214.017 C8H8NO4S+ 2 214.0169 0.77
  242.0481 C10H12NO4S+ 2 242.0482 -0.19
  313.1214 C14H21N2O4S+ 1 313.1217 -0.91
  325.1212 C15H21N2O4S+ 1 325.1217 -1.46
  342.1481 C15H24N3O4S+ 1 342.1482 -0.19
  352.1688 C17H26N3O3S+ 1 352.1689 -0.45
  353.1527 C17H25N2O4S+ 1 353.153 -0.75
PK$NUM_PEAK: 13
PK$PEAK: m/z int. rel.int.
  112.1121 270671.8 79
  127.0865 13994.6 4
  129.1386 21012.7 6
  149.0464 13997.7 4
  155.1179 113826.5 33
  196.0059 17661.1 5
  214.017 15645.7 4
  242.0481 3420191.4 999
  313.1214 47659 13
  325.1212 11310.7 3
  342.1481 11484.7 3
  352.1688 14688.4 4
  353.1527 26764.1 7
//
