ACCESSION: MSBNK-Eawag-EA028008
RECORD_TITLE: 5-Chloro-2-methyl-4-isothiazolin-3-one (CMI); LC-ESI-ITFT; MS2; CE: 15%; R=15000; [M+H]+
DATE: 2014.01.14
AUTHORS: Stravs M, Schymanski E, Singer H, Department of Environmental Chemistry, Eawag
LICENSE: CC BY
COPYRIGHT: Copyright (C) 2012 Eawag, Duebendorf, Switzerland
COMMENT: CONFIDENCE standard compound
COMMENT: EAWAG_UCHEM_ID 280
CH$NAME: 5-Chloro-2-methyl-4-isothiazolin-3-one (CMI)
CH$NAME: 3(2H)-Isothiazolone, 5-chloro-2-methyl-
CH$NAME: 5-chloranyl-2-methyl-1,2-thiazol-3-one
CH$COMPOUND_CLASS: N/A; Environmental Standard
CH$FORMULA: C4H4ClNOS
CH$EXACT_MASS: 148.9702
CH$SMILES: c1(n(sc(c1)Cl)C)=O
CH$IUPAC: InChI=1S/C4H4ClNOS/c1-6-4(7)2-3(5)8-6/h2H,1H3
CH$LINK: CAS 26172-55-4
CH$LINK: PUBCHEM CID:33344
CH$LINK: INCHIKEY DHNRXBZYEKSXIM-UHFFFAOYSA-N
CH$LINK: CHEMSPIDER 30800
CH$LINK: COMPTOX DTXSID9034286
AC$INSTRUMENT: LTQ Orbitrap XL Thermo Scientific
AC$INSTRUMENT_TYPE: LC-ESI-ITFT
AC$MASS_SPECTROMETRY: MS_TYPE MS2
AC$MASS_SPECTROMETRY: ION_MODE POSITIVE
AC$MASS_SPECTROMETRY: IONIZATION ESI
AC$MASS_SPECTROMETRY: FRAGMENTATION_MODE HCD
AC$MASS_SPECTROMETRY: COLLISION_ENERGY 15 % (nominal)
AC$MASS_SPECTROMETRY: RESOLUTION 15000
AC$CHROMATOGRAPHY: COLUMN_NAME XBridge C18 3.5um, 2.1x50mm, Waters
AC$CHROMATOGRAPHY: FLOW_GRADIENT 90/10 at 0 min, 50/50 at 4 min, 5/95 at 17 min, 5/95 at 25 min, 90/10 at 25.1 min, 90/10 at 30 min
AC$CHROMATOGRAPHY: FLOW_RATE 200 ul/min
AC$CHROMATOGRAPHY: RETENTION_TIME 3.7 min
AC$CHROMATOGRAPHY: SOLVENT A water with 0.1% formic acid
AC$CHROMATOGRAPHY: SOLVENT B methanol with 0.1% formic acid
MS$FOCUSED_ION: BASE_PEAK 149.9773
MS$FOCUSED_ION: PRECURSOR_M/Z 149.9775
MS$FOCUSED_ION: PRECURSOR_TYPE [M+H]+
MS$DATA_PROCESSING: DEPROFILE Spline
MS$DATA_PROCESSING: RECALIBRATE loess on assigned fragments and MS1
MS$DATA_PROCESSING: REANALYZE Peaks with additional N2/O included
MS$DATA_PROCESSING: WHOLE RMassBank 1.3.1
PK$SPLASH: splash10-0002-0900000000-f53314722589626eb432
PK$ANNOTATION: m/z tentative_formula formula_count mass error(ppm)
  134.9537 C3H2ClNOS+ 1 134.954 -2.18
  149.9775 C4H5ClNOS+ 1 149.9775 -0.13
PK$NUM_PEAK: 2
PK$PEAK: m/z int. rel.int.
  134.9537 52310.3 1
  149.9775 27222066.4 999
//
