ACCESSION: MSBNK-Eawag-EA293810
RECORD_TITLE: Boscalid; LC-ESI-ITFT; MS2; CE: 45%; R=15000; [M+H]+
DATE: 2014.01.14
AUTHORS: Stravs M, Schymanski E, Singer H, Department of Environmental Chemistry, Eawag
LICENSE: CC BY
COPYRIGHT: Copyright (C) 2012 Eawag, Duebendorf, Switzerland
COMMENT: CONFIDENCE standard compound
COMMENT: EAWAG_UCHEM_ID 2938
CH$NAME: Boscalid
CH$NAME: 2-chloranyl-N-[2-(4-chlorophenyl)phenyl]pyridine-3-carboxamide
CH$COMPOUND_CLASS: N/A; Environmental Standard
CH$FORMULA: C18H12Cl2N2O
CH$EXACT_MASS: 342.0327
CH$SMILES: c1ccc(c(c1)c2ccc(cc2)Cl)NC(=O)c3cccnc3Cl
CH$IUPAC: InChI=1S/C18H12Cl2N2O/c19-13-9-7-12(8-10-13)14-4-1-2-6-16(14)22-18(23)15-5-3-11-21-17(15)20/h1-11H,(H,22,23)
CH$LINK: CAS 188425-85-6
CH$LINK: PUBCHEM CID:213013
CH$LINK: INCHIKEY WYEMLYFITZORAB-UHFFFAOYSA-N
CH$LINK: CHEMSPIDER 184713
CH$LINK: COMPTOX DTXSID6034392
AC$INSTRUMENT: LTQ Orbitrap XL Thermo Scientific
AC$INSTRUMENT_TYPE: LC-ESI-ITFT
AC$MASS_SPECTROMETRY: MS_TYPE MS2
AC$MASS_SPECTROMETRY: ION_MODE POSITIVE
AC$MASS_SPECTROMETRY: IONIZATION ESI
AC$MASS_SPECTROMETRY: FRAGMENTATION_MODE HCD
AC$MASS_SPECTROMETRY: COLLISION_ENERGY 45 % (nominal)
AC$MASS_SPECTROMETRY: RESOLUTION 15000
AC$CHROMATOGRAPHY: COLUMN_NAME XBridge C18 3.5um, 2.1x50mm, Waters
AC$CHROMATOGRAPHY: FLOW_GRADIENT 90/10 at 0 min, 50/50 at 4 min, 5/95 at 17 min, 5/95 at 25 min, 90/10 at 25.1 min, 90/10 at 30 min
AC$CHROMATOGRAPHY: FLOW_RATE 200 ul/min
AC$CHROMATOGRAPHY: RETENTION_TIME 10.5 min
AC$CHROMATOGRAPHY: SOLVENT A water with 0.1% formic acid
AC$CHROMATOGRAPHY: SOLVENT B methanol with 0.1% formic acid
MS$FOCUSED_ION: BASE_PEAK 343.0412
MS$FOCUSED_ION: PRECURSOR_M/Z 343.0399
MS$FOCUSED_ION: PRECURSOR_TYPE [M+H]+
MS$DATA_PROCESSING: DEPROFILE Spline
MS$DATA_PROCESSING: RECALIBRATE loess on assigned fragments and MS1
MS$DATA_PROCESSING: REANALYZE Peaks with additional N2/O included
MS$DATA_PROCESSING: WHOLE RMassBank 1.3.1
PK$SPLASH: splash10-0a4i-0249000000-e9a7fa91517adaaa6474
PK$ANNOTATION: m/z tentative_formula formula_count mass error(ppm)
  78.0339 C5H4N+ 1 78.0338 1.08
  94.0289 C5H4NO+ 2 94.0287 1.27
  96.0444 C5H6NO+ 2 96.0444 0.52
  111.995 C5H3ClN+ 1 111.9949 0.86
  112.0394 C2H9ClN2O+ 1 112.0398 -3.5
  114.0106 C5H5ClN+ 1 114.0105 0.76
  139.9899 C6H3ClNO+ 2 139.9898 1.23
  243.0918 C17H11N2+ 1 243.0917 0.47
  244.0998 C17H12N2+ 1 244.0995 1.07
  253.0764 C18H9N2+ 1 253.076 1.64
  254.0839 C18H10N2+ 1 254.0838 0.08
  264.0578 C17H11ClN+ 1 264.0575 1.39
  271.0868 C18H11N2O+ 1 271.0866 0.81
  272.0946 C18H12N2O+ 1 272.0944 0.68
  279.0684 C17H12ClN2+ 1 279.0684 0.06
  289.0528 C18H10ClN2+ 1 289.0527 0.27
  305.0476 C18H10ClN2O+ 1 305.0476 -0.12
  306.0543 C18H11ClN2O+ 1 306.0554 -3.89
  307.0631 C18H12ClN2O+ 1 307.0633 -0.58
  328.0164 C17H10Cl2N2O+ 1 328.0165 -0.09
  343.0399 C18H13Cl2N2O+ 1 343.0399 0.02
PK$NUM_PEAK: 21
PK$PEAK: m/z int. rel.int.
  78.0339 59929.1 10
  94.0289 12226.1 2
  96.0444 49374.8 8
  111.995 66583.1 11
  112.0394 8533.6 1
  114.0106 184437.2 32
  139.9899 1145268.5 198
  243.0918 22590 3
  244.0998 10545.9 1
  253.0764 11543.4 2
  254.0839 27921.7 4
  264.0578 12785 2
  271.0868 1201737.5 208
  272.0946 1160789 201
  279.0684 15252.5 2
  289.0528 266479.1 46
  305.0476 15244.3 2
  306.0543 8458.8 1
  307.0631 5756695.4 999
  328.0164 8206.5 1
  343.0399 146066.3 25
//
