ACCESSION: MSBNK-Eawag-EA290314
RECORD_TITLE: Sitagliptin; LC-ESI-ITFT; MS2; CE: 35%; R=30000; [M+H]+
DATE: 2014.01.14
AUTHORS: Stravs M, Schymanski E, Singer H, Department of Environmental Chemistry, Eawag
LICENSE: CC BY
COPYRIGHT: Copyright (C) 2012 Eawag, Duebendorf, Switzerland
COMMENT: CONFIDENCE standard compound
COMMENT: EAWAG_UCHEM_ID 2903
CH$NAME: Sitagliptin
CH$NAME: (3R)-3-amino-1-[3-(trifluoromethyl)-6,8-dihydro-5H-[1,2,4]triazolo[4,3-a]pyrazin-7-yl]-4-(2,4,5-trifluorophenyl)-1-butanone
CH$COMPOUND_CLASS: N/A; Environmental Standard
CH$FORMULA: C16H15F6N5O
CH$EXACT_MASS: 407.1181
CH$SMILES: Fc1cc(c(F)cc1F)C[C@@H](N)CC(=O)N3Cc2nnc(n2CC3)C(F)(F)F
CH$IUPAC: InChI=1S/C16H15F6N5O/c17-10-6-12(19)11(18)4-8(10)3-9(23)5-14(28)26-1-2-27-13(7-26)24-25-15(27)16(20,21)22/h4,6,9H,1-3,5,7,23H2/t9-/m1/s1
CH$LINK: CAS 486460-32-6
CH$LINK: CHEBI CHEBI:40237
CH$LINK: PUBCHEM CID:4369359
CH$LINK: INCHIKEY MFFMDFFZMYYVKS-SECBINFHSA-N
CH$LINK: CHEMSPIDER 3571948
CH$LINK: COMPTOX DTXSID70197572
AC$INSTRUMENT: LTQ Orbitrap XL Thermo Scientific
AC$INSTRUMENT_TYPE: LC-ESI-ITFT
AC$MASS_SPECTROMETRY: MS_TYPE MS2
AC$MASS_SPECTROMETRY: ION_MODE POSITIVE
AC$MASS_SPECTROMETRY: IONIZATION ESI
AC$MASS_SPECTROMETRY: FRAGMENTATION_MODE CID
AC$MASS_SPECTROMETRY: COLLISION_ENERGY 35 % (nominal)
AC$MASS_SPECTROMETRY: RESOLUTION 30000
AC$CHROMATOGRAPHY: COLUMN_NAME XBridge C18 3.5um, 2.1x50mm, Waters
AC$CHROMATOGRAPHY: FLOW_GRADIENT 90/10 at 0 min, 50/50 at 4 min, 5/95 at 17 min, 5/95 at 25 min, 90/10 at 25.1 min, 90/10 at 30 min
AC$CHROMATOGRAPHY: FLOW_RATE 200 ul/min
AC$CHROMATOGRAPHY: RETENTION_TIME 5.2 min
AC$CHROMATOGRAPHY: SOLVENT A water with 0.1% formic acid
AC$CHROMATOGRAPHY: SOLVENT B methanol with 0.1% formic acid
MS$FOCUSED_ION: BASE_PEAK 408.1261
MS$FOCUSED_ION: PRECURSOR_M/Z 408.1254
MS$FOCUSED_ION: PRECURSOR_TYPE [M+H]+
MS$DATA_PROCESSING: DEPROFILE Spline
MS$DATA_PROCESSING: RECALIBRATE loess on assigned fragments and MS1
MS$DATA_PROCESSING: REANALYZE Peaks with additional N2/O included
MS$DATA_PROCESSING: WHOLE RMassBank 1.3.1
PK$SPLASH: splash10-000i-0390000000-b6e5cd73f4ff7abd2747
PK$ANNOTATION: m/z tentative_formula formula_count mass error(ppm)
  127.0356 C7H5F2+ 2 127.0354 1.71
  134.0403 C8H5FN+ 2 134.0401 1.84
  138.0274 C3H3F3N3+ 2 138.0274 0.45
  150.0272 C4H3F3N3+ 2 150.0274 -1.19
  154.0464 C8H6F2N+ 2 154.0463 0.51
  174.0525 C8H7F3N+ 2 174.0525 -0.12
  193.0696 C6H8F3N4+ 2 193.0696 0.43
  235.0802 C8H10F3N4O+ 4 235.0801 0.25
  391.0986 C16H13F6N4O+ 1 391.0988 -0.43
PK$NUM_PEAK: 9
PK$PEAK: m/z int. rel.int.
  127.0356 7778.5 3
  134.0403 2795.4 1
  138.0274 10013.1 3
  150.0272 3134.6 1
  154.0464 16802.9 6
  174.0525 142085.9 55
  193.0696 859396.9 334
  235.0802 2567622.9 999
  391.0986 242501.3 94
//
