ACCESSION: MSBNK-Eawag-EQ311456
RECORD_TITLE: Heptenophos; LC-ESI-QFT; MS2; CE: 90; R=35000; [M-H]-
DATE: 2015.08.25
AUTHORS: Beck B, Stravs M, Schymanski E, Singer H, Department of Environmental Chemistry, Eawag
LICENSE: CC BY
COPYRIGHT: Copyright (C) 2015 Eawag, Duebendorf, Switzerland
COMMENT: CONFIDENCE standard compound
COMMENT: EAWAG_UCHEM_ID 3114
CH$NAME: Heptenophos
CH$NAME: (6-chloranyl-7-bicyclo[3.2.0]hepta-3,6-dienyl) dimethyl phosphate
CH$NAME: Ragadan
CH$COMPOUND_CLASS: N/A; Environmental Standard
CH$FORMULA: C9H12ClO4P
CH$EXACT_MASS: 250.01617
CH$SMILES: COP(=O)(OC)OC1=C(Cl)C2C=CCC12
CH$IUPAC: InChI=1S/C9H12ClO4P/c1-12-15(11,13-2)14-9-7-5-3-4-6(7)8(9)10/h3-4,6-7H,5H2,1-2H3
CH$LINK: CAS 23560-59-0
CH$LINK: CHEBI CHEBI:38693
CH$LINK: PUBCHEM CID:62773
CH$LINK: INCHIKEY GBAWQJNHVWMTLU-UHFFFAOYSA-N
CH$LINK: CHEMSPIDER 56515
CH$LINK: COMPTOX DTXSID5042037
AC$INSTRUMENT: Q Exactive Orbitrap Thermo Scientific
AC$INSTRUMENT_TYPE: LC-ESI-QFT
AC$MASS_SPECTROMETRY: MS_TYPE MS2
AC$MASS_SPECTROMETRY: ION_MODE NEGATIVE
AC$MASS_SPECTROMETRY: IONIZATION ESI
AC$MASS_SPECTROMETRY: FRAGMENTATION_MODE HCD
AC$MASS_SPECTROMETRY: COLLISION_ENERGY 90 (nominal)
AC$MASS_SPECTROMETRY: RESOLUTION 35000
AC$CHROMATOGRAPHY: COLUMN_NAME XBridge C18 3.5um, 2.1x50mm, Waters
AC$CHROMATOGRAPHY: FLOW_GRADIENT 90/10 at 0 min, 50/50 at 4 min, 5/95 at 17 min, 5/95 at 25 min, 90/10 at 25.1 min, 90/10 at 30 min
AC$CHROMATOGRAPHY: FLOW_RATE 200 ul/min
AC$CHROMATOGRAPHY: RETENTION_TIME 9.3 min
AC$CHROMATOGRAPHY: SOLVENT A water with 0.1% formic acid
AC$CHROMATOGRAPHY: SOLVENT B methanol with 0.1% formic acid
MS$FOCUSED_ION: BASE_PEAK 218.0311
MS$FOCUSED_ION: PRECURSOR_M/Z 249.0089
MS$FOCUSED_ION: PRECURSOR_TYPE [M-H]-
MS$DATA_PROCESSING: DEPROFILE Spline
MS$DATA_PROCESSING: RECALIBRATE loess on assigned fragments and MS1
MS$DATA_PROCESSING: REANALYZE Peaks with additional N2/O included
MS$DATA_PROCESSING: WHOLE RMassBank 1.9.6
PK$SPLASH: splash10-001i-1900000000-6529986501eacf25d9c6
PK$ANNOTATION: m/z tentative_formula formula_count mass error(ppm)
  78.959 O3P- 2 78.9591 -0.43
  93.0346 C6H5O- 1 93.0346 0.02
  131.0137 C8H3O2- 1 131.0139 -1.55
PK$NUM_PEAK: 3
PK$PEAK: m/z int. rel.int.
  78.959 1076.7 46
  93.0346 3160.5 137
  131.0137 22959.6 999
//
