ACCESSION: MSBNK-Eawag-EQ01125701
RECORD_TITLE: Fluacrypyrim; LC-ESI-QFT; MS2; CE: 15%; R=17500; [M+H]+
DATE: 2023.04.27
AUTHORS: B. Beck [dtc,com], J. Hollender [dtc]
LICENSE: CC BY-SA
COPYRIGHT: Copyright (C) Eawag 2023
COMMENT: CONFIDENCE standard compound
COMMENT: UCHEM_ID 11257
CH$NAME: Fluacrypyrim
CH$NAME: Methyl 3-methoxy-2-[2-(2-isopropoxy-6-trifluoromethylpyrimidin-4-yloxymethyl) phenyl]acrylate
CH$NAME: methyl 3-methoxy-2-[2-[[2-propan-2-yloxy-6-(trifluoromethyl)pyrimidin-4-yl]oxymethyl]phenyl]prop-2-enoate
CH$COMPOUND_CLASS: N/A; Environmental Standard
CH$FORMULA: C20H21F3N2O5
CH$EXACT_MASS: 426.1403
CH$SMILES: CC(C)OC1=NC(=CC(=N1)OCC2=CC=CC=C2C(=COC)C(=O)OC)C(F)(F)F
CH$IUPAC: InChI=1S/C20H21F3N2O5/c1-12(2)30-19-24-16(20(21,22)23)9-17(25-19)29-10-13-7-5-6-8-14(13)15(11-27-3)18(26)28-4/h5-9,11-12H,10H2,1-4H3
CH$LINK: CAS 229977-93-9
CH$LINK: PUBCHEM CID:53395020
CH$LINK: INCHIKEY MXWAGQASUDSFBG-UHFFFAOYSA-N
CH$LINK: CHEMSPIDER 26459006
AC$INSTRUMENT: Exploris 240 Orbitrap Thermo Scientific
AC$INSTRUMENT_TYPE: LC-ESI-QFT
AC$MASS_SPECTROMETRY: MS_TYPE MS2
AC$MASS_SPECTROMETRY: ION_MODE POSITIVE
AC$MASS_SPECTROMETRY: IONIZATION ESI
AC$MASS_SPECTROMETRY: FRAGMENTATION_MODE HCD
AC$MASS_SPECTROMETRY: COLLISION_ENERGY 15 % (nominal)
AC$MASS_SPECTROMETRY: RESOLUTION 17500
AC$MASS_SPECTROMETRY: MASS_RANGE_M/Z 50-457
AC$CHROMATOGRAPHY: COLUMN_NAME XBridge C18 3.5um, 2.1x50mm, Waters
AC$CHROMATOGRAPHY: FLOW_GRADIENT 90/10 at 0 min, 50/50 at 4 min, 5/95 at 17 min, 5/95 at 25 min, 90/10 at 25.1 min, 90/10 at 30 min
AC$CHROMATOGRAPHY: FLOW_RATE 200 uL/min
AC$CHROMATOGRAPHY: RETENTION_TIME 12.205 min
MS$FOCUSED_ION: BASE_PEAK 326.0822
MS$FOCUSED_ION: PRECURSOR_M/Z 427.1475
MS$FOCUSED_ION: PRECURSOR_TYPE [M+H]+
MS$DATA_PROCESSING: RECALIBRATE loess on assigned fragments and MS1
MS$DATA_PROCESSING: REANALYZE Peaks with additional N2/O included
MS$DATA_PROCESSING: WHOLE RMassBank 3.11.0.1
PK$SPLASH: splash10-0a4i-0190000000-14ecd2270dfb110141ee
PK$ANNOTATION: m/z tentative_formula formula_count mass error(ppm)
  145.0647 C10H9O+ 1 145.0648 -0.56
  173.0598 C11H9O2+ 1 173.0597 0.69
  205.0859 C12H13O3+ 1 205.0859 -0.22
PK$NUM_PEAK: 3
PK$PEAK: m/z int. rel.int.
  145.0647 14810515 144
  173.0598 753643.3 7
  205.0859 102050752 999
//
