ACCESSION: MSBNK-Eawag-EA289801
RECORD_TITLE: Iobitridol; LC-ESI-ITFT; MS2; CE: 35%; R=7500; [M+H]+
DATE: 2014.01.14
AUTHORS: Stravs M, Schymanski E, Singer H, Department of Environmental Chemistry, Eawag
LICENSE: CC BY
COPYRIGHT: Copyright (C) 2012 Eawag, Duebendorf, Switzerland
COMMENT: CONFIDENCE standard compound
COMMENT: EAWAG_UCHEM_ID 2898
CH$NAME: Iobitridol
CH$NAME: 1,3-Benzenedicarboxamide, N,N'-bis(2,3-dihydroxypropyl)-5-((5-hydroxy-2-(hydroxymethyl)-1-oxopropyl)amino)-2,4,6-triiodo-N,N'-dimethyl-
CH$NAME: 1-N,3-N-bis(2,3-dihydroxypropyl)-5-[[3-hydroxy-2-(hydroxymethyl)propanoyl]amino]-2,4,6-triiodo-1-N,3-N-dimethylbenzene-1,3-dicarboxamide
CH$COMPOUND_CLASS: N/A; Environmental Standard
CH$FORMULA: C20H28I3N3O9
CH$EXACT_MASS: 834.8960
CH$SMILES: Ic1c(c(I)c(c(I)c1NC(=O)C(CO)CO)C(=O)N(CC(O)CO)C)C(=O)N(CC(O)CO)C
CH$IUPAC: InChI=1S/C20H28I3N3O9/c1-25(3-10(31)7-29)19(34)12-14(21)13(20(35)26(2)4-11(32)8-30)16(23)17(15(12)22)24-18(33)9(5-27)6-28/h9-11,27-32H,3-8H2,1-2H3,(H,24,33)
CH$LINK: CAS 136949-58-1
CH$LINK: KEGG D01181
CH$LINK: PUBCHEM CID:65985
CH$LINK: INCHIKEY YLPBXIKWXNRACS-UHFFFAOYSA-N
CH$LINK: CHEMSPIDER 59379
CH$LINK: COMPTOX DTXSID90869865
AC$INSTRUMENT: LTQ Orbitrap XL Thermo Scientific
AC$INSTRUMENT_TYPE: LC-ESI-ITFT
AC$MASS_SPECTROMETRY: MS_TYPE MS2
AC$MASS_SPECTROMETRY: ION_MODE POSITIVE
AC$MASS_SPECTROMETRY: IONIZATION ESI
AC$MASS_SPECTROMETRY: FRAGMENTATION_MODE CID
AC$MASS_SPECTROMETRY: COLLISION_ENERGY 35 % (nominal)
AC$MASS_SPECTROMETRY: RESOLUTION 7500
AC$CHROMATOGRAPHY: COLUMN_NAME XBridge C18 3.5um, 2.1x50mm, Waters
AC$CHROMATOGRAPHY: FLOW_GRADIENT 90/10 at 0 min, 50/50 at 4 min, 5/95 at 17 min, 5/95 at 25 min, 90/10 at 25.1 min, 90/10 at 30 min
AC$CHROMATOGRAPHY: FLOW_RATE 200 ul/min
AC$CHROMATOGRAPHY: RETENTION_TIME 1.6 min
AC$CHROMATOGRAPHY: SOLVENT A water with 0.1% formic acid
AC$CHROMATOGRAPHY: SOLVENT B methanol with 0.1% formic acid
MS$FOCUSED_ION: BASE_PEAK 149.0023
MS$FOCUSED_ION: PRECURSOR_M/Z 835.9032
MS$FOCUSED_ION: PRECURSOR_TYPE [M+H]+
MS$DATA_PROCESSING: DEPROFILE Spline
MS$DATA_PROCESSING: RECALIBRATE loess on assigned fragments and MS1
MS$DATA_PROCESSING: REANALYZE Peaks with additional N2/O included
MS$DATA_PROCESSING: WHOLE RMassBank 1.3.1
PK$SPLASH: splash10-00lr-0000001930-8a8442d7b6ab18ff13e7
PK$ANNOTATION: m/z tentative_formula formula_count mass error(ppm)
  293.8964 HIN5O6+ 1 293.8966 -0.77
  314.9599 C7H10INO5+ 1 314.9598 0.22
  402.0331 C16H19IO4+ 2 402.0323 2.17
  474.9994 C16H16IN2O7+ 3 474.9997 -0.62
  522.0726 C20H27IO8+ 2 522.0745 -3.61
  546.9449 C14H19I2N3O4+ 3 546.946 -1.91
  584.9047 C19H13I2N3O3+ 1 584.9041 0.98
  602.9117 C16H17I2N2O7+ 4 602.912 -0.47
  628.7916 C12H12I3N2O4+ 2 628.7926 -1.52
  647.9699 C18H24I2N3O7+ 2 647.9698 0.06
  659.83 C10H19I3N2O7+ 2 659.8321 -3.13
  689.9815 C20H26I2N3O8+ 1 689.9804 1.67
  712.8135 C16H16I3N2O6+ 3 712.8137 -0.28
  715.861 C16H21I3N3O5+ 3 715.861 -0.04
  730.8279 C19H16I3N3O4+ 1 730.827 1.35
  733.8714 C13H25I3N2O9+ 3 733.8689 3.37
  769.8682 C19H23I3N3O6+ 2 769.8716 -4.4
  787.8793 C19H25I3N3O7+ 1 787.8821 -3.61
  799.8823 C20H25I3N3O7+ 1 799.8821 0.29
  817.8926 C20H27I3N3O8+ 1 817.8927 -0.15
PK$NUM_PEAK: 20
PK$PEAK: m/z int. rel.int.
  293.8964 7166.5 6
  314.9599 2650 2
  402.0331 5093.3 4
  474.9994 48845.1 46
  522.0726 18690.1 17
  546.9449 16611.7 15
  584.9047 5952 5
  602.9117 219153.7 210
  628.7916 46438.8 44
  647.9699 5927.8 5
  659.83 3951.7 3
  689.9815 15735.7 15
  712.8135 12944.7 12
  715.861 302916.8 290
  730.8279 26973.1 25
  733.8714 1042084.8 999
  769.8682 6203.6 5
  787.8793 9011.8 8
  799.8823 28530.5 27
  817.8926 564119.3 540
//
