ACCESSION: MSBNK-Eawag-EQ00351704
RECORD_TITLE: Diethofencarb; LC-ESI-QFT; MS2; CE: 60%; R=15000; [M+H]+
DATE: 2024.06.14
AUTHORS: F. Jud [dtc], K. Arturi [dtc], J. Hollender [dtc], A. Dax [com]
LICENSE: CC BY-SA
COPYRIGHT: Copyright (C) Eawag 2024
COMMENT: CONFIDENCE standard compound
COMMENT: UCHEM_ID 3517
CH$NAME: Diethofencarb
CH$NAME: propan-2-yl N-(3,4-diethoxyphenyl)carbamate
CH$COMPOUND_CLASS: N/A
CH$FORMULA: C14H21NO4
CH$EXACT_MASS: 267.1470582
CH$SMILES: CCOC1=C(C=C(C=C1)NC(=O)OC(C)C)OCC
CH$IUPAC: InChI=1S/C14H21NO4/c1-5-17-12-8-7-11(9-13(12)18-6-2)15-14(16)19-10(3)4/h7-10H,5-6H2,1-4H3,(H,15,16)
CH$LINK: CAS 93366-39-3
CH$LINK: CHEBI CHEBI:4520
CH$LINK: KEGG C11077
CH$LINK: PUBCHEM CID:91742
CH$LINK: INCHIKEY LNJNFVJKDJYTEU-UHFFFAOYSA-N
CH$LINK: CHEMSPIDER 82840
AC$INSTRUMENT: Exploris 240 Thermo Scientific
AC$INSTRUMENT_TYPE: LC-ESI-QFT
AC$MASS_SPECTROMETRY: MS_TYPE MS2
AC$MASS_SPECTROMETRY: ION_MODE POSITIVE
AC$MASS_SPECTROMETRY: IONIZATION ESI
AC$MASS_SPECTROMETRY: FRAGMENTATION_MODE HCD
AC$MASS_SPECTROMETRY: COLLISION_ENERGY 60 % (nominal)
AC$MASS_SPECTROMETRY: RESOLUTION 15000
AC$MASS_SPECTROMETRY: MASS_RANGE_M/Z 50-295
AC$CHROMATOGRAPHY: COLUMN_NAME XBridge C18 3.5um, 2.1x50mm, Waters
AC$CHROMATOGRAPHY: FLOW_GRADIENT 90/10 at 0 min, 50/50 at 4 min, 5/95 at 17 min, 5/95 at 25 min, 90/10 at 25.1 min, 90/10 at 30 min
AC$CHROMATOGRAPHY: FLOW_RATE 200 uL/min
AC$CHROMATOGRAPHY: RETENTION_TIME 8.416 min
MS$FOCUSED_ION: BASE_PEAK 226.1072
MS$FOCUSED_ION: PRECURSOR_M/Z 268.1543
MS$FOCUSED_ION: PRECURSOR_TYPE [M+H]+
MS$DATA_PROCESSING: RECALIBRATE loess on assigned fragments and MS1
MS$DATA_PROCESSING: REANALYZE Peaks with additional N2/O included
MS$DATA_PROCESSING: WHOLE RMassBank 3.15.1.1
PK$SPLASH: splash10-0fk9-0900000000-0d9b04948dacb7319e97
PK$ANNOTATION: m/z tentative_formula formula_count mass error(ppm)
  108.0444 C6H6NO+ 1 108.0444 0.02
  124.0392 C6H6NO2+ 1 124.0393 -0.52
  152.0706 C8H10NO2+ 1 152.0706 -0.23
  154.0864 C8H12NO2+ 1 154.0863 0.79
  180.102 C10H14NO2+ 1 180.1019 0.45
PK$NUM_PEAK: 5
PK$PEAK: m/z int. rel.int.
  108.0444 4798175.5 120
  124.0392 39783044 999
  152.0706 32843780 824
  154.0864 405318.8 10
  180.102 5552570 139
//
