ACCESSION: MSBNK-Eawag-EQ01142206
RECORD_TITLE: N-Acetylcaprolactam; LC-ESI-QFT; MS2; CE: 90%; R=17500; [M+H]+
DATE: 2023.08.10
AUTHORS: B. Beck [dtc,com], J. Hollender [dtc]
LICENSE: CC BY-SA
COPYRIGHT: Copyright (C) Eawag 2023
COMMENT: CONFIDENCE standard compound
COMMENT: UCHEM_ID 11422
CH$NAME: N-Acetylcaprolactam
CH$NAME: 1-acetylazepan-2-one
CH$COMPOUND_CLASS: N/A; Environmental Standard
CH$FORMULA: C8H13NO2
CH$EXACT_MASS: 155.0946
CH$SMILES: CC(=O)N1CCCCCC1=O
CH$IUPAC: InChI=1S/C8H13NO2/c1-7(10)9-6-4-2-3-5-8(9)11/h2-6H2,1H3
CH$LINK: CAS 1888-91-1
CH$LINK: CHEBI CHEBI:182373
CH$LINK: PUBCHEM CID:15904
CH$LINK: INCHIKEY QISSLHPKTCLLDL-UHFFFAOYSA-N
CH$LINK: CHEMSPIDER 15115
AC$INSTRUMENT: Exploris 240 Orbitrap Thermo Scientific
AC$INSTRUMENT_TYPE: LC-ESI-QFT
AC$MASS_SPECTROMETRY: MS_TYPE MS2
AC$MASS_SPECTROMETRY: ION_MODE POSITIVE
AC$MASS_SPECTROMETRY: IONIZATION ESI
AC$MASS_SPECTROMETRY: FRAGMENTATION_MODE HCD
AC$MASS_SPECTROMETRY: COLLISION_ENERGY 90 % (nominal)
AC$MASS_SPECTROMETRY: RESOLUTION 17500
AC$MASS_SPECTROMETRY: MASS_RANGE_M/Z 40-180
AC$CHROMATOGRAPHY: COLUMN_NAME XBridge C18 3.5um, 2.1x50mm, Waters
AC$CHROMATOGRAPHY: FLOW_GRADIENT 90/10 at 0 min, 50/50 at 4 min, 5/95 at 17 min, 5/95 at 25 min, 90/10 at 25.1 min, 90/10 at 30 min
AC$CHROMATOGRAPHY: FLOW_RATE 200 uL/min
AC$CHROMATOGRAPHY: RETENTION_TIME 4.594 min
MS$FOCUSED_ION: BASE_PEAK 156.1019
MS$FOCUSED_ION: PRECURSOR_M/Z 156.1019
MS$FOCUSED_ION: PRECURSOR_TYPE [M+H]+
MS$DATA_PROCESSING: RECALIBRATE loess on assigned fragments and MS1
MS$DATA_PROCESSING: REANALYZE Peaks with additional N2/O included
MS$DATA_PROCESSING: WHOLE RMassBank 3.11.0.1
PK$SPLASH: splash10-03di-7900000000-b38b411da1b925043e03
PK$ANNOTATION: m/z tentative_formula formula_count mass error(ppm)
  41.0386 C3H5+ 1 41.0386 0.34
  43.0178 C2H3O+ 1 43.0178 -0.11
  43.0542 C3H7+ 1 43.0542 0.22
  44.0131 CH2NO+ 1 44.0131 -0.44
  46.0288 CH4NO+ 1 46.0287 0.57
  55.0179 C3H3O+ 1 55.0178 1.4
  55.0542 C4H7+ 1 55.0542 0.21
  67.0541 C5H7+ 1 67.0542 -2.1
  68.0495 C4H6N+ 1 68.0495 0.51
  69.0699 C5H9+ 1 69.0699 -0.03
  70.0651 C4H8N+ 1 70.0651 -0.59
  71.049 C4H7O+ 1 71.0491 -1.51
  71.0855 C5H11+ 1 71.0855 -0.77
  72.0806 C4H10N+ 1 72.0808 -2.14
  77.0383 C6H5+ 1 77.0386 -3.76
  79.0542 C6H7+ 1 79.0542 0.02
  86.0965 C5H12N+ 1 86.0964 1.29
  96.0808 C6H10N+ 1 96.0808 0.08
  97.0648 C6H9O+ 1 97.0648 -0.25
  114.0913 C6H12NO+ 1 114.0913 -0.54
PK$NUM_PEAK: 20
PK$PEAK: m/z int. rel.int.
  41.0386 4391760.5 23
  43.0178 9500188 51
  43.0542 5308534 28
  44.0131 11615810 63
  46.0288 1204119.5 6
  55.0179 5305736 28
  55.0542 8521056 46
  67.0541 4401828.5 23
  68.0495 3949266 21
  69.0699 33044628 179
  70.0651 1158033.2 6
  71.049 1724122 9
  71.0855 3014651.2 16
  72.0806 3170114.8 17
  77.0383 865200.3 4
  79.0542 34596780 187
  86.0965 2965924 16
  96.0808 21375904 116
  97.0648 6935384 37
  114.0913 184040656 999
//
