ACCESSION: MSBNK-Eawag-EQ01140004
RECORD_TITLE: Sulfallate; LC-ESI-QFT; MS2; CE: 60%; R=17500; [M+H]+
DATE: 2023.04.27
AUTHORS: B. Beck [dtc,com], J. Hollender [dtc]
LICENSE: CC BY-SA
COPYRIGHT: Copyright (C) Eawag 2023
COMMENT: CONFIDENCE standard compound
COMMENT: UCHEM_ID 11400
CH$NAME: Sulfallate
CH$NAME: 2-chloroprop-2-enyl N,N-diethylcarbamodithioate
CH$COMPOUND_CLASS: N/A; Environmental Standard
CH$FORMULA: C8H14ClNS2
CH$EXACT_MASS: 223.0256
CH$SMILES: CCN(CC)C(=S)SCC(=C)Cl
CH$IUPAC: InChI=1S/C8H14ClNS2/c1-4-10(5-2)8(11)12-6-7(3)9/h3-6H2,1-2H3
CH$LINK: CAS 95-06-7
CH$LINK: CHEBI CHEBI:82218
CH$LINK: KEGG C19096
CH$LINK: PUBCHEM CID:7216
CH$LINK: INCHIKEY XJCLWVXTCRQIDI-UHFFFAOYSA-N
CH$LINK: CHEMSPIDER 6946
AC$INSTRUMENT: Exploris 240 Orbitrap Thermo Scientific
AC$INSTRUMENT_TYPE: LC-ESI-QFT
AC$MASS_SPECTROMETRY: MS_TYPE MS2
AC$MASS_SPECTROMETRY: ION_MODE POSITIVE
AC$MASS_SPECTROMETRY: IONIZATION ESI
AC$MASS_SPECTROMETRY: FRAGMENTATION_MODE HCD
AC$MASS_SPECTROMETRY: COLLISION_ENERGY 60 % (nominal)
AC$MASS_SPECTROMETRY: RESOLUTION 17500
AC$MASS_SPECTROMETRY: MASS_RANGE_M/Z 49-250
AC$CHROMATOGRAPHY: COLUMN_NAME XBridge C18 3.5um, 2.1x50mm, Waters
AC$CHROMATOGRAPHY: FLOW_GRADIENT 90/10 at 0 min, 50/50 at 4 min, 5/95 at 17 min, 5/95 at 25 min, 90/10 at 25.1 min, 90/10 at 30 min
AC$CHROMATOGRAPHY: FLOW_RATE 200 uL/min
AC$CHROMATOGRAPHY: RETENTION_TIME 10.804 min
MS$FOCUSED_ION: BASE_PEAK 306.1032
MS$FOCUSED_ION: PRECURSOR_M/Z 224.0329
MS$FOCUSED_ION: PRECURSOR_TYPE [M+H]+
MS$DATA_PROCESSING: RECALIBRATE loess on assigned fragments and MS1
MS$DATA_PROCESSING: REANALYZE Peaks with additional N2/O included
MS$DATA_PROCESSING: WHOLE RMassBank 3.11.0.1
PK$SPLASH: splash10-000i-9200000000-b3d66ab32c66abcb8ad3
PK$ANNOTATION: m/z tentative_formula formula_count mass error(ppm)
  59.9902 CH2NS+ 1 59.9902 -0.79
  72.0805 C4H10N+ 1 72.0808 -3.79
  73.0105 C3H5S+ 1 73.0106 -2.25
  74.9996 C3H4Cl+ 1 74.9996 0.17
  88.0215 C3H6NS+ 1 88.0215 -0.83
  116.0528 C5H10NS+ 1 116.0528 -0.46
  131.9939 C4H6NS2+ 1 131.9936 2.2
  150.9431 C4H4ClS2+ 1 150.9437 -4.42
  152.0293 C5H11ClNS+ 1 152.0295 -1.34
  160.0253 C6H10NS2+ 1 160.0249 2.14
  188.0562 C8H14NS2+ 1 188.0562 0.07
  224.0323 C8H15ClNS2+ 1 224.0329 -2.44
PK$NUM_PEAK: 12
PK$PEAK: m/z int. rel.int.
  59.9902 9720530 439
  72.0805 128019.5 5
  73.0105 58036.3 2
  74.9996 423245.1 19
  88.0215 22086618 999
  116.0528 6440759 291
  131.9939 83860.7 3
  150.9431 109927.4 4
  152.0293 63803.6 2
  160.0253 210139.2 9
  188.0562 987065.5 44
  224.0323 252096.8 11
//
