ACCESSION: MSBNK-Eawag-EA065201
RECORD_TITLE: Sulfanilic acid; LC-ESI-ITFT; MS2; CE: 35%; R=7500; [M+H]+
DATE: 2014.01.14
AUTHORS: Stravs M, Schymanski E, Singer H, Department of Environmental Chemistry, Eawag
LICENSE: CC BY
COPYRIGHT: Copyright (C) 2012 Eawag, Duebendorf, Switzerland
COMMENT: CONFIDENCE standard compound
COMMENT: EAWAG_UCHEM_ID 652
CH$NAME: Sulfanilic acid
CH$NAME: 4-aminobenzenesulfonic acid
CH$COMPOUND_CLASS: N/A; Environmental Standard
CH$FORMULA: C6H7NO3S
CH$EXACT_MASS: 173.0147
CH$SMILES: S(c1ccc(N)cc1)(O)(=O)=O
CH$IUPAC: InChI=1S/C6H7NO3S/c7-5-1-3-6(4-2-5)11(8,9)10/h1-4H,7H2,(H,8,9,10)
CH$LINK: CAS 121-57-3
CH$LINK: CHEBI CHEBI:27500
CH$LINK: KEGG C06335
CH$LINK: PUBCHEM CID:8479
CH$LINK: INCHIKEY HVBSAKJJOYLTQU-UHFFFAOYSA-N
CH$LINK: CHEMSPIDER 8166
CH$LINK: COMPTOX DTXSID6024464
AC$INSTRUMENT: LTQ Orbitrap XL Thermo Scientific
AC$INSTRUMENT_TYPE: LC-ESI-ITFT
AC$MASS_SPECTROMETRY: MS_TYPE MS2
AC$MASS_SPECTROMETRY: ION_MODE POSITIVE
AC$MASS_SPECTROMETRY: IONIZATION ESI
AC$MASS_SPECTROMETRY: FRAGMENTATION_MODE CID
AC$MASS_SPECTROMETRY: COLLISION_ENERGY 35 % (nominal)
AC$MASS_SPECTROMETRY: RESOLUTION 7500
AC$CHROMATOGRAPHY: COLUMN_NAME XBridge C18 3.5um, 2.1x50mm, Waters
AC$CHROMATOGRAPHY: FLOW_GRADIENT 90/10 at 0 min, 50/50 at 4 min, 5/95 at 17 min, 5/95 at 25 min, 90/10 at 25.1 min, 90/10 at 30 min
AC$CHROMATOGRAPHY: FLOW_RATE 200 ul/min
AC$CHROMATOGRAPHY: RETENTION_TIME 0.9 min
AC$CHROMATOGRAPHY: SOLVENT A water with 0.1% formic acid
AC$CHROMATOGRAPHY: SOLVENT B methanol with 0.1% formic acid
MS$FOCUSED_ION: BASE_PEAK 174.0217
MS$FOCUSED_ION: PRECURSOR_M/Z 174.0219
MS$FOCUSED_ION: PRECURSOR_TYPE [M+H]+
MS$DATA_PROCESSING: DEPROFILE Spline
MS$DATA_PROCESSING: RECALIBRATE loess on assigned fragments and MS1
MS$DATA_PROCESSING: REANALYZE Peaks with additional N2/O included
MS$DATA_PROCESSING: WHOLE RMassBank 1.3.1
PK$SPLASH: splash10-052f-8900000000-fdf81d44115aac20446a
PK$ANNOTATION: m/z tentative_formula formula_count mass error(ppm)
  92.0495 C6H6N+ 1 92.0495 0.59
  93.0573 C6H7N+ 1 93.0573 0.1
  94.0651 C6H8N+ 1 94.0651 -0.27
  108.0444 C6H6NO+ 1 108.0444 0.09
  109.0521 C6H7NO+ 1 109.0522 -0.6
  110.06 C6H8NO+ 1 110.06 -0.18
  127.9562 C4O3S+ 1 127.9563 -0.6
  156.0113 C6H6NO2S+ 1 156.0114 -0.42
PK$NUM_PEAK: 8
PK$PEAK: m/z int. rel.int.
  92.0495 28947.4 16
  93.0573 1509575.4 865
  94.0651 237332.1 135
  108.0444 82991.4 47
  109.0521 23685.9 13
  110.06 23989.2 13
  127.9562 5111.9 2
  156.0113 1743420.3 999
//
