ACCESSION: MSBNK-Eawag-EQ328109
RECORD_TITLE: Nordeprenyl; LC-ESI-QFT; MS2; CE: 180; R=35000; [M+H]+
DATE: 2015.08.25
AUTHORS: Beck B, Stravs M, Schymanski E, Singer H, Department of Environmental Chemistry, Eawag
LICENSE: CC BY
COPYRIGHT: Copyright (C) 2015 Eawag, Duebendorf, Switzerland
COMMENT: CONFIDENCE standard compound
COMMENT: EAWAG_UCHEM_ID 3281
CH$NAME: Nordeprenyl
CH$NAME: Desmethylselegiline
CH$NAME: 1-phenyl-N-prop-2-ynylpropan-2-amine
CH$COMPOUND_CLASS: N/A; Environmental Standard
CH$FORMULA: C12H15N
CH$EXACT_MASS: 173.12045
CH$SMILES: CC(Cc1ccccc1)NCC#C
CH$IUPAC: InChI=1S/C12H15N/c1-3-9-13-11(2)10-12-7-5-4-6-8-12/h1,4-8,11,13H,9-10H2,2H3
CH$LINK: CAS 18913-84-3
CH$LINK: PUBCHEM CID:200718
CH$LINK: INCHIKEY UUFAJPMQSFXDFR-UHFFFAOYSA-N
CH$LINK: CHEMSPIDER 173756
CH$LINK: COMPTOX DTXSID30891483
AC$INSTRUMENT: Q Exactive Plus Orbitrap Thermo Scientific
AC$INSTRUMENT_TYPE: LC-ESI-QFT
AC$MASS_SPECTROMETRY: MS_TYPE MS2
AC$MASS_SPECTROMETRY: ION_MODE POSITIVE
AC$MASS_SPECTROMETRY: IONIZATION ESI
AC$MASS_SPECTROMETRY: FRAGMENTATION_MODE HCD
AC$MASS_SPECTROMETRY: COLLISION_ENERGY 180 (nominal)
AC$MASS_SPECTROMETRY: RESOLUTION 35000
AC$CHROMATOGRAPHY: COLUMN_NAME XBridge C18 3.5um, 2.1x50mm, Waters
AC$CHROMATOGRAPHY: FLOW_GRADIENT 90/10 at 0 min, 50/50 at 4 min, 5/95 at 17 min, 5/95 at 25 min, 90/10 at 25.1 min, 90/10 at 30 min
AC$CHROMATOGRAPHY: FLOW_RATE 200 ul/min
AC$CHROMATOGRAPHY: RETENTION_TIME 4.2 min
AC$CHROMATOGRAPHY: SOLVENT A water with 0.1% formic acid
AC$CHROMATOGRAPHY: SOLVENT B methanol with 0.1% formic acid
MS$FOCUSED_ION: BASE_PEAK 174.1275
MS$FOCUSED_ION: PRECURSOR_M/Z 174.1277
MS$FOCUSED_ION: PRECURSOR_TYPE [M+H]+
MS$DATA_PROCESSING: RECALIBRATE loess on assigned fragments and MS1
MS$DATA_PROCESSING: REANALYZE Peaks with additional N2/O included
MS$DATA_PROCESSING: WHOLE RMassBank 1.9.6
PK$SPLASH: splash10-014i-9000000000-3b3a587ea15553c36922
PK$ANNOTATION: m/z tentative_formula formula_count mass error(ppm)
  50.0151 C4H2+ 1 50.0151 0.17
  51.0229 C4H3+ 1 51.0229 0.07
  53.0022 C3HO+ 1 53.0022 -0.02
  53.0386 C4H5+ 1 53.0386 -0.12
  53.9974 C2NO+ 1 53.9974 -0.19
  61.0073 C5H+ 1 61.0073 -0.27
  62.0151 C5H2+ 1 62.0151 -0.35
  63.0229 C5H3+ 1 63.0229 -0.26
  65.0386 C5H5+ 1 65.0386 -0.41
  77.0385 C6H5+ 1 77.0386 -0.99
  78.0086 C3N3+ 1 78.0087 -0.68
  78.0464 C6H6+ 1 78.0464 -0.53
  89.0385 C7H5+ 1 89.0386 -1.08
  91.0542 C7H7+ 1 91.0542 -0.07
  95.0491 C6H7O+ 1 95.0491 -0.12
  103.0542 C8H7+ 1 103.0542 -0.74
  105.0447 C6H5N2+ 1 105.0447 -0.33
  115.0542 C9H7+ 1 115.0542 -0.14
PK$NUM_PEAK: 18
PK$PEAK: m/z int. rel.int.
  50.0151 10401692 25
  51.0229 21170112 52
  53.0022 14526138 35
  53.0386 2601577.2 6
  53.9974 2673348 6
  61.0073 1667155.2 4
  62.0151 8825203 21
  63.0229 43152660 106
  65.0386 404248320 999
  77.0385 4823624.5 11
  78.0086 534852.1 1
  78.0464 4878935.5 12
  89.0385 2555232.5 6
  91.0542 189699008 468
  95.0491 5843440.5 14
  103.0542 2512760.5 6
  105.0447 2966719.5 7
  115.0542 1134770.5 2
//
