ACCESSION: MSBNK-Eawag-EQ01077902
RECORD_TITLE: Ketorolac; LC-ESI-QFT; MS2; CE: 20%; R=15000; [M+H]+
DATE: 2024.06.14
AUTHORS: B. Beck [dtc], J. Bosshard [dtc], H. Singer [dtc], A. Dax [com]
LICENSE: CC BY-SA
COPYRIGHT: Copyright (C) Eawag 2024
COMMENT: CONFIDENCE standard compound
COMMENT: UCHEM_ID 10779
CH$NAME: Ketorolac
CH$NAME: 5-(phenylcarbonyl)-2,3-dihydro-1H-pyrrolizine-1-carboxylic acid
CH$COMPOUND_CLASS: N/A
CH$FORMULA: C15H13NO3
CH$EXACT_MASS: 255.0895433
CH$SMILES: C1CN2C(=CC=C2C(=O)C3=CC=CC=C3)C1C(=O)O
CH$IUPAC: InChI=1S/C15H13NO3/c17-14(10-4-2-1-3-5-10)13-7-6-12-11(15(18)19)8-9-16(12)13/h1-7,11H,8-9H2,(H,18,19)
CH$LINK: CAS 66635-92-5
CH$LINK: CHEBI CHEBI:6129
CH$LINK: KEGG C07062
CH$LINK: PUBCHEM CID:3826
CH$LINK: INCHIKEY OZWKMVRBQXNZKK-UHFFFAOYSA-N
CH$LINK: CHEMSPIDER 3694
AC$INSTRUMENT: Exploris 240 Thermo Scientific
AC$INSTRUMENT_TYPE: LC-ESI-QFT
AC$MASS_SPECTROMETRY: MS_TYPE MS2
AC$MASS_SPECTROMETRY: ION_MODE POSITIVE
AC$MASS_SPECTROMETRY: IONIZATION ESI
AC$MASS_SPECTROMETRY: FRAGMENTATION_MODE HCD
AC$MASS_SPECTROMETRY: COLLISION_ENERGY 20 % (nominal)
AC$MASS_SPECTROMETRY: RESOLUTION 15000
AC$MASS_SPECTROMETRY: MASS_RANGE_M/Z 50-282
AC$CHROMATOGRAPHY: COLUMN_NAME XBridge C18 3.5um, 2.1x50mm, Waters
AC$CHROMATOGRAPHY: FLOW_GRADIENT 90/10 at 0 min, 50/50 at 4 min, 5/95 at 17 min, 5/95 at 25 min, 90/10 at 25.1 min, 90/10 at 30 min
AC$CHROMATOGRAPHY: FLOW_RATE 200 uL/min
AC$CHROMATOGRAPHY: RETENTION_TIME 6.898 min
MS$FOCUSED_ION: BASE_PEAK 256.0964
MS$FOCUSED_ION: PRECURSOR_M/Z 256.0968
MS$FOCUSED_ION: PRECURSOR_TYPE [M+H]+
MS$DATA_PROCESSING: RECALIBRATE loess on assigned fragments and MS1
MS$DATA_PROCESSING: REANALYZE Peaks with additional N2/O included
MS$DATA_PROCESSING: WHOLE RMassBank 3.15.1.1
PK$SPLASH: splash10-0a4i-0950000000-edb63ad886a1f5c34f69
PK$ANNOTATION: m/z tentative_formula formula_count mass error(ppm)
  105.0334 C7H5O+ 1 105.0335 -0.76
  106.065 C7H8N+ 1 106.0651 -0.75
  210.0913 C14H12NO+ 1 210.0913 -0.25
  256.0967 C15H14NO3+ 1 256.0968 -0.43
PK$NUM_PEAK: 4
PK$PEAK: m/z int. rel.int.
  105.0334 103441240 999
  106.065 9498645 91
  210.0913 1578510.9 15
  256.0967 66353368 640
//
