ACCESSION: MSBNK-Eawag-EQ310601
RECORD_TITLE: Emtricitabine; LC-ESI-QFT; MS2; CE: 15; R=35000; [M+H]+
DATE: 2015.08.25
AUTHORS: Beck B, Stravs M, Schymanski E, Singer H, Department of Environmental Chemistry, Eawag
LICENSE: CC BY
COPYRIGHT: Copyright (C) 2015 Eawag, Duebendorf, Switzerland
COMMENT: CONFIDENCE standard compound
COMMENT: EAWAG_UCHEM_ID 3106
CH$NAME: Emtricitabine
CH$NAME: 4-amino-5-fluoro-1-[(2R,5S)-2-(hydroxymethyl)-1,3-oxathiolan-5-yl]-2-pyrimidinone
CH$COMPOUND_CLASS: N/A; Environmental Standard
CH$FORMULA: C8H10FN3O3S
CH$EXACT_MASS: 247.04269
CH$SMILES: FC=1\C(=N/C(=O)N(C=1)[C@H]2O[C@H](SC2)CO)\N
CH$IUPAC: InChI=1S/C8H10FN3O3S/c9-4-1-12(8(14)11-7(4)10)5-3-16-6(2-13)15-5/h1,5-6,13H,2-3H2,(H2,10,11,14)/t5-,6+/m0/s1
CH$LINK: CAS 143491-57-0
CH$LINK: KEGG C12599
CH$LINK: PUBCHEM CID:60877
CH$LINK: INCHIKEY XQSPYNMVSIKCOC-NTSWFWBYSA-N
CH$LINK: CHEMSPIDER 54859
CH$LINK: COMPTOX DTXSID0040129
AC$INSTRUMENT: Q Exactive Orbitrap Thermo Scientific
AC$INSTRUMENT_TYPE: LC-ESI-QFT
AC$MASS_SPECTROMETRY: MS_TYPE MS2
AC$MASS_SPECTROMETRY: ION_MODE POSITIVE
AC$MASS_SPECTROMETRY: IONIZATION ESI
AC$MASS_SPECTROMETRY: FRAGMENTATION_MODE HCD
AC$MASS_SPECTROMETRY: COLLISION_ENERGY 15 (nominal)
AC$MASS_SPECTROMETRY: RESOLUTION 35000
AC$CHROMATOGRAPHY: COLUMN_NAME XBridge C18 3.5um, 2.1x50mm, Waters
AC$CHROMATOGRAPHY: FLOW_GRADIENT 90/10 at 0 min, 50/50 at 4 min, 5/95 at 17 min, 5/95 at 25 min, 90/10 at 25.1 min, 90/10 at 30 min
AC$CHROMATOGRAPHY: FLOW_RATE 200 ul/min
AC$CHROMATOGRAPHY: RETENTION_TIME 2.1 min
AC$CHROMATOGRAPHY: SOLVENT A water with 0.1% formic acid
AC$CHROMATOGRAPHY: SOLVENT B methanol with 0.1% formic acid
MS$FOCUSED_ION: BASE_PEAK 130.0412
MS$FOCUSED_ION: PRECURSOR_M/Z 248.05
MS$FOCUSED_ION: PRECURSOR_TYPE [M+H]+
MS$DATA_PROCESSING: DEPROFILE Spline
MS$DATA_PROCESSING: RECALIBRATE loess on assigned fragments and MS1
MS$DATA_PROCESSING: REANALYZE Peaks with additional N2/O included
MS$DATA_PROCESSING: WHOLE RMassBank 1.9.6
PK$SPLASH: splash10-001i-0900000000-6dae6d5531a8a2f408cd
PK$ANNOTATION: m/z tentative_formula formula_count mass error(ppm)
  73.0106 C3H5S+ 1 73.0106 -0.79
  101.0056 C4H5OS+ 1 101.0056 -0.02
  113.0144 C4H2FN2O+ 2 113.0146 -1.48
  119.0162 C4H7O2S+ 2 119.0161 0.78
  130.0412 C4H5FN3O+ 2 130.0411 0.72
  248.0501 C8H11FN3O3S+ 1 248.05 0.38
PK$NUM_PEAK: 6
PK$PEAK: m/z int. rel.int.
  73.0106 365717.7 4
  101.0056 1939459.7 26
  113.0144 83267.5 1
  119.0162 126426.4 1
  130.0412 73809343.1 999
  248.0501 1030029.4 13
//
