ACCESSION: MSBNK-Eawag-EQ321153
RECORD_TITLE: Triclabendazole; LC-ESI-QFT; MS2; CE: 45; R=35000; [M-H]-
DATE: 2015.08.26
AUTHORS: Beck B, Stravs M, Schymanski E, Singer H, Department of Environmental Chemistry, Eawag
LICENSE: CC BY
COPYRIGHT: Copyright (C) 2015 Eawag, Duebendorf, Switzerland
COMMENT: CONFIDENCE standard compound
COMMENT: EAWAG_UCHEM_ID 3211
CH$NAME: Triclabendazole
CH$NAME: Triclabendazol
CH$NAME: 6-chloro-5-(2,3-dichlorophenoxy)-2-methylsulfanyl-1H-benzimidazole
CH$COMPOUND_CLASS: N/A; Environmental Standard
CH$FORMULA: C14H9Cl3N2OS
CH$EXACT_MASS: 357.95012
CH$SMILES: CSc1[nH]c2cc(c(cc2n1)Oc3cccc(c3Cl)Cl)Cl
CH$IUPAC: InChI=1S/C14H9Cl3N2OS/c1-21-14-18-9-5-8(16)12(6-10(9)19-14)20-11-4-2-3-7(15)13(11)17/h2-6H,1H3,(H,18,19)
CH$LINK: CAS 68786-66-3
CH$LINK: PUBCHEM CID:50248
CH$LINK: INCHIKEY NQPDXQQQCQDHHW-UHFFFAOYSA-N
CH$LINK: CHEMSPIDER 45565
CH$LINK: COMPTOX DTXSID7043952
AC$INSTRUMENT: Q Exactive Plus Orbitrap Thermo Scientific
AC$INSTRUMENT_TYPE: LC-ESI-QFT
AC$MASS_SPECTROMETRY: MS_TYPE MS2
AC$MASS_SPECTROMETRY: ION_MODE NEGATIVE
AC$MASS_SPECTROMETRY: IONIZATION ESI
AC$MASS_SPECTROMETRY: FRAGMENTATION_MODE HCD
AC$MASS_SPECTROMETRY: COLLISION_ENERGY 45 (nominal)
AC$MASS_SPECTROMETRY: RESOLUTION 35000
AC$CHROMATOGRAPHY: COLUMN_NAME XBridge C18 3.5um, 2.1x50mm, Waters
AC$CHROMATOGRAPHY: FLOW_GRADIENT 90/10 at 0 min, 50/50 at 4 min, 5/95 at 17 min, 5/95 at 25 min, 90/10 at 25.1 min, 90/10 at 30 min
AC$CHROMATOGRAPHY: FLOW_RATE 200 ul/min
AC$CHROMATOGRAPHY: RETENTION_TIME 14.2 min
AC$CHROMATOGRAPHY: SOLVENT A water with 0.1% formic acid
AC$CHROMATOGRAPHY: SOLVENT B methanol with 0.1% formic acid
MS$FOCUSED_ION: BASE_PEAK 358.9395
MS$FOCUSED_ION: PRECURSOR_M/Z 356.9428
MS$FOCUSED_ION: PRECURSOR_TYPE [M-H]-
MS$DATA_PROCESSING: RECALIBRATE loess on assigned fragments and MS1
MS$DATA_PROCESSING: REANALYZE Peaks with additional N2/O included
MS$DATA_PROCESSING: WHOLE RMassBank 1.9.6
PK$SPLASH: splash10-0005-0936000000-920cfafffb0d59c0929a
PK$ANNOTATION: m/z tentative_formula formula_count mass error(ppm)
  57.9755 CNS- 1 57.9757 -2.48
  160.9566 C6H3Cl2O- 2 160.9566 -0.08
  165.9939 C7H3ClN2O- 1 165.9939 -0.23
  179.0017 C8H4ClN2O- 1 179.0018 -0.08
  196.9581 C7H2ClN2OS- 1 196.9582 -0.18
  211.9818 C8H5ClN2OS- 1 211.9817 0.52
  274.9784 C13H5Cl2N2O- 1 274.9784 -0.04
  305.9425 C13H4Cl2N2OS- 1 305.9427 -0.45
  309.947 C13H5Cl3N2O- 1 309.9473 -0.92
  310.9551 C13H6Cl3N2O- 1 310.9551 0
  341.9195 C13H5Cl3N2OS- 1 341.9194 0.48
  356.9429 C14H8Cl3N2OS- 1 356.9428 0.19
PK$NUM_PEAK: 12
PK$PEAK: m/z int. rel.int.
  57.9755 253896.7 4
  160.9566 98971 1
  165.9939 2321117.5 38
  179.0017 634768.2 10
  196.9581 59968792 999
  211.9818 23379546 389
  274.9784 566171.2 9
  305.9425 568656.8 9
  309.947 146937.1 2
  310.9551 1217040.9 20
  341.9195 37647508 627
  356.9429 8438964 140
//
