ACCESSION: MSBNK-Eawag-EA028709
RECORD_TITLE: Atrazine-desisopropyl; LC-ESI-ITFT; MS2; CE: 30%; R=15000; [M+H]+
DATE: 2014.01.14
AUTHORS: Stravs M, Schymanski E, Singer H, Department of Environmental Chemistry, Eawag
LICENSE: CC BY
COPYRIGHT: Copyright (C) 2012 Eawag, Duebendorf, Switzerland
COMMENT: CONFIDENCE standard compound
COMMENT: EAWAG_UCHEM_ID 287
CH$NAME: Atrazine-desisopropyl
CH$NAME: Deisopropylatrazine
CH$NAME: (4-amino-6-chloro-s-triazin-2-yl)-ethyl-amine
CH$COMPOUND_CLASS: N/A; Environmental Standard
CH$FORMULA: C5H8ClN5
CH$EXACT_MASS: 173.0468
CH$SMILES: c1(nc(nc(n1)Cl)N)NCC
CH$IUPAC: InChI=1S/C5H8ClN5/c1-2-8-5-10-3(6)9-4(7)11-5/h2H2,1H3,(H3,7,8,9,10,11)
CH$LINK: CAS 1007-28-9
CH$LINK: CHEBI CHEBI:27399
CH$LINK: KEGG C06556
CH$LINK: PUBCHEM CID:13878
CH$LINK: INCHIKEY IVENSCMCQBJAKW-UHFFFAOYSA-N
CH$LINK: CHEMSPIDER 13278
CH$LINK: COMPTOX DTXSID0037495
AC$INSTRUMENT: LTQ Orbitrap XL Thermo Scientific
AC$INSTRUMENT_TYPE: LC-ESI-ITFT
AC$MASS_SPECTROMETRY: MS_TYPE MS2
AC$MASS_SPECTROMETRY: ION_MODE POSITIVE
AC$MASS_SPECTROMETRY: IONIZATION ESI
AC$MASS_SPECTROMETRY: FRAGMENTATION_MODE HCD
AC$MASS_SPECTROMETRY: COLLISION_ENERGY 30 % (nominal)
AC$MASS_SPECTROMETRY: RESOLUTION 15000
AC$CHROMATOGRAPHY: COLUMN_NAME XBridge C18 3.5um, 2.1x50mm, Waters
AC$CHROMATOGRAPHY: FLOW_GRADIENT 90/10 at 0 min, 50/50 at 4 min, 5/95 at 17 min, 5/95 at 25 min, 90/10 at 25.1 min, 90/10 at 30 min
AC$CHROMATOGRAPHY: FLOW_RATE 200 ul/min
AC$CHROMATOGRAPHY: RETENTION_TIME 4.3 min
AC$CHROMATOGRAPHY: SOLVENT A water with 0.1% formic acid
AC$CHROMATOGRAPHY: SOLVENT B methanol with 0.1% formic acid
MS$FOCUSED_ION: BASE_PEAK 174.0541
MS$FOCUSED_ION: PRECURSOR_M/Z 174.0541
MS$FOCUSED_ION: PRECURSOR_TYPE [M+H]+
MS$DATA_PROCESSING: DEPROFILE Spline
MS$DATA_PROCESSING: RECALIBRATE loess on assigned fragments and MS1
MS$DATA_PROCESSING: REANALYZE Peaks with additional N2/O included
MS$DATA_PROCESSING: WHOLE RMassBank 1.3.1
PK$SPLASH: splash10-00di-0900000000-9422cdeefca95c62ea39
PK$ANNOTATION: m/z tentative_formula formula_count mass error(ppm)
  68.0243 C2H2N3+ 1 68.0243 0.39
  79.0058 CH4ClN2+ 1 79.0058 0.48
  96.0556 C4H6N3+ 1 96.0556 0.07
  104.0012 C2H3ClN3+ 1 104.001 1.72
  132.0323 C4H7ClN3+ 1 132.0323 0.14
  138.0772 C5H8N5+ 1 138.0774 -1.39
  146.0231 C3H5ClN5+ 1 146.0228 1.72
  174.0541 C5H9ClN5+ 1 174.0541 0.29
PK$NUM_PEAK: 8
PK$PEAK: m/z int. rel.int.
  68.0243 72031.8 4
  79.0058 135121.5 7
  96.0556 81970.9 4
  104.0012 40098.2 2
  132.0323 163989.6 9
  138.0772 38401.2 2
  146.0231 106278.3 6
  174.0541 17399542.8 999
//
