ACCESSION: MSBNK-Eawag-EA266759
RECORD_TITLE: Fipronil-sulfone; LC-ESI-ITFT; MS2; CE: 30%; R=15000; [M-H]-
DATE: 2014.01.14
AUTHORS: Stravs M, Schymanski E, Singer H, Department of Environmental Chemistry, Eawag
LICENSE: CC BY
COPYRIGHT: Copyright (C) 2012 Eawag, Duebendorf, Switzerland
COMMENT: CONFIDENCE standard compound
COMMENT: EAWAG_UCHEM_ID 2667
CH$NAME: Fipronil-sulfone
CH$NAME: 5-amino-1-[2,6-dichloro-4-(trifluoromethyl)phenyl]-4-(trifluoromethylsulfonyl)-3-pyrazolecarbonitrile
CH$COMPOUND_CLASS: N/A; Environmental Standard
CH$FORMULA: C12H4Cl2F6N4O2S
CH$EXACT_MASS: 451.9336
CH$SMILES: NC1=C(C(=NN1c1c(Cl)cc(cc1Cl)C(F)(F)F)C#N)S(=O)(=O)C(F)(F)F
CH$IUPAC: InChI=1S/C12H4Cl2F6N4O2S/c13-5-1-4(11(15,16)17)2-6(14)8(5)24-10(22)9(7(3-21)23-24)27(25,26)12(18,19)20/h1-2H,22H2
CH$LINK: CAS 120068-36-2
CH$LINK: PUBCHEM CID:3078139
CH$LINK: INCHIKEY LGHZJDKSVUTELU-UHFFFAOYSA-N
CH$LINK: CHEMSPIDER 2336427
CH$LINK: COMPTOX DTXSID6074750
AC$INSTRUMENT: LTQ Orbitrap XL Thermo Scientific
AC$INSTRUMENT_TYPE: LC-ESI-ITFT
AC$MASS_SPECTROMETRY: MS_TYPE MS2
AC$MASS_SPECTROMETRY: ION_MODE NEGATIVE
AC$MASS_SPECTROMETRY: IONIZATION ESI
AC$MASS_SPECTROMETRY: FRAGMENTATION_MODE HCD
AC$MASS_SPECTROMETRY: COLLISION_ENERGY 30 % (nominal)
AC$MASS_SPECTROMETRY: RESOLUTION 15000
AC$CHROMATOGRAPHY: COLUMN_NAME XBridge C18 3.5um, 2.1x50mm, Waters
AC$CHROMATOGRAPHY: FLOW_GRADIENT 90/10 at 0 min, 50/50 at 4 min, 5/95 at 17 min, 5/95 at 25 min, 90/10 at 25.1 min, 90/10 at 30 min
AC$CHROMATOGRAPHY: FLOW_RATE 200 ul/min
AC$CHROMATOGRAPHY: RETENTION_TIME 13.5 min
AC$CHROMATOGRAPHY: SOLVENT A water with 0.1% formic acid
AC$CHROMATOGRAPHY: SOLVENT B methanol with 0.1% formic acid
MS$FOCUSED_ION: BASE_PEAK 450.9265
MS$FOCUSED_ION: PRECURSOR_M/Z 450.9263
MS$FOCUSED_ION: PRECURSOR_TYPE [M-H]-
MS$DATA_PROCESSING: DEPROFILE Spline
MS$DATA_PROCESSING: RECALIBRATE loess on assigned fragments and MS1
MS$DATA_PROCESSING: REANALYZE Peaks with additional N2/O included
MS$DATA_PROCESSING: WHOLE RMassBank 1.3.1
PK$SPLASH: splash10-01q9-0290600000-5d72cd31eeba23a5cdf7
PK$ANNOTATION: m/z tentative_formula formula_count mass error(ppm)
  170.0097 C7HF3N2- 1 170.0097 -0.42
  183.018 C8H2F3N2- 2 183.0176 2.15
  217.9867 C8H2ClF3N2- 3 217.9864 1.2
  243.9902 C9F4N2O2- 4 243.9901 0.25
  281.9927 C11H2ClF3N4- 3 281.9926 0.65
  345.9545 C11H2ClF3N4O2S- 2 345.9545 0.27
  414.9499 C12H2ClF6N4O2S- 1 414.9497 0.66
PK$NUM_PEAK: 8
PK$PEAK: m/z int. rel.int.
  170.0097 18510.9 85
  183.018 54439.6 250
  217.9867 39161 179
  233.9816 22192.06446 101
  243.9902 22947.1 105
  281.9927 215223.6 988
  345.9545 16191.9 74
  414.9499 217477.1 999
//
