ACCESSION: MSBNK-Eawag-EA293551
RECORD_TITLE: Methoxyfenozide; LC-ESI-ITFT; MS2; CE: 35%; R=7500; [M-H]-
DATE: 2014.01.14
AUTHORS: Stravs M, Schymanski E, Singer H, Department of Environmental Chemistry, Eawag
LICENSE: CC BY
COPYRIGHT: Copyright (C) 2012 Eawag, Duebendorf, Switzerland
COMMENT: CONFIDENCE standard compound
COMMENT: EAWAG_UCHEM_ID 2935
CH$NAME: Methoxyfenozide
CH$NAME: N'-tert-butyl-N'-(3,5-dimethylbenzoyl)-3-methoxy-2-methyl-benzohydrazide
CH$COMPOUND_CLASS: N/A; Environmental Standard
CH$FORMULA: C22H28N2O3
CH$EXACT_MASS: 368.2100
CH$SMILES: O=C(c1cc(cc(c1)C)C)N(NC(=O)c2cccc(OC)c2C)C(C)(C)C
CH$IUPAC: InChI=1S/C22H28N2O3/c1-14-11-15(2)13-17(12-14)21(26)24(22(4,5)6)23-20(25)18-9-8-10-19(27-7)16(18)3/h8-13H,1-7H3,(H,23,25)
CH$LINK: CAS 161050-58-4
CH$LINK: CHEBI CHEBI:38449
CH$LINK: PUBCHEM CID:105010
CH$LINK: INCHIKEY QCAWEPFNJXQPAN-UHFFFAOYSA-N
CH$LINK: CHEMSPIDER 94755
CH$LINK: COMPTOX DTXSID3032628
AC$INSTRUMENT: LTQ Orbitrap XL Thermo Scientific
AC$INSTRUMENT_TYPE: LC-ESI-ITFT
AC$MASS_SPECTROMETRY: MS_TYPE MS2
AC$MASS_SPECTROMETRY: ION_MODE NEGATIVE
AC$MASS_SPECTROMETRY: IONIZATION ESI
AC$MASS_SPECTROMETRY: FRAGMENTATION_MODE CID
AC$MASS_SPECTROMETRY: COLLISION_ENERGY 35 % (nominal)
AC$MASS_SPECTROMETRY: RESOLUTION 7500
AC$CHROMATOGRAPHY: COLUMN_NAME XBridge C18 3.5um, 2.1x50mm, Waters
AC$CHROMATOGRAPHY: FLOW_GRADIENT 90/10 at 0 min, 50/50 at 4 min, 5/95 at 17 min, 5/95 at 25 min, 90/10 at 25.1 min, 90/10 at 30 min
AC$CHROMATOGRAPHY: FLOW_RATE 200 ul/min
AC$CHROMATOGRAPHY: RETENTION_TIME 11.0 min
AC$CHROMATOGRAPHY: SOLVENT A water with 0.1% formic acid
AC$CHROMATOGRAPHY: SOLVENT B methanol with 0.1% formic acid
MS$FOCUSED_ION: BASE_PEAK 367.2038
MS$FOCUSED_ION: PRECURSOR_M/Z 367.2027
MS$FOCUSED_ION: PRECURSOR_TYPE [M-H]-
MS$DATA_PROCESSING: DEPROFILE Spline
MS$DATA_PROCESSING: RECALIBRATE loess on assigned fragments and MS1
MS$DATA_PROCESSING: REANALYZE Peaks with additional N2/O included
MS$DATA_PROCESSING: WHOLE RMassBank 1.3.1
PK$SPLASH: splash10-0002-0900000000-ef6d15df1fb3434e622c
PK$ANNOTATION: m/z tentative_formula formula_count mass error(ppm)
  105.0711 C8H9- 1 105.071 1.58
  149.0611 C9H9O2- 1 149.0608 2.19
  165.0558 C9H9O3- 1 165.0557 0.56
  204.1396 C13H18NO- 1 204.1394 1.09
PK$NUM_PEAK: 4
PK$PEAK: m/z int. rel.int.
  105.0711 62011.8 13
  149.0611 4659932.9 999
  165.0558 255401.1 54
  204.1396 117661.9 25
//
