ACCESSION: MSBNK-Eawag-EA065713
RECORD_TITLE: Clindamycin; LC-ESI-ITFT; MS2; CE: 90%; R=30000; [M+H]+
DATE: 2014.01.14
AUTHORS: Stravs M, Schymanski E, Singer H, Department of Environmental Chemistry, Eawag
LICENSE: CC BY
COPYRIGHT: Copyright (C) 2012 Eawag, Duebendorf, Switzerland
COMMENT: CONFIDENCE standard compound
COMMENT: EAWAG_UCHEM_ID 657
CH$NAME: Clindamycin
CH$NAME: (2S,4R)-N-[2-chloranyl-1-[(2R,3R,4S,5R,6R)-6-methylsulfanyl-3,4,5-tris(oxidanyl)oxan-2-yl]propyl]-1-methyl-4-propyl-pyrrolidine-2-carboxamide
CH$COMPOUND_CLASS: N/A; Environmental Standard
CH$FORMULA: C18H33ClN2O5S
CH$EXACT_MASS: 424.1799
CH$SMILES: CCC[C@@H]1C[C@H](N(C1)C)C(=O)NC([C@@H]2[C@@H]([C@@H]([C@H]([C@H](O2)SC)O)O)O)C(C)Cl
CH$IUPAC: InChI=1S/C18H33ClN2O5S/c1-5-6-10-7-11(21(3)8-10)17(25)20-12(9(2)19)16-14(23)13(22)15(24)18(26-16)27-4/h9-16,18,22-24H,5-8H2,1-4H3,(H,20,25)/t9?,10-,11+,12?,13+,14-,15-,16-,18-/m1/s1
CH$LINK: CAS 18323-44-9
CH$LINK: CHEBI CHEBI:3745
CH$LINK: KEGG C06914
CH$LINK: PUBCHEM CID:29029
CH$LINK: INCHIKEY KDLRVYVGXIQJDK-NOWPCOIGSA-N
CH$LINK: CHEMSPIDER 27005
CH$LINK: COMPTOX DTXSID90928608
AC$INSTRUMENT: LTQ Orbitrap XL Thermo Scientific
AC$INSTRUMENT_TYPE: LC-ESI-ITFT
AC$MASS_SPECTROMETRY: MS_TYPE MS2
AC$MASS_SPECTROMETRY: ION_MODE POSITIVE
AC$MASS_SPECTROMETRY: IONIZATION ESI
AC$MASS_SPECTROMETRY: FRAGMENTATION_MODE HCD
AC$MASS_SPECTROMETRY: COLLISION_ENERGY 90 % (nominal)
AC$MASS_SPECTROMETRY: RESOLUTION 30000
AC$CHROMATOGRAPHY: COLUMN_NAME XBridge C18 3.5um, 2.1x50mm, Waters
AC$CHROMATOGRAPHY: FLOW_GRADIENT 90/10 at 0 min, 50/50 at 4 min, 5/95 at 17 min, 5/95 at 25 min, 90/10 at 25.1 min, 90/10 at 30 min
AC$CHROMATOGRAPHY: FLOW_RATE 200 ul/min
AC$CHROMATOGRAPHY: RETENTION_TIME 6.7 min
AC$CHROMATOGRAPHY: SOLVENT A water with 0.1% formic acid
AC$CHROMATOGRAPHY: SOLVENT B methanol with 0.1% formic acid
MS$FOCUSED_ION: BASE_PEAK 425.1886
MS$FOCUSED_ION: PRECURSOR_M/Z 425.1871
MS$FOCUSED_ION: PRECURSOR_TYPE [M+H]+
MS$DATA_PROCESSING: DEPROFILE Spline
MS$DATA_PROCESSING: RECALIBRATE loess on assigned fragments and MS1
MS$DATA_PROCESSING: REANALYZE Peaks with additional N2/O included
MS$DATA_PROCESSING: WHOLE RMassBank 1.3.1
PK$SPLASH: splash10-004i-2900000000-b410c4ec9eb02ede33ba
PK$ANNOTATION: m/z tentative_formula formula_count mass error(ppm)
  55.0542 C4H7+ 1 55.0542 -1.21
  58.0651 C3H8N+ 1 58.0651 -0.44
  67.0542 C5H7+ 1 67.0542 -0.4
  68.0494 C4H6N+ 1 68.0495 -0.38
  69.0699 C5H9+ 1 69.0699 -0.1
  70.0651 C4H8N+ 1 70.0651 -0.22
  82.0651 C5H8N+ 1 82.0651 -0.19
  83.0729 C5H9N+ 1 83.073 -0.37
  84.0807 C5H10N+ 1 84.0808 -0.66
  95.0855 C7H11+ 1 95.0855 -0.6
  96.0807 C6H10N+ 1 96.0808 -0.48
  97.0885 C6H11N+ 1 97.0886 -1.45
  98.0964 C6H12N+ 1 98.0964 -0.26
  124.112 C8H14N+ 1 124.1121 -0.37
  126.1277 C8H16N+ 1 126.1277 -0.13
  377.1831 C17H30ClN2O5+ 1 377.1838 -1.82
PK$NUM_PEAK: 16
PK$PEAK: m/z int. rel.int.
  55.0542 11158.7 4
  58.0651 36154 13
  67.0542 24451 8
  68.0494 35793.6 13
  69.0699 59314.1 21
  70.0651 164962.5 59
  82.0651 121086.9 44
  83.0729 143581.2 52
  84.0807 44724.2 16
  95.0855 34937.3 12
  96.0807 12883.2 4
  97.0885 18199.3 6
  98.0964 7547.7 2
  124.112 60040.7 21
  126.1277 2747869.8 999
  377.1831 5074.8 1
//
