ACCESSION: MSBNK-Eawag-EA017203
RECORD_TITLE: Metoprolol; LC-ESI-ITFT; MS2; CE: 30%; R=7500; [M+H]+
DATE: 2014.01.14
AUTHORS: Stravs M, Schymanski E, Singer H, Department of Environmental Chemistry, Eawag
LICENSE: CC BY
COPYRIGHT: Copyright (C) 2012 Eawag, Duebendorf, Switzerland
COMMENT: CONFIDENCE standard compound
COMMENT: EAWAG_UCHEM_ID 172
CH$NAME: Metoprolol
CH$NAME: 1-(isopropylamino)-3-[4-(2-methoxyethyl)phenoxy]propan-2-ol
CH$COMPOUND_CLASS: N/A; Environmental Standard
CH$FORMULA: C15H25NO3
CH$EXACT_MASS: 267.1834
CH$SMILES: COCCC1=CC=C(OCC(O)CNC(C)C)C=C1
CH$IUPAC: InChI=1S/C15H25NO3/c1-12(2)16-10-14(17)11-19-15-6-4-13(5-7-15)8-9-18-3/h4-7,12,14,16-17H,8-11H2,1-3H3
CH$LINK: CAS 37350-58-6
CH$LINK: CHEBI CHEBI:6904
CH$LINK: HMDB HMDB01932
CH$LINK: KEGG C07202
CH$LINK: PUBCHEM CID:4171
CH$LINK: INCHIKEY IUBSYMUCCVWXPE-UHFFFAOYSA-N
CH$LINK: CHEMSPIDER 4027
CH$LINK: COMPTOX DTXSID2023309
AC$INSTRUMENT: LTQ Orbitrap XL Thermo Scientific
AC$INSTRUMENT_TYPE: LC-ESI-ITFT
AC$MASS_SPECTROMETRY: MS_TYPE MS2
AC$MASS_SPECTROMETRY: ION_MODE POSITIVE
AC$MASS_SPECTROMETRY: IONIZATION ESI
AC$MASS_SPECTROMETRY: FRAGMENTATION_MODE HCD
AC$MASS_SPECTROMETRY: COLLISION_ENERGY 30 % (nominal)
AC$MASS_SPECTROMETRY: RESOLUTION 7500
AC$CHROMATOGRAPHY: COLUMN_NAME XBridge C18 3.5um, 2.1x50mm, Waters
AC$CHROMATOGRAPHY: FLOW_GRADIENT 90/10 at 0 min, 50/50 at 4 min, 5/95 at 17 min, 5/95 at 25 min, 90/10 at 25.1 min, 90/10 at 30 min
AC$CHROMATOGRAPHY: FLOW_RATE 200 ul/min
AC$CHROMATOGRAPHY: RETENTION_TIME 5.1 min
AC$CHROMATOGRAPHY: SOLVENT A water with 0.1% formic acid
AC$CHROMATOGRAPHY: SOLVENT B methanol with 0.1% formic acid
MS$FOCUSED_ION: BASE_PEAK 268.1916
MS$FOCUSED_ION: PRECURSOR_M/Z 268.1907
MS$FOCUSED_ION: PRECURSOR_TYPE [M+H]+
MS$DATA_PROCESSING: DEPROFILE Spline
MS$DATA_PROCESSING: RECALIBRATE loess on assigned fragments and MS1
MS$DATA_PROCESSING: REANALYZE Peaks with additional N2/O included
MS$DATA_PROCESSING: WHOLE RMassBank 1.3.1
PK$SPLASH: splash10-014i-0190000000-0ea5b7fc1dda907b176b
PK$ANNOTATION: m/z tentative_formula formula_count mass error(ppm)
  72.0808 C4H10N+ 1 72.0808 0.61
  74.0601 C3H8NO+ 1 74.06 0.27
  98.0965 C6H12N+ 1 98.0964 0.35
  116.107 C6H14NO+ 1 116.107 -0.18
  121.0647 C8H9O+ 1 121.0648 -1.17
  133.0652 C9H9O+ 1 133.0648 2.77
  159.0806 C11H11O+ 1 159.0804 1.31
  176.1069 C11H14NO+ 1 176.107 -0.57
  177.0908 C11H13O2+ 1 177.091 -1.45
  191.1069 C12H15O2+ 1 191.1067 1.28
  194.1181 C11H16NO2+ 1 194.1176 2.55
  218.1543 C14H20NO+ 1 218.1539 1.74
  226.1432 C12H20NO3+ 1 226.1438 -2.43
  250.1806 C15H24NO2+ 1 250.1802 1.86
  268.1904 C15H26NO3+ 1 268.1907 -1.31
PK$NUM_PEAK: 15
PK$PEAK: m/z int. rel.int.
  72.0808 527773.5 13
  74.0601 589456.1 15
  98.0965 733491.7 18
  116.107 2039836 52
  121.0647 519505 13
  133.0652 163279 4
  159.0806 388753.1 9
  176.1069 390458.9 9
  177.0908 212170.7 5
  191.1069 1463479.3 37
  194.1181 205669.5 5
  218.1543 600981 15
  226.1432 986180.2 25
  250.1806 533612.1 13
  268.1904 39061782 999
//
