ACCESSION: MSBNK-Eawag-EQ00312109
RECORD_TITLE: 5-Fluorocytosine; LC-ESI-QFT; MS2; CE: 180%; R=17500; [M+H]+
DATE: 2024.05.08
AUTHORS: C. Meyer [dtc], B. Beck [dtc,com], J. Hollender [dtc]
LICENSE: CC BY-SA
COPYRIGHT: Copyright (C) Eawag 2023
PUBLICATION: Meyer, C., Stravs, M., Hollender, J.. How Wastewater Reflects Human Metabolism - Suspect Screening of Pharmaceutical Metabolites in Wastewater Influent. doi:10.1021/acs.est.4c00968
COMMENT: CONFIDENCE standard compound
COMMENT: UCHEM_ID 3121
CH$NAME: 5-Fluorocytosine
CH$NAME: Flucytosine
CH$NAME: 6-amino-5-fluoro-1H-pyrimidin-2-one
CH$COMPOUND_CLASS: N/A; Environmental Standard
CH$FORMULA: C4H4FN3O
CH$EXACT_MASS: 129.03384
CH$SMILES: C1=NC(=O)NC(=C1F)N
CH$IUPAC: InChI=1S/C4H4FN3O/c5-2-1-7-4(9)8-3(2)6/h1H,(H3,6,7,8,9)
CH$LINK: CHEBI CHEBI:5100
CH$LINK: PUBCHEM CID:3366
CH$LINK: INCHIKEY XRECTZIEBJDKEO-UHFFFAOYSA-N
CH$LINK: CHEMSPIDER 3249
AC$INSTRUMENT: Exploris 240 Orbitrap Thermo Scientific
AC$INSTRUMENT_TYPE: LC-ESI-QFT
AC$MASS_SPECTROMETRY: MS_TYPE MS2
AC$MASS_SPECTROMETRY: ION_MODE POSITIVE
AC$MASS_SPECTROMETRY: IONIZATION ESI
AC$MASS_SPECTROMETRY: FRAGMENTATION_MODE HCD
AC$MASS_SPECTROMETRY: COLLISION_ENERGY 180 % (nominal)
AC$MASS_SPECTROMETRY: RESOLUTION 17500
AC$MASS_SPECTROMETRY: MASS_RANGE_M/Z 40-154
AC$CHROMATOGRAPHY: COLUMN_NAME XBridge C18 3.5um, 2.1x50mm, Waters
AC$CHROMATOGRAPHY: FLOW_GRADIENT 90/10 at 0 min, 50/50 at 4 min, 5/95 at 17 min, 5/95 at 25 min, 90/10 at 25.1 min, 90/10 at 30 min
AC$CHROMATOGRAPHY: FLOW_RATE 200 uL/min
AC$CHROMATOGRAPHY: RETENTION_TIME 0.909 min
MS$FOCUSED_ION: BASE_PEAK 130.041
MS$FOCUSED_ION: PRECURSOR_M/Z 130.0411
MS$FOCUSED_ION: PRECURSOR_TYPE [M+H]+
MS$DATA_PROCESSING: RECALIBRATE loess on assigned fragments and MS1
MS$DATA_PROCESSING: REANALYZE Peaks with additional N2/O included
MS$DATA_PROCESSING: WHOLE RMassBank 3.15.1
PK$SPLASH: splash10-0a4i-9000000000-721d6583c32588e5f9da
PK$ANNOTATION: m/z tentative_formula formula_count mass error(ppm)
  43.029 CH3N2+ 1 43.0291 -2.35
  44.013 CH2NO+ 1 44.0131 -1.24
  46.0087 CHFN+ 1 46.0088 -2.03
  47.0165 CH2FN+ 1 47.0166 -2.58
  55.029 C2H3N2+ 1 55.0291 -0.75
  56.013 C2H2NO+ 1 56.0131 -1.19
  58.0087 C2HFN+ 1 58.0088 -0.74
  60.0244 C2H3FN+ 1 60.0244 -0.44
  65.0135 C3HN2+ 1 65.0134 0.45
  67.0291 C3H3N2+ 1 67.0291 0.36
  69.0085 C2HN2O+ 1 69.0083 1.7
  70.0087 C3HFN+ 1 70.0088 -0.41
  85.0197 C3H2FN2+ 1 85.0197 -0.01
  87.0352 C3H4FN2+ 1 87.0353 -0.64
  113.0143 C4H2FN2O+ 1 113.0146 -1.95
PK$NUM_PEAK: 15
PK$PEAK: m/z int. rel.int.
  43.029 314885.6 10
  44.013 194349.7 6
  46.0087 170111.5 5
  47.0165 178292.1 6
  55.029 121537 4
  56.013 799417.1 27
  58.0087 28776750 999
  60.0244 2296030 79
  65.0135 573619.3 19
  67.0291 854486.5 29
  69.0085 414910.9 14
  70.0087 171798.2 5
  85.0197 1639390.2 56
  87.0352 331497 11
  113.0143 1017888.2 35
//
