ACCESSION: MSBNK-Eawag-EA070704
RECORD_TITLE: Dimethachlor; LC-ESI-ITFT; MS2; CE: 45%; R=7500; [M+H]+
DATE: 2014.01.14
AUTHORS: Stravs M, Schymanski E, Singer H, Department of Environmental Chemistry, Eawag
LICENSE: CC BY
COPYRIGHT: Copyright (C) 2012 Eawag, Duebendorf, Switzerland
COMMENT: CONFIDENCE standard compound
COMMENT: EAWAG_UCHEM_ID 707
CH$NAME: Dimethachlor
CH$NAME: 2-chloranyl-N-(2,6-dimethylphenyl)-N-(2-methoxyethyl)ethanamide
CH$COMPOUND_CLASS: N/A; Environmental Standard
CH$FORMULA: C13H18ClNO2
CH$EXACT_MASS: 255.1021
CH$SMILES: Cc1cccc(C)c1N(CCOC)C(=O)CCl
CH$IUPAC: InChI=1S/C13H18ClNO2/c1-10-5-4-6-11(2)13(10)15(7-8-17-3)12(16)9-14/h4-6H,7-9H2,1-3H3
CH$LINK: CAS 50563-36-5
CH$LINK: PUBCHEM CID:39722
CH$LINK: INCHIKEY SCCDDNKJYDZXMM-UHFFFAOYSA-N
CH$LINK: CHEMSPIDER 36319
CH$LINK: COMPTOX DTXSID3058111
AC$INSTRUMENT: LTQ Orbitrap XL Thermo Scientific
AC$INSTRUMENT_TYPE: LC-ESI-ITFT
AC$MASS_SPECTROMETRY: MS_TYPE MS2
AC$MASS_SPECTROMETRY: ION_MODE POSITIVE
AC$MASS_SPECTROMETRY: IONIZATION ESI
AC$MASS_SPECTROMETRY: FRAGMENTATION_MODE HCD
AC$MASS_SPECTROMETRY: COLLISION_ENERGY 45 % (nominal)
AC$MASS_SPECTROMETRY: RESOLUTION 7500
AC$CHROMATOGRAPHY: COLUMN_NAME XBridge C18 3.5um, 2.1x50mm, Waters
AC$CHROMATOGRAPHY: FLOW_GRADIENT 90/10 at 0 min, 50/50 at 4 min, 5/95 at 17 min, 5/95 at 25 min, 90/10 at 25.1 min, 90/10 at 30 min
AC$CHROMATOGRAPHY: FLOW_RATE 200 ul/min
AC$CHROMATOGRAPHY: RETENTION_TIME 9.1 min
AC$CHROMATOGRAPHY: SOLVENT A water with 0.1% formic acid
AC$CHROMATOGRAPHY: SOLVENT B methanol with 0.1% formic acid
MS$FOCUSED_ION: BASE_PEAK 256.1106
MS$FOCUSED_ION: PRECURSOR_M/Z 256.1099
MS$FOCUSED_ION: PRECURSOR_TYPE [M+H]+
MS$DATA_PROCESSING: DEPROFILE Spline
MS$DATA_PROCESSING: RECALIBRATE loess on assigned fragments and MS1
MS$DATA_PROCESSING: REANALYZE Peaks with additional N2/O included
MS$DATA_PROCESSING: WHOLE RMassBank 1.3.1
PK$SPLASH: splash10-00di-0290000000-4bf84e236ff436d4974d
PK$ANNOTATION: m/z tentative_formula formula_count mass error(ppm)
  76.9787 C2H2ClO+ 1 76.9789 -2.06
  105.0697 C8H9+ 1 105.0699 -1.59
  132.0808 C9H10N+ 1 132.0808 0.11
  146.0962 C10H12N+ 1 146.0964 -1.34
  147.1038 C10H13N+ 1 147.1043 -3.34
  148.1122 C10H14N+ 1 148.1121 0.7
  224.0839 C12H15ClNO+ 1 224.0837 1.26
PK$NUM_PEAK: 7
PK$PEAK: m/z int. rel.int.
  76.9787 26795.1 2
  105.0697 24274.8 2
  132.0808 59017.6 6
  146.0962 32857 3
  147.1038 25737.7 2
  148.1122 2116406.8 228
  224.0839 9247256.4 999
//
