ACCESSION: MSBNK-Eawag-EA277661
RECORD_TITLE: Eprosartan; LC-ESI-ITFT; MS2; CE: 60%; R=15000; [M-H]-
DATE: 2014.01.14
AUTHORS: Stravs M, Schymanski E, Singer H, Department of Environmental Chemistry, Eawag
LICENSE: CC BY
COPYRIGHT: Copyright (C) 2012 Eawag, Duebendorf, Switzerland
COMMENT: CONFIDENCE standard compound
COMMENT: EAWAG_UCHEM_ID 2776
CH$NAME: Eprosartan
CH$NAME: 4-[[2-butyl-5-[(E)-3-hydroxy-3-keto-2-(2-thenyl)prop-1-enyl]imidazol-1-yl]methyl]benzoic acid
CH$COMPOUND_CLASS: N/A; Environmental Standard
CH$FORMULA: C23H24N2O4S
CH$EXACT_MASS: 424.1457
CH$SMILES: CCCCC1=NC=C(N1CC2=CC=C(C=C2)C(=O)O)/C=C(\CC3=CC=CS3)/C(=O)O
CH$IUPAC: InChI=1S/C23H24N2O4S/c1-2-3-6-21-24-14-19(12-18(23(28)29)13-20-5-4-11-30-20)25(21)15-16-7-9-17(10-8-16)22(26)27/h4-5,7-12,14H,2-3,6,13,15H2,1H3,(H,26,27)(H,28,29)/b18-12+
CH$LINK: CAS 133040-01-4
CH$LINK: CHEBI CHEBI:4814
CH$LINK: KEGG C07467
CH$LINK: PUBCHEM CID:5281037
CH$LINK: INCHIKEY OROAFUQRIXKEMV-LDADJPATSA-N
CH$LINK: CHEMSPIDER 4444504
CH$LINK: COMPTOX DTXSID0022989
AC$INSTRUMENT: LTQ Orbitrap XL Thermo Scientific
AC$INSTRUMENT_TYPE: LC-ESI-ITFT
AC$MASS_SPECTROMETRY: MS_TYPE MS2
AC$MASS_SPECTROMETRY: ION_MODE NEGATIVE
AC$MASS_SPECTROMETRY: IONIZATION ESI
AC$MASS_SPECTROMETRY: FRAGMENTATION_MODE HCD
AC$MASS_SPECTROMETRY: COLLISION_ENERGY 60 % (nominal)
AC$MASS_SPECTROMETRY: RESOLUTION 15000
AC$CHROMATOGRAPHY: COLUMN_NAME XBridge C18 3.5um, 2.1x50mm, Waters
AC$CHROMATOGRAPHY: FLOW_GRADIENT 90/10 at 0 min, 50/50 at 4 min, 5/95 at 17 min, 5/95 at 25 min, 90/10 at 25.1 min, 90/10 at 30 min
AC$CHROMATOGRAPHY: FLOW_RATE 200 ul/min
AC$CHROMATOGRAPHY: RETENTION_TIME 6.2 min
AC$CHROMATOGRAPHY: SOLVENT A water with 0.1% formic acid
AC$CHROMATOGRAPHY: SOLVENT B methanol with 0.1% formic acid
MS$FOCUSED_ION: BASE_PEAK 423.1373
MS$FOCUSED_ION: PRECURSOR_M/Z 423.1384
MS$FOCUSED_ION: PRECURSOR_TYPE [M-H]-
MS$DATA_PROCESSING: DEPROFILE Spline
MS$DATA_PROCESSING: RECALIBRATE loess on assigned fragments and MS1
MS$DATA_PROCESSING: REANALYZE Peaks with additional N2/O included
MS$DATA_PROCESSING: WHOLE RMassBank 1.3.1
PK$SPLASH: splash10-014j-1090000000-85f4ee357273ee0268c0
PK$ANNOTATION: m/z tentative_formula formula_count mass error(ppm)
  82.9961 C4H3S- 1 82.9961 -0.42
  96.004 C5H4S- 1 96.0039 0.32
  121.0296 C7H5O2- 1 121.0295 0.47
  201.0491 C11H9N2S- 1 201.0492 -0.26
  215.065 C12H11N2S- 1 215.0648 0.5
  244.1051 C14H16N2S- 1 244.104 4.56
  245.1114 C14H17N2S- 1 245.1118 -1.6
PK$NUM_PEAK: 7
PK$PEAK: m/z int. rel.int.
  82.9961 3812.9 289
  96.004 1980.1 150
  121.0296 2840.6 215
  201.0491 5229.3 396
  215.065 13179.2 999
  244.1051 2561.5 194
  245.1114 7183.1 544
//
