ACCESSION: MSBNK-Eawag-EQ01100257
RECORD_TITLE: Febuxostat; LC-ESI-QFT; MS2; CE: 120%; R=15000; [M-H]-
DATE: 2024.06.14
AUTHORS: F. Jud [dtc], K. Arturi [dtc], J. Hollender [dtc], A. Dax [com]
LICENSE: CC BY-SA
COPYRIGHT: Copyright (C) Eawag 2024
COMMENT: CONFIDENCE standard compound
COMMENT: UCHEM_ID 11002
CH$NAME: Febuxostat
CH$NAME: 2-[3-cyano-4-(2-methylpropoxy)phenyl]-4-methyl-1,3-thiazole-5-carboxylic acid
CH$COMPOUND_CLASS: N/A
CH$FORMULA: C16H16N2O3S
CH$EXACT_MASS: 316.0881634
CH$SMILES: CC1=C(SC(=N1)C2=CC(=C(C=C2)OCC(C)C)C#N)C(=O)O
CH$IUPAC: InChI=1S/C16H16N2O3S/c1-9(2)8-21-13-5-4-11(6-12(13)7-17)15-18-10(3)14(22-15)16(19)20/h4-6,9H,8H2,1-3H3,(H,19,20)
CH$LINK: CAS 144060-53-7
CH$LINK: CHEBI CHEBI:31596
CH$LINK: KEGG D01206
CH$LINK: PUBCHEM CID:134018
CH$LINK: INCHIKEY BQSJTQLCZDPROO-UHFFFAOYSA-N
CH$LINK: CHEMSPIDER 118173
AC$INSTRUMENT: Q Exactive Plus
AC$INSTRUMENT_TYPE: LC-ESI-QFT
AC$MASS_SPECTROMETRY: MS_TYPE MS2
AC$MASS_SPECTROMETRY: ION_MODE NEGATIVE
AC$MASS_SPECTROMETRY: IONIZATION ESI
AC$MASS_SPECTROMETRY: FRAGMENTATION_MODE HCD
AC$MASS_SPECTROMETRY: COLLISION_ENERGY 120 % (nominal)
AC$MASS_SPECTROMETRY: RESOLUTION 15000
AC$MASS_SPECTROMETRY: MASS_RANGE_M/Z 50-340
AC$CHROMATOGRAPHY: COLUMN_NAME XBridge C18 3.5um, 2.1x50mm, Waters
AC$CHROMATOGRAPHY: FLOW_GRADIENT 90/10 at 0 min, 50/50 at 4 min, 5/95 at 17 min, 5/95 at 25 min, 90/10 at 25.1 min, 90/10 at 30 min
AC$CHROMATOGRAPHY: FLOW_RATE 200 uL/min
AC$CHROMATOGRAPHY: RETENTION_TIME 11.626 min
MS$FOCUSED_ION: BASE_PEAK 315.0808
MS$FOCUSED_ION: PRECURSOR_M/Z 315.0809
MS$FOCUSED_ION: PRECURSOR_TYPE [M-H]-
MS$FOCUSED_ION: PRECURSOR_INTENSITY 66713235.14
MS$DATA_PROCESSING: RECALIBRATE loess on assigned fragments and MS1
MS$DATA_PROCESSING: REANALYZE Peaks with additional N2/O included
MS$DATA_PROCESSING: WHOLE RMassBank 3.15.1.1
PK$SPLASH: splash10-00di-9000000000-9eda0da27ad2aacbf589
PK$ANNOTATION: m/z tentative_formula formula_count mass error(ppm)
  55.9725 C2S- 1 55.9726 -1.63
  69.9882 C3H2S- 1 69.9883 -1.11
  70.996 C3H3S- 1 70.9961 -0.63
PK$NUM_PEAK: 3
PK$PEAK: m/z int. rel.int.
  55.9725 138308.2 19
  69.9882 104617.3 14
  70.996 7141952 999
//
