ACCESSION: MSBNK-Eawag-EQ01102304
RECORD_TITLE: Melatonin; LC-ESI-QFT; MS2; CE: 30%; R=15000; [M+H]+
DATE: 2024.06.14
AUTHORS: B. Beck [dtc], J. Bosshard [dtc], H. Singer [dtc], A. Dax [com]
LICENSE: CC BY-SA
COPYRIGHT: Copyright (C) Eawag 2024
COMMENT: CONFIDENCE standard compound
COMMENT: UCHEM_ID 11023
CH$NAME: Melatonin
CH$NAME: N-[2-(5-methoxy-1H-indol-3-yl)ethyl]ethanamide
CH$COMPOUND_CLASS: N/A
CH$FORMULA: C13H16N2O2
CH$EXACT_MASS: 232.1211778
CH$SMILES: CC(=O)NCCC1=CNC2=C1C=C(C=C2)OC
CH$IUPAC: InChI=1S/C13H16N2O2/c1-9(16)14-6-5-10-8-15-13-4-3-11(17-2)7-12(10)13/h3-4,7-8,15H,5-6H2,1-2H3,(H,14,16)
CH$LINK: CAS 73-31-4
CH$LINK: CHEBI CHEBI:16796
CH$LINK: KEGG C01598
CH$LINK: PUBCHEM CID:896
CH$LINK: INCHIKEY DRLFMBDRBRZALE-UHFFFAOYSA-N
CH$LINK: CHEMSPIDER 872
AC$INSTRUMENT: Exploris 240 Thermo Scientific
AC$INSTRUMENT_TYPE: LC-ESI-QFT
AC$MASS_SPECTROMETRY: MS_TYPE MS2
AC$MASS_SPECTROMETRY: ION_MODE POSITIVE
AC$MASS_SPECTROMETRY: IONIZATION ESI
AC$MASS_SPECTROMETRY: FRAGMENTATION_MODE HCD
AC$MASS_SPECTROMETRY: COLLISION_ENERGY 30 % (nominal)
AC$MASS_SPECTROMETRY: RESOLUTION 15000
AC$MASS_SPECTROMETRY: MASS_RANGE_M/Z 50-259
AC$CHROMATOGRAPHY: COLUMN_NAME XBridge C18 3.5um, 2.1x50mm, Waters
AC$CHROMATOGRAPHY: FLOW_GRADIENT 90/10 at 0 min, 50/50 at 4 min, 5/95 at 17 min, 5/95 at 25 min, 90/10 at 25.1 min, 90/10 at 30 min
AC$CHROMATOGRAPHY: FLOW_RATE 200 uL/min
AC$CHROMATOGRAPHY: RETENTION_TIME 4.312 min
MS$FOCUSED_ION: BASE_PEAK 233.128
MS$FOCUSED_ION: PRECURSOR_M/Z 233.1285
MS$FOCUSED_ION: PRECURSOR_TYPE [M+H]+
MS$DATA_PROCESSING: RECALIBRATE loess on assigned fragments and MS1
MS$DATA_PROCESSING: REANALYZE Peaks with additional N2/O included
MS$DATA_PROCESSING: WHOLE RMassBank 3.15.1.1
PK$SPLASH: splash10-00di-0900000000-f6178c836192eeb4fbd0
PK$ANNOTATION: m/z tentative_formula formula_count mass error(ppm)
  117.0699 C9H9+ 1 117.0699 0.24
  131.0729 C9H9N+ 1 131.073 -0.13
  142.0648 C10H8N+ 1 142.0651 -2.63
  143.0729 C10H9N+ 1 143.073 -0.58
  144.0808 C10H10N+ 1 144.0808 -0.15
  159.0678 C10H9NO+ 1 159.0679 -0.36
  174.0912 C11H12NO+ 1 174.0913 -0.61
PK$NUM_PEAK: 7
PK$PEAK: m/z int. rel.int.
  117.0699 1297446 10
  131.0729 5658229.5 47
  142.0648 2148749.8 18
  143.0729 12495781 105
  144.0808 3103768.2 26
  159.0678 42705088 359
  174.0912 118583896 999
//
