ACCESSION: MSBNK-Eawag-EQ309453
RECORD_TITLE: Flurenol; LC-ESI-QFT; MS2; CE: 45; R=35000; [M-H]-
DATE: 2015.08.25
AUTHORS: Beck B, Stravs M, Schymanski E, Singer H, Department of Environmental Chemistry, Eawag
LICENSE: CC BY
COPYRIGHT: Copyright (C) 2015 Eawag, Duebendorf, Switzerland
COMMENT: CONFIDENCE standard compound
COMMENT: EAWAG_UCHEM_ID 3094
CH$NAME: Flurenol
CH$NAME: 9-Hydroxyfluorene-9-carboxylic acid
CH$NAME: 9-hydroxy-9-fluorenecarboxylic acid
CH$COMPOUND_CLASS: N/A; Environmental Standard
CH$FORMULA: C14H10O3
CH$EXACT_MASS: 226.06299
CH$SMILES: O=C(O)C3(O)c1ccccc1c2c3cccc2
CH$IUPAC: InChI=1S/C14H10O3/c15-13(16)14(17)11-7-3-1-5-9(11)10-6-2-4-8-12(10)14/h1-8,17H,(H,15,16)
CH$LINK: CAS 467-69-6
CH$LINK: PUBCHEM CID:10087
CH$LINK: INCHIKEY GXAMYUGOODKVRM-UHFFFAOYSA-N
CH$LINK: CHEMSPIDER 9685
CH$LINK: COMPTOX DTXSID0075029
AC$INSTRUMENT: Q Exactive Orbitrap Thermo Scientific
AC$INSTRUMENT_TYPE: LC-ESI-QFT
AC$MASS_SPECTROMETRY: MS_TYPE MS2
AC$MASS_SPECTROMETRY: ION_MODE NEGATIVE
AC$MASS_SPECTROMETRY: IONIZATION ESI
AC$MASS_SPECTROMETRY: FRAGMENTATION_MODE HCD
AC$MASS_SPECTROMETRY: COLLISION_ENERGY 45 (nominal)
AC$MASS_SPECTROMETRY: RESOLUTION 35000
AC$CHROMATOGRAPHY: COLUMN_NAME XBridge C18 3.5um, 2.1x50mm, Waters
AC$CHROMATOGRAPHY: FLOW_GRADIENT 90/10 at 0 min, 50/50 at 4 min, 5/95 at 17 min, 5/95 at 25 min, 90/10 at 25.1 min, 90/10 at 30 min
AC$CHROMATOGRAPHY: FLOW_RATE 200 ul/min
AC$CHROMATOGRAPHY: RETENTION_TIME 6.3 min
AC$CHROMATOGRAPHY: SOLVENT A water with 0.1% formic acid
AC$CHROMATOGRAPHY: SOLVENT B methanol with 0.1% formic acid
MS$FOCUSED_ION: BASE_PEAK 195.0452
MS$FOCUSED_ION: PRECURSOR_M/Z 225.0557
MS$FOCUSED_ION: PRECURSOR_TYPE [M-H]-
MS$DATA_PROCESSING: DEPROFILE Spline
MS$DATA_PROCESSING: RECALIBRATE loess on assigned fragments and MS1
MS$DATA_PROCESSING: REANALYZE Peaks with additional N2/O included
MS$DATA_PROCESSING: WHOLE RMassBank 1.9.6
PK$SPLASH: splash10-03dj-0960000000-5e0996b4e0323d22fd83
PK$ANNOTATION: m/z tentative_formula formula_count mass error(ppm)
  141.0708 C11H9- 1 141.071 -1.59
  169.066 C12H9O- 1 169.0659 0.48
  180.058 C13H8O- 1 180.0581 -0.19
  181.0659 C13H9O- 1 181.0659 0.28
  185.0607 C12H9O2- 1 185.0608 -0.83
  195.0451 C13H7O2- 1 195.0452 -0.32
  197.0607 C13H9O2- 1 197.0608 -0.62
  213.0557 C13H9O3- 1 213.0557 -0.32
PK$NUM_PEAK: 8
PK$PEAK: m/z int. rel.int.
  141.0708 803.8 9
  169.066 12790.5 158
  180.058 27122 336
  181.0659 12038.5 149
  185.0607 5290.3 65
  195.0451 60832.5 754
  197.0607 1342.1 16
  213.0557 80588.9 999
//
