ACCESSION: MSBNK-Eawag-EQ00348803
RECORD_TITLE: Isoxaflutole; LC-ESI-QFT; MS2; CE: 45%; R=15000; [M+H]+
DATE: 2024.06.14
AUTHORS: F. Jud [dtc], K. Arturi [dtc], J. Hollender [dtc], A. Dax [com]
LICENSE: CC BY-SA
COPYRIGHT: Copyright (C) Eawag 2024
COMMENT: CONFIDENCE standard compound
COMMENT: UCHEM_ID 3488
CH$NAME: Isoxaflutole
CH$NAME: (5-cyclopropyl-1,2-oxazol-4-yl)-[2-methylsulfonyl-4-(trifluoromethyl)phenyl]methanone
CH$COMPOUND_CLASS: N/A
CH$FORMULA: C15H12F3NO4S
CH$EXACT_MASS: 359.0439135
CH$SMILES: CS(=O)(=O)C1=C(C=CC(=C1)C(F)(F)F)C(=O)C1=C(ON=C1)C1CC1
CH$IUPAC: InChI=1S/C15H12F3NO4S/c1-24(21,22)12-6-9(15(16,17)18)4-5-10(12)13(20)11-7-19-23-14(11)8-2-3-8/h4-8H,2-3H2,1H3
CH$LINK: CAS 141112-29-0
CH$LINK: CHEBI CHEBI:141213
CH$LINK: PUBCHEM CID:84098
CH$LINK: INCHIKEY OYIKARCXOQLFHF-UHFFFAOYSA-N
CH$LINK: CHEMSPIDER 75869
AC$INSTRUMENT: Q Exactive Plus
AC$INSTRUMENT_TYPE: LC-ESI-QFT
AC$MASS_SPECTROMETRY: MS_TYPE MS2
AC$MASS_SPECTROMETRY: ION_MODE POSITIVE
AC$MASS_SPECTROMETRY: IONIZATION ESI
AC$MASS_SPECTROMETRY: FRAGMENTATION_MODE HCD
AC$MASS_SPECTROMETRY: COLLISION_ENERGY 45 % (nominal)
AC$MASS_SPECTROMETRY: RESOLUTION 15000
AC$MASS_SPECTROMETRY: MASS_RANGE_M/Z 50-385
AC$CHROMATOGRAPHY: COLUMN_NAME XBridge C18 3.5um, 2.1x50mm, Waters
AC$CHROMATOGRAPHY: FLOW_GRADIENT 90/10 at 0 min, 50/50 at 4 min, 5/95 at 17 min, 5/95 at 25 min, 90/10 at 25.1 min, 90/10 at 30 min
AC$CHROMATOGRAPHY: FLOW_RATE 200 uL/min
AC$CHROMATOGRAPHY: RETENTION_TIME 7.750 min
MS$FOCUSED_ION: BASE_PEAK 360.0514
MS$FOCUSED_ION: PRECURSOR_M/Z 360.0512
MS$FOCUSED_ION: PRECURSOR_TYPE [M+H]+
MS$FOCUSED_ION: PRECURSOR_INTENSITY 182019318.31
MS$DATA_PROCESSING: RECALIBRATE loess on assigned fragments and MS1
MS$DATA_PROCESSING: REANALYZE Peaks with additional N2/O included
MS$DATA_PROCESSING: WHOLE RMassBank 3.15.1.1
PK$SPLASH: splash10-0udi-0090000000-282a4f90e33f887a761e
PK$ANNOTATION: m/z tentative_formula formula_count mass error(ppm)
  69.0335 C4H5O+ 1 69.0335 -0.36
  159.0415 C8H6F3+ 1 159.0416 -0.57
  176.9979 C7H4F3S+ 3 176.998 -0.6
  189.0157 C8H4F3O2+ 1 189.0158 -0.59
  192.993 C7H4F3OS+ 3 192.9929 0.16
  219.98 C8H3F3O2S+ 2 219.98 0.05
  220.9878 C8H4F3O2S+ 3 220.9879 -0.27
  250.9983 C9H6F3O3S+ 3 250.9984 -0.35
PK$NUM_PEAK: 8
PK$PEAK: m/z int. rel.int.
  69.0335 798002.4 11
  159.0415 932598.6 12
  176.9979 736592.2 10
  189.0157 2363473.5 32
  192.993 1025628.9 14
  219.98 2630190.5 36
  220.9878 3311532 45
  250.9983 72150456 999
//
