ACCESSION: MSBNK-Eawag-EA023908
RECORD_TITLE: Diatrizoate; LC-ESI-ITFT; MS2; CE: 15%; R=15000; [M+H]+
DATE: 2014.01.14
AUTHORS: Stravs M, Schymanski E, Singer H, Department of Environmental Chemistry, Eawag
LICENSE: CC BY
COPYRIGHT: Copyright (C) 2012 Eawag, Duebendorf, Switzerland
COMMENT: CONFIDENCE standard compound
COMMENT: EAWAG_UCHEM_ID 239
CH$NAME: Diatrizoate
CH$NAME: Diatrizoic acid
CH$NAME: 3,5-diacetamido-2,4,6-triiodo-benzoic acid
CH$COMPOUND_CLASS: N/A; Environmental Standard
CH$FORMULA: C11H9I3N2O4
CH$EXACT_MASS: 613.7697
CH$SMILES: CC(=O)NC1=C(I)C(C(O)=O)=C(I)C(NC(C)=O)=C1I
CH$IUPAC: InChI=1S/C11H9I3N2O4/c1-3(17)15-9-6(12)5(11(19)20)7(13)10(8(9)14)16-4(2)18/h1-2H3,(H,15,17)(H,16,18)(H,19,20)
CH$LINK: CAS 117-96-4
CH$LINK: KEGG D02240
CH$LINK: PUBCHEM CID:2140
CH$LINK: INCHIKEY YVPYQUNUQOZFHG-UHFFFAOYSA-N
CH$LINK: CHEMSPIDER 2055
CH$LINK: COMPTOX DTXSID0044521
AC$INSTRUMENT: LTQ Orbitrap XL Thermo Scientific
AC$INSTRUMENT_TYPE: LC-ESI-ITFT
AC$MASS_SPECTROMETRY: MS_TYPE MS2
AC$MASS_SPECTROMETRY: ION_MODE POSITIVE
AC$MASS_SPECTROMETRY: IONIZATION ESI
AC$MASS_SPECTROMETRY: FRAGMENTATION_MODE HCD
AC$MASS_SPECTROMETRY: COLLISION_ENERGY 15 % (nominal)
AC$MASS_SPECTROMETRY: RESOLUTION 15000
AC$CHROMATOGRAPHY: COLUMN_NAME XBridge C18 3.5um, 2.1x50mm, Waters
AC$CHROMATOGRAPHY: FLOW_GRADIENT 90/10 at 0 min, 50/50 at 4 min, 5/95 at 17 min, 5/95 at 25 min, 90/10 at 25.1 min, 90/10 at 30 min
AC$CHROMATOGRAPHY: FLOW_RATE 200 ul/min
AC$CHROMATOGRAPHY: RETENTION_TIME 1.6 min
AC$CHROMATOGRAPHY: SOLVENT A water with 0.1% formic acid
AC$CHROMATOGRAPHY: SOLVENT B methanol with 0.1% formic acid
MS$FOCUSED_ION: BASE_PEAK 631.8031
MS$FOCUSED_ION: PRECURSOR_M/Z 614.7769
MS$FOCUSED_ION: PRECURSOR_TYPE [M+H]+
MS$DATA_PROCESSING: DEPROFILE Spline
MS$DATA_PROCESSING: RECALIBRATE loess on assigned fragments and MS1
MS$DATA_PROCESSING: REANALYZE Peaks with additional N2/O included
MS$DATA_PROCESSING: WHOLE RMassBank 1.3.1
PK$SPLASH: splash10-03di-0009000000-8d1e15522e91dc9d3243
PK$ANNOTATION: m/z tentative_formula formula_count mass error(ppm)
  233.0555 C11H9N2O4+ 1 233.0557 -0.66
  325.9538 C11H7IN2O2+ 1 325.9547 -2.81
  360.9678 C11H10IN2O4+ 1 360.968 -0.64
PK$NUM_PEAK: 3
PK$PEAK: m/z int. rel.int.
  233.0555 1626.1 3
  325.9538 2125.1 4
  360.9678 489236.3 999
//
