ACCESSION: MSBNK-Eawag-EQ328851
RECORD_TITLE: Penciclovir; LC-ESI-QFT; MS2; CE: 15; R=35000; [M-H]-
DATE: 2015.08.25
AUTHORS: Otto J, Stravs M, Schymanski E, Singer H, Department of Environmental Chemistry, Eawag
LICENSE: CC BY
COPYRIGHT: Copyright (C) 2015 Eawag, Duebendorf, Switzerland
COMMENT: CONFIDENCE standard compound
COMMENT: EAWAG_UCHEM_ID 3288
CH$NAME: Penciclovir
CH$NAME: 2-amino-9-[4-hydroxy-3-(hydroxymethyl)butyl]-3H-purin-6-one
CH$COMPOUND_CLASS: N/A; Environmental Standard
CH$FORMULA: C10H15N5O3
CH$EXACT_MASS: 253.11749
CH$SMILES: C1=NC2=C(N1CCC(CO)CO)N=C(NC2=O)N
CH$IUPAC: InChI=1S/C10H15N5O3/c11-10-13-8-7(9(18)14-10)12-5-15(8)2-1-6(3-16)4-17/h5-6,16-17H,1-4H2,(H3,11,13,14,18)
CH$LINK: CAS 39809-25-1
CH$LINK: CHEMSPIDER 4563
CH$LINK: COMPTOX DTXSID9046491
CH$LINK: INCHIKEY JNTOCHDNEULJHD-UHFFFAOYSA-N
CH$LINK: KEGG C07417
CH$LINK: PUBCHEM CID:135398748
AC$INSTRUMENT: Q Exactive Orbitrap Thermo Scientific
AC$INSTRUMENT_TYPE: LC-ESI-QFT
AC$MASS_SPECTROMETRY: MS_TYPE MS2
AC$MASS_SPECTROMETRY: ION_MODE NEGATIVE
AC$MASS_SPECTROMETRY: IONIZATION ESI
AC$MASS_SPECTROMETRY: FRAGMENTATION_MODE HCD
AC$MASS_SPECTROMETRY: COLLISION_ENERGY 15 (nominal)
AC$MASS_SPECTROMETRY: RESOLUTION 35000
AC$CHROMATOGRAPHY: COLUMN_NAME XBridge C18 3.5um, 2.1x50mm, Waters
AC$CHROMATOGRAPHY: FLOW_GRADIENT 90/10 at 0 min, 50/50 at 4 min, 5/95 at 17 min, 5/95 at 25 min, 90/10 at 25.1 min, 90/10 at 30 min
AC$CHROMATOGRAPHY: FLOW_RATE 200 ul/min
AC$CHROMATOGRAPHY: RETENTION_TIME 1.1 min
AC$CHROMATOGRAPHY: SOLVENT A water with 0.1% formic acid
AC$CHROMATOGRAPHY: SOLVENT B methanol with 0.1% formic acid
MS$FOCUSED_ION: BASE_PEAK 252.1103
MS$FOCUSED_ION: PRECURSOR_M/Z 252.1102
MS$FOCUSED_ION: PRECURSOR_TYPE [M-H]-
MS$DATA_PROCESSING: DEPROFILE vendor picking in Proteowizard
MS$DATA_PROCESSING: RECALIBRATE loess on assigned fragments and MS1
MS$DATA_PROCESSING: REANALYZE Peaks with additional N2/O included
MS$DATA_PROCESSING: WHOLE RMassBank 1.9.6
PK$SPLASH: splash10-0udi-0190000000-ed1701b795cb216e6d66
PK$ANNOTATION: m/z tentative_formula formula_count mass error(ppm)
  107.0364 C4H3N4- 1 107.0363 1.12
  108.0203 C4H2N3O- 1 108.0203 -0.33
  133.0156 C5HN4O- 1 133.0156 0.04
  149.0339 C5H3N5O- 1 149.0343 -2.61
  150.042 C5H4N5O- 1 150.0421 -0.62
  232.0843 C10H10N5O2- 1 232.084 1.26
  234.0992 C10H12N5O2- 1 234.0996 -2.09
  252.1102 C10H14N5O3- 1 252.1102 -0.25
PK$NUM_PEAK: 8
PK$PEAK: m/z int. rel.int.
  107.0364 31073.9 1
  108.0203 44796.2 1
  133.0156 140300.1 6
  149.0339 30875.1 1
  150.042 3244719.2 143
  232.0843 27497 1
  234.0992 52040.9 2
  252.1102 22612618 999
//
