ACCESSION: MSBNK-Eawag-EA265709
RECORD_TITLE: N,O-Didesmethylvenlafaxine; LC-ESI-ITFT; MS2; CE: 30%; R=15000; [M+H]+
DATE: 2014.01.14
AUTHORS: Stravs M, Schymanski E, Singer H, Department of Environmental Chemistry, Eawag
LICENSE: CC BY
COPYRIGHT: Copyright (C) 2012 Eawag, Duebendorf, Switzerland
COMMENT: CONFIDENCE standard compound
COMMENT: EAWAG_UCHEM_ID 2657
CH$NAME: N,O-Didesmethylvenlafaxine
CH$NAME: 4-[1-(1-Hydroxycyclohexyl)-2-(methylamino)ethyl]phenol
CH$COMPOUND_CLASS: N/A; Environmental Standard
CH$FORMULA: C15H23NO2
CH$EXACT_MASS: 249.1729
CH$SMILES: OC2(C(c1ccc(O)cc1)CNC)CCCCC2
CH$IUPAC: InChI=1S/C15H23NO2/c1-16-11-14(12-5-7-13(17)8-6-12)15(18)9-3-2-4-10-15/h5-8,14,16-18H,2-4,9-11H2,1H3
CH$LINK: CAS 135308-74-6
CH$LINK: PUBCHEM CID:3451347
CH$LINK: INCHIKEY MMSWXJSQCAEDLK-UHFFFAOYSA-N
CH$LINK: CHEMSPIDER 2693701
CH$LINK: COMPTOX DTXSID10891441
AC$INSTRUMENT: LTQ Orbitrap XL Thermo Scientific
AC$INSTRUMENT_TYPE: LC-ESI-ITFT
AC$MASS_SPECTROMETRY: MS_TYPE MS2
AC$MASS_SPECTROMETRY: ION_MODE POSITIVE
AC$MASS_SPECTROMETRY: IONIZATION ESI
AC$MASS_SPECTROMETRY: FRAGMENTATION_MODE HCD
AC$MASS_SPECTROMETRY: COLLISION_ENERGY 30 % (nominal)
AC$MASS_SPECTROMETRY: RESOLUTION 15000
AC$CHROMATOGRAPHY: COLUMN_NAME XBridge C18 3.5um, 2.1x50mm, Waters
AC$CHROMATOGRAPHY: FLOW_GRADIENT 90/10 at 0 min, 50/50 at 4 min, 5/95 at 17 min, 5/95 at 25 min, 90/10 at 25.1 min, 90/10 at 30 min
AC$CHROMATOGRAPHY: FLOW_RATE 200 ul/min
AC$CHROMATOGRAPHY: RETENTION_TIME 4.9 min
AC$CHROMATOGRAPHY: SOLVENT A water with 0.1% formic acid
AC$CHROMATOGRAPHY: SOLVENT B methanol with 0.1% formic acid
MS$FOCUSED_ION: BASE_PEAK 250.1809
MS$FOCUSED_ION: PRECURSOR_M/Z 250.1802
MS$FOCUSED_ION: PRECURSOR_TYPE [M+H]+
MS$DATA_PROCESSING: DEPROFILE Spline
MS$DATA_PROCESSING: RECALIBRATE loess on assigned fragments and MS1
MS$DATA_PROCESSING: REANALYZE Peaks with additional N2/O included
MS$DATA_PROCESSING: WHOLE RMassBank 1.3.1
PK$SPLASH: splash10-0ue9-0190000000-fd853c2050c38ad4402e
PK$ANNOTATION: m/z tentative_formula formula_count mass error(ppm)
  81.07 C6H9+ 1 81.0699 2.01
  107.0491 C7H7O+ 1 107.0491 -0.39
  133.0648 C9H9O+ 1 133.0648 0.22
  145.0646 C10H9O+ 1 145.0648 -1.53
  159.0805 C11H11O+ 1 159.0804 0.49
  173.0964 C12H13O+ 1 173.0961 1.72
  201.1274 C14H17O+ 1 201.1274 0.14
  232.1696 C15H22NO+ 1 232.1696 0.21
  250.1805 C15H24NO2+ 1 250.1802 1.54
PK$NUM_PEAK: 9
PK$PEAK: m/z int. rel.int.
  81.07 4935.9 6
  107.0491 63776.8 85
  133.0648 84075 112
  145.0646 15320.8 20
  159.0805 16095 21
  173.0964 13072.8 17
  201.1274 374516.4 502
  232.1696 745234 999
  250.1805 516020.8 691
//
