ACCESSION: MSBNK-Eawag-EA013306
RECORD_TITLE: Prometryn; LC-ESI-ITFT; MS2; CE: 75%; R=7500; [M+H]+
DATE: 2014.01.14
AUTHORS: Stravs M, Schymanski E, Singer H, Department of Environmental Chemistry, Eawag
LICENSE: CC BY
COPYRIGHT: Copyright (C) 2012 Eawag, Duebendorf, Switzerland
COMMENT: CONFIDENCE standard compound
COMMENT: EAWAG_UCHEM_ID 133
CH$NAME: Prometryn
CH$NAME: 6-(methylthio)-N2,N4-di(propan-2-yl)-1,3,5-triazine-2,4-diamine
CH$COMPOUND_CLASS: N/A; Environmental Standard
CH$FORMULA: C10H19N5S
CH$EXACT_MASS: 241.1356
CH$SMILES: c1(nc(NC(C)C)nc(n1)SC)NC(C)C
CH$IUPAC: InChI=1S/C10H19N5S/c1-6(2)11-8-13-9(12-7(3)4)15-10(14-8)16-5/h6-7H,1-5H3,(H2,11,12,13,14,15)
CH$LINK: CAS 7287-19-6
CH$LINK: CHEBI CHEBI:26276
CH$LINK: PUBCHEM CID:4929
CH$LINK: INCHIKEY AAEVYOVXGOFMJO-UHFFFAOYSA-N
CH$LINK: CHEMSPIDER 4760
CH$LINK: COMPTOX DTXSID4024272
AC$INSTRUMENT: LTQ Orbitrap XL Thermo Scientific
AC$INSTRUMENT_TYPE: LC-ESI-ITFT
AC$MASS_SPECTROMETRY: MS_TYPE MS2
AC$MASS_SPECTROMETRY: ION_MODE POSITIVE
AC$MASS_SPECTROMETRY: IONIZATION ESI
AC$MASS_SPECTROMETRY: FRAGMENTATION_MODE HCD
AC$MASS_SPECTROMETRY: COLLISION_ENERGY 75 % (nominal)
AC$MASS_SPECTROMETRY: RESOLUTION 7500
AC$CHROMATOGRAPHY: COLUMN_NAME XBridge C18 3.5um, 2.1x50mm, Waters
AC$CHROMATOGRAPHY: FLOW_GRADIENT 90/10 at 0 min, 50/50 at 4 min, 5/95 at 17 min, 5/95 at 25 min, 90/10 at 25.1 min, 90/10 at 30 min
AC$CHROMATOGRAPHY: FLOW_RATE 200 ul/min
AC$CHROMATOGRAPHY: RETENTION_TIME 8.5 min
AC$CHROMATOGRAPHY: SOLVENT A water with 0.1% formic acid
AC$CHROMATOGRAPHY: SOLVENT B methanol with 0.1% formic acid
MS$FOCUSED_ION: BASE_PEAK 242.1438
MS$FOCUSED_ION: PRECURSOR_M/Z 242.1434
MS$FOCUSED_ION: PRECURSOR_TYPE [M+H]+
MS$DATA_PROCESSING: DEPROFILE Spline
MS$DATA_PROCESSING: RECALIBRATE loess on assigned fragments and MS1
MS$DATA_PROCESSING: REANALYZE Peaks with additional N2/O included
MS$DATA_PROCESSING: WHOLE RMassBank 1.3.1
PK$SPLASH: splash10-0aor-3900000000-b8959ab55bd6c93ff4f3
PK$ANNOTATION: m/z tentative_formula formula_count mass error(ppm)
  68.0244 C2H2N3+ 1 68.0243 0.83
  74.0059 C2H4NS+ 1 74.0059 0.59
  85.051 C2H5N4+ 1 85.0509 1.03
  91.0325 C2H7N2S+ 1 91.0324 0.93
  110.0462 C3H4N5+ 1 110.0461 0.89
  110.0713 C5H8N3+ 1 110.0713 -0.12
  116.0278 C3H6N3S+ 1 116.0277 1.17
  127.0979 C5H11N4+ 1 127.0978 0.84
  128.0565 C3H6N5O+ 1 128.0567 -1.45
  143.0262 C3H5N5S+ 1 143.026 1.35
  152.0933 C6H10N5+ 1 152.0931 1.57
  158.0497 C4H8N5S+ 1 158.0495 1.19
  200.0968 C7H14N5S+ 1 200.0964 1.63
  242.1422 C10H20N5S+ 1 242.1434 -4.72
PK$NUM_PEAK: 14
PK$PEAK: m/z int. rel.int.
  68.0244 2532319.1 288
  74.0059 421128.6 48
  85.051 1346847.5 153
  91.0325 531052 60
  110.0462 608909.4 69
  110.0713 47837.2 5
  116.0278 1947674 222
  127.0979 47426.1 5
  128.0565 60431.5 6
  143.0262 31895 3
  152.0933 65454.5 7
  158.0497 8754968.2 999
  200.0968 787459.4 89
  242.1422 40004.2 4
//
