ACCESSION: MSBNK-Eawag-EQ00352603
RECORD_TITLE: Hexaflumuron; LC-ESI-QFT; MS2; CE: 45%; R=15000; [M+H]+
DATE: 2024.06.14
AUTHORS: F. Jud [dtc], K. Arturi [dtc], J. Hollender [dtc], A. Dax [com]
LICENSE: CC BY-SA
COPYRIGHT: Copyright (C) Eawag 2024
COMMENT: CONFIDENCE standard compound
COMMENT: UCHEM_ID 3526
CH$NAME: Hexaflumuron
CH$NAME: N-[[3,5-dichloro-4-(1,1,2,2-tetrafluoroethoxy)phenyl]carbamoyl]-2,6-difluorobenzamide
CH$COMPOUND_CLASS: N/A
CH$FORMULA: C16H8Cl2F6N2O3
CH$EXACT_MASS: 459.9816168
CH$SMILES: C1=CC(=C(C(=C1)F)C(=O)NC(=O)NC2=CC(=C(C(=C2)Cl)OC(C(F)F)(F)F)Cl)F
CH$IUPAC: InChI=1S/C16H8Cl2F6N2O3/c17-7-4-6(5-8(18)12(7)29-16(23,24)14(21)22)25-15(28)26-13(27)11-9(19)2-1-3-10(11)20/h1-5,14H,(H2,25,26,27,28)
CH$LINK: CAS 92756-01-9
CH$LINK: CHEBI CHEBI:39383
CH$LINK: KEGG C18861
CH$LINK: PUBCHEM CID:91741
CH$LINK: INCHIKEY RGNPBRKPHBKNKX-UHFFFAOYSA-N
CH$LINK: CHEMSPIDER 82839
AC$INSTRUMENT: Q Exactive Plus
AC$INSTRUMENT_TYPE: LC-ESI-QFT
AC$MASS_SPECTROMETRY: MS_TYPE MS2
AC$MASS_SPECTROMETRY: ION_MODE POSITIVE
AC$MASS_SPECTROMETRY: IONIZATION ESI
AC$MASS_SPECTROMETRY: FRAGMENTATION_MODE HCD
AC$MASS_SPECTROMETRY: COLLISION_ENERGY 45 % (nominal)
AC$MASS_SPECTROMETRY: RESOLUTION 15000
AC$MASS_SPECTROMETRY: MASS_RANGE_M/Z 50-490
AC$CHROMATOGRAPHY: COLUMN_NAME XBridge C18 3.5um, 2.1x50mm, Waters
AC$CHROMATOGRAPHY: FLOW_GRADIENT 90/10 at 0 min, 50/50 at 4 min, 5/95 at 17 min, 5/95 at 25 min, 90/10 at 25.1 min, 90/10 at 30 min
AC$CHROMATOGRAPHY: FLOW_RATE 200 uL/min
AC$CHROMATOGRAPHY: RETENTION_TIME 13.338 min
MS$FOCUSED_ION: BASE_PEAK 164.9845
MS$FOCUSED_ION: PRECURSOR_M/Z 460.9889
MS$FOCUSED_ION: PRECURSOR_TYPE [M+H]+
MS$FOCUSED_ION: PRECURSOR_INTENSITY 5320153.06
MS$DATA_PROCESSING: RECALIBRATE loess on assigned fragments and MS1
MS$DATA_PROCESSING: REANALYZE Peaks with additional N2/O included
MS$DATA_PROCESSING: WHOLE RMassBank 3.15.1.1
PK$SPLASH: splash10-052f-0900000000-3bd234e9e29664843623
PK$ANNOTATION: m/z tentative_formula formula_count mass error(ppm)
  140.0305 C7H4F2N+ 1 140.0306 -0.87
  141.0145 C7H3F2O+ 2 141.0146 -1.02
  158.041 C7H6F2NO+ 2 158.0412 -1.24
  277.9755 C8H6Cl2F4NO+ 6 277.9757 -0.78
PK$NUM_PEAK: 4
PK$PEAK: m/z int. rel.int.
  140.0305 50257 21
  141.0145 2334926.5 999
  158.041 1658895.5 709
  277.9755 34522.3 14
//
