ACCESSION: MSBNK-Eawag-EQ01143558
RECORD_TITLE: PFEtS; LC-ESI-QFT; MS2; CE: 150%; R=17500; [M-H]-
DATE: 2024.05.15
AUTHORS: B. Beck [dtc,com], J. Hollender [dtc]
LICENSE: CC BY-SA
COPYRIGHT: Copyright (C) Eawag 2023
COMMENT: CONFIDENCE standard compound
COMMENT: UCHEM_ID 11435
CH$NAME: PFEtS
CH$NAME: Pentafluoroethanesulfonic acid
CH$NAME: 1,1,2,2,2-pentafluoroethanesulfonic acid
CH$COMPOUND_CLASS: N/A; Environmental Standard
CH$FORMULA: C2HF5O3S
CH$EXACT_MASS: 199.956655992
CH$SMILES: C(C(F)(F)S(=O)(=O)O)(F)(F)F
CH$IUPAC: InChI=1S/C2HF5O3S/c3-1(4,5)2(6,7)11(8,9)10/h(H,8,9,10)
CH$LINK: PUBCHEM CID:10219841
CH$LINK: INCHIKEY GKNWQHIXXANPTN-UHFFFAOYSA-N
CH$LINK: CHEMSPIDER 8395333
AC$INSTRUMENT: Exploris 240 Orbitrap Thermo Scientific
AC$INSTRUMENT_TYPE: LC-ESI-QFT
AC$MASS_SPECTROMETRY: MS_TYPE MS2
AC$MASS_SPECTROMETRY: ION_MODE NEGATIVE
AC$MASS_SPECTROMETRY: IONIZATION ESI
AC$MASS_SPECTROMETRY: FRAGMENTATION_MODE HCD
AC$MASS_SPECTROMETRY: COLLISION_ENERGY 150 % (nominal)
AC$MASS_SPECTROMETRY: RESOLUTION 17500
AC$MASS_SPECTROMETRY: MASS_RANGE_M/Z 44-224
AC$CHROMATOGRAPHY: COLUMN_NAME XBridge C18 3.5um, 2.1x50mm, Waters
AC$CHROMATOGRAPHY: FLOW_GRADIENT 90/10 at 0 min, 50/50 at 4 min, 5/95 at 17 min, 5/95 at 25 min, 90/10 at 25.1 min, 90/10 at 30 min
AC$CHROMATOGRAPHY: FLOW_RATE 200 uL/min
AC$CHROMATOGRAPHY: RETENTION_TIME 2.768 min
MS$FOCUSED_ION: BASE_PEAK 198.9493
MS$FOCUSED_ION: PRECURSOR_M/Z 198.9494
MS$FOCUSED_ION: PRECURSOR_TYPE [M-H]-
MS$DATA_PROCESSING: RECALIBRATE loess on assigned fragments and MS1
MS$DATA_PROCESSING: REANALYZE Peaks with additional N2/O included
MS$DATA_PROCESSING: WHOLE RMassBank 3.15.1.1
PK$SPLASH: splash10-004i-9000000000-9af96dfd9910a311ae2e
PK$ANNOTATION: m/z tentative_formula formula_count mass error(ppm)
  68.9958 CF3- 1 68.9958 0.38
  79.9574 O3S- 1 79.9574 -0.14
  98.9558 FO3S- 1 98.9558 0.15
PK$NUM_PEAK: 3
PK$PEAK: m/z int. rel.int.
  68.9958 50542 18
  79.9574 2720351.5 999
  98.9558 162646.7 59
//
