ACCESSION: MSBNK-Eawag-EA012914
RECORD_TITLE: Nicosulfuron; LC-ESI-ITFT; MS2; CE: 35%; R=30000; [M+H]+
DATE: 2014.01.14
AUTHORS: Stravs M, Schymanski E, Singer H, Department of Environmental Chemistry, Eawag
LICENSE: CC BY
COPYRIGHT: Copyright (C) 2012 Eawag, Duebendorf, Switzerland
COMMENT: CONFIDENCE standard compound
COMMENT: EAWAG_UCHEM_ID 129
CH$NAME: Nicosulfuron
CH$NAME: 2-[(4,6-dimethoxypyrimidin-2-yl)carbamoylsulfamoyl]-N,N-dimethyl-nicotinamide
CH$COMPOUND_CLASS: N/A; Environmental Standard
CH$FORMULA: C15H18N6O6S
CH$EXACT_MASS: 410.1009
CH$SMILES: O=C(Nc1nc(cc(OC)n1)OC)NS(=O)(=O)c2ncccc2C(=O)N(C)C
CH$IUPAC: InChI=1S/C15H18N6O6S/c1-21(2)13(22)9-6-5-7-16-12(9)28(24,25)20-15(23)19-14-17-10(26-3)8-11(18-14)27-4/h5-8H,1-4H3,(H2,17,18,19,20,23)
CH$LINK: CAS 111991-09-4
CH$LINK: KEGG C10949
CH$LINK: PUBCHEM CID:73281
CH$LINK: INCHIKEY RTCOGUMHFFWOJV-UHFFFAOYSA-N
CH$LINK: CHEMSPIDER 66024
CH$LINK: COMPTOX DTXSID6034764
AC$INSTRUMENT: LTQ Orbitrap XL Thermo Scientific
AC$INSTRUMENT_TYPE: LC-ESI-ITFT
AC$MASS_SPECTROMETRY: MS_TYPE MS2
AC$MASS_SPECTROMETRY: ION_MODE POSITIVE
AC$MASS_SPECTROMETRY: IONIZATION ESI
AC$MASS_SPECTROMETRY: FRAGMENTATION_MODE CID
AC$MASS_SPECTROMETRY: COLLISION_ENERGY 35 % (nominal)
AC$MASS_SPECTROMETRY: RESOLUTION 30000
AC$CHROMATOGRAPHY: COLUMN_NAME XBridge C18 3.5um, 2.1x50mm, Waters
AC$CHROMATOGRAPHY: FLOW_GRADIENT 90/10 at 0 min, 50/50 at 4 min, 5/95 at 17 min, 5/95 at 25 min, 90/10 at 25.1 min, 90/10 at 30 min
AC$CHROMATOGRAPHY: FLOW_RATE 200 ul/min
AC$CHROMATOGRAPHY: RETENTION_TIME 7.1 min
AC$CHROMATOGRAPHY: SOLVENT A water with 0.1% formic acid
AC$CHROMATOGRAPHY: SOLVENT B methanol with 0.1% formic acid
MS$FOCUSED_ION: BASE_PEAK 433.0908
MS$FOCUSED_ION: PRECURSOR_M/Z 411.1081
MS$FOCUSED_ION: PRECURSOR_TYPE [M+H]+
MS$DATA_PROCESSING: DEPROFILE Spline
MS$DATA_PROCESSING: RECALIBRATE loess on assigned fragments and MS1
MS$DATA_PROCESSING: REANALYZE Peaks with additional N2/O included
MS$DATA_PROCESSING: WHOLE RMassBank 1.3.1
PK$SPLASH: splash10-02u0-0469000000-1bf7bd8ff1b3849ecb2c
PK$ANNOTATION: m/z tentative_formula formula_count mass error(ppm)
  106.0287 C6H4NO+ 1 106.0287 -0.38
  182.0558 C7H8N3O3+ 2 182.056 -0.98
  213.0326 C8H9N2O3S+ 2 213.0328 -1.22
  259.0819 C4H15N6O5S+ 2 259.0819 0.1
  304.1401 C14H18N5O3+ 1 304.1404 -1.01
  366.0499 C13H12N5O6S+ 1 366.0503 -1.07
PK$NUM_PEAK: 6
PK$PEAK: m/z int. rel.int.
  106.0287 1590 20
  182.0558 41719.7 548
  213.0326 52509.9 690
  259.0819 2744.8 36
  304.1401 6228.8 81
  366.0499 75929.2 999
//
