ACCESSION: MSBNK-Eawag-EA065207
RECORD_TITLE: Sulfanilic acid; LC-ESI-ITFT; MS2; CE: 90%; R=7500; [M+H]+
DATE: 2014.01.14
AUTHORS: Stravs M, Schymanski E, Singer H, Department of Environmental Chemistry, Eawag
LICENSE: CC BY
COPYRIGHT: Copyright (C) 2012 Eawag, Duebendorf, Switzerland
COMMENT: CONFIDENCE standard compound
COMMENT: EAWAG_UCHEM_ID 652
CH$NAME: Sulfanilic acid
CH$NAME: 4-aminobenzenesulfonic acid
CH$COMPOUND_CLASS: N/A; Environmental Standard
CH$FORMULA: C6H7NO3S
CH$EXACT_MASS: 173.0147
CH$SMILES: S(c1ccc(N)cc1)(O)(=O)=O
CH$IUPAC: InChI=1S/C6H7NO3S/c7-5-1-3-6(4-2-5)11(8,9)10/h1-4H,7H2,(H,8,9,10)
CH$LINK: CAS 121-57-3
CH$LINK: CHEBI CHEBI:27500
CH$LINK: KEGG C06335
CH$LINK: PUBCHEM CID:8479
CH$LINK: INCHIKEY HVBSAKJJOYLTQU-UHFFFAOYSA-N
CH$LINK: CHEMSPIDER 8166
CH$LINK: COMPTOX DTXSID6024464
AC$INSTRUMENT: LTQ Orbitrap XL Thermo Scientific
AC$INSTRUMENT_TYPE: LC-ESI-ITFT
AC$MASS_SPECTROMETRY: MS_TYPE MS2
AC$MASS_SPECTROMETRY: ION_MODE POSITIVE
AC$MASS_SPECTROMETRY: IONIZATION ESI
AC$MASS_SPECTROMETRY: FRAGMENTATION_MODE HCD
AC$MASS_SPECTROMETRY: COLLISION_ENERGY 90 % (nominal)
AC$MASS_SPECTROMETRY: RESOLUTION 7500
AC$CHROMATOGRAPHY: COLUMN_NAME XBridge C18 3.5um, 2.1x50mm, Waters
AC$CHROMATOGRAPHY: FLOW_GRADIENT 90/10 at 0 min, 50/50 at 4 min, 5/95 at 17 min, 5/95 at 25 min, 90/10 at 25.1 min, 90/10 at 30 min
AC$CHROMATOGRAPHY: FLOW_RATE 200 ul/min
AC$CHROMATOGRAPHY: RETENTION_TIME 0.9 min
AC$CHROMATOGRAPHY: SOLVENT A water with 0.1% formic acid
AC$CHROMATOGRAPHY: SOLVENT B methanol with 0.1% formic acid
MS$FOCUSED_ION: BASE_PEAK 174.0217
MS$FOCUSED_ION: PRECURSOR_M/Z 174.0219
MS$FOCUSED_ION: PRECURSOR_TYPE [M+H]+
MS$DATA_PROCESSING: DEPROFILE Spline
MS$DATA_PROCESSING: RECALIBRATE loess on assigned fragments and MS1
MS$DATA_PROCESSING: REANALYZE Peaks with additional N2/O included
MS$DATA_PROCESSING: WHOLE RMassBank 1.3.1
PK$SPLASH: splash10-0006-9000000000-dc673cf8a75b8a6c95f0
PK$ANNOTATION: m/z tentative_formula formula_count mass error(ppm)
  65.0386 C5H5+ 1 65.0386 0.21
  66.0464 C5H6+ 1 66.0464 -0.18
  68.0493 C4H6N+ 1 68.0495 -2.29
  75.0228 C6H3+ 1 75.0229 -1.69
  76.0308 C6H4+ 1 76.0308 0.24
  80.0495 C5H6N+ 1 80.0495 0.05
  81.0337 C5H5O+ 1 81.0335 3.19
  92.0495 C6H6N+ 1 92.0495 0.7
  93.0573 C6H7N+ 1 93.0573 0.42
  94.065 C6H8N+ 1 94.0651 -1.02
  108.0444 C6H6NO+ 1 108.0444 0.28
  109.0286 C6H5O2+ 1 109.0284 1.78
  109.052 C6H7NO+ 1 109.0522 -2.25
  110.0601 C6H8NO+ 1 110.06 0.72
  125.0472 C6H7NO2+ 1 125.0471 0.16
  174.0218 C6H8NO3S+ 1 174.0219 -0.92
PK$NUM_PEAK: 16
PK$PEAK: m/z int. rel.int.
  65.0386 142460.4 94
  66.0464 29148.3 19
  68.0493 4855.5 3
  75.0228 2765.5 1
  76.0308 3872.3 2
  80.0495 22750.7 15
  81.0337 5849 3
  92.0495 171331.8 114
  93.0573 1498993.6 999
  94.065 3286.3 2
  108.0444 87786.2 58
  109.0286 7711.9 5
  109.052 3826.2 2
  110.0601 21547.2 14
  125.0472 76278.2 50
  174.0218 12292.5 8
//
