ACCESSION: MSBNK-Eawag-EA294101
RECORD_TITLE: Thiamethoxam; LC-ESI-ITFT; MS2; CE: 35%; R=7500; [M+H]+
DATE: 2014.01.14
AUTHORS: Stravs M, Schymanski E, Singer H, Department of Environmental Chemistry, Eawag
LICENSE: CC BY
COPYRIGHT: Copyright (C) 2012 Eawag, Duebendorf, Switzerland
COMMENT: CONFIDENCE standard compound
COMMENT: EAWAG_UCHEM_ID 2941
CH$NAME: Thiamethoxam
CH$NAME: 3-((2-Chloro-5-thiazolyl)methyl)tetrahydro-5-methyl-N-nitro-4H-1,3,5-oxadiazin-4-imine
CH$COMPOUND_CLASS: N/A; Environmental Standard
CH$FORMULA: C8H10ClN5O3S
CH$EXACT_MASS: 291.0193
CH$SMILES: Clc1ncc(s1)CN2\C(=N\[N+]([O-])=O)N(C)COC2
CH$IUPAC: InChI=1S/C8H10ClN5O3S/c1-12-4-17-5-13(8(12)11-14(15)16)3-6-2-10-7(9)18-6/h2H,3-5H2,1H3/b11-8+
CH$LINK: CAS 153719-23-4
CH$LINK: CHEBI CHEBI:39186
CH$LINK: PUBCHEM CID:107646
CH$LINK: INCHIKEY NWWZPOKUUAIXIW-DHZHZOJOSA-N
CH$LINK: CHEMSPIDER 96828
AC$INSTRUMENT: LTQ Orbitrap XL Thermo Scientific
AC$INSTRUMENT_TYPE: LC-ESI-ITFT
AC$MASS_SPECTROMETRY: MS_TYPE MS2
AC$MASS_SPECTROMETRY: ION_MODE POSITIVE
AC$MASS_SPECTROMETRY: IONIZATION ESI
AC$MASS_SPECTROMETRY: FRAGMENTATION_MODE CID
AC$MASS_SPECTROMETRY: COLLISION_ENERGY 35 % (nominal)
AC$MASS_SPECTROMETRY: RESOLUTION 7500
AC$CHROMATOGRAPHY: COLUMN_NAME XBridge C18 3.5um, 2.1x50mm, Waters
AC$CHROMATOGRAPHY: FLOW_GRADIENT 90/10 at 0 min, 50/50 at 4 min, 5/95 at 17 min, 5/95 at 25 min, 90/10 at 25.1 min, 90/10 at 30 min
AC$CHROMATOGRAPHY: FLOW_RATE 200 ul/min
AC$CHROMATOGRAPHY: RETENTION_TIME 4.1 min
AC$CHROMATOGRAPHY: SOLVENT A water with 0.1% formic acid
AC$CHROMATOGRAPHY: SOLVENT B methanol with 0.1% formic acid
MS$FOCUSED_ION: BASE_PEAK 292.0274
MS$FOCUSED_ION: PRECURSOR_M/Z 292.0266
MS$FOCUSED_ION: PRECURSOR_TYPE [M+H]+
MS$DATA_PROCESSING: DEPROFILE Spline
MS$DATA_PROCESSING: RECALIBRATE loess on assigned fragments and MS1
MS$DATA_PROCESSING: REANALYZE Peaks with additional N2/O included
MS$DATA_PROCESSING: WHOLE RMassBank 1.3.1
PK$SPLASH: splash10-03di-0090000000-56f99a0896cf1280c3d8
PK$ANNOTATION: m/z tentative_formula formula_count mass error(ppm)
  131.9668 C4H3ClNS+ 2 131.9669 -0.56
  160.9942 C5H6ClN2S+ 1 160.9935 4.76
  174.9729 C5H4ClN2OS+ 2 174.9727 0.7
  179.0383 C7H7N4S+ 1 179.0386 -1.75
  180.0464 C7H8N4S+ 1 180.0464 0.01
  181.0539 C7H9N4S+ 1 181.0542 -1.62
  182.0616 C7H10N4S+ 1 182.0621 -2.35
  210.0571 C8H10N4OS+ 1 210.057 0.75
  211.0647 C8H11N4OS+ 1 211.0648 -0.7
  227.0595 C8H11N4O2S+ 1 227.0597 -1.11
  245.0257 C8H10ClN4OS+ 1 245.0258 -0.51
  246.0337 C8H11ClN4OS+ 1 246.0337 0.08
  248.0254 C8H11ClN3O2S+ 1 248.0255 -0.33
  262.0288 C8H11ClN4O2S+ 1 262.0286 0.74
PK$NUM_PEAK: 14
PK$PEAK: m/z int. rel.int.
  131.9668 204000.6 17
  160.9942 11786.6 1
  174.9729 27300.8 2
  179.0383 17626.7 1
  180.0464 64848.1 5
  181.0539 33182.4 2
  182.0616 19785.4 1
  210.0571 3575501 305
  211.0647 11678061 999
  227.0595 46576.4 3
  245.0257 520269.6 44
  246.0337 1378533.6 117
  248.0254 422050.5 36
  262.0288 59245.1 5
//
