ACCESSION: MSBNK-Eawag-EQ356603
RECORD_TITLE: Haloperidol; LC-ESI-QFT; MS2; CE: 45; R=35000; [M+H]+
DATE: 2015.08.25
AUTHORS: Beck B, Stravs M, Schymanski E, Singer H, Department of Environmental Chemistry, Eawag
LICENSE: CC BY
COPYRIGHT: Copyright (C) 2015 Eawag, Duebendorf, Switzerland
COMMENT: CONFIDENCE standard compound
COMMENT: EAWAG_UCHEM_ID 3566
CH$NAME: Haloperidol
CH$NAME: 4-[4-(4-chlorophenyl)-4-hydroxypiperidin-1-yl]-1-(4-fluorophenyl)butan-1-one
CH$COMPOUND_CLASS: N/A; Environmental Standard
CH$FORMULA: C21H23ClFNO2
CH$EXACT_MASS: 375.14013
CH$SMILES: C1CN(CCC1(C2=CC=C(C=C2)Cl)O)CCCC(=O)C3=CC=C(C=C3)F
CH$IUPAC: InChI=1S/C21H23ClFNO2/c22-18-7-5-17(6-8-18)21(26)11-14-24(15-12-21)13-1-2-20(25)16-3-9-19(23)10-4-16/h3-10,26H,1-2,11-15H2
CH$LINK: CAS 52-86-8
CH$LINK: CHEBI CHEBI:5613
CH$LINK: KEGG C01814
CH$LINK: PUBCHEM CID:3559
CH$LINK: INCHIKEY LNEPOXFFQSENCJ-UHFFFAOYSA-N
CH$LINK: CHEMSPIDER 3438
CH$LINK: COMPTOX DTXSID4034150
AC$INSTRUMENT: Q Exactive Plus Orbitrap Thermo Scientific
AC$INSTRUMENT_TYPE: LC-ESI-QFT
AC$MASS_SPECTROMETRY: MS_TYPE MS2
AC$MASS_SPECTROMETRY: ION_MODE POSITIVE
AC$MASS_SPECTROMETRY: IONIZATION ESI
AC$MASS_SPECTROMETRY: FRAGMENTATION_MODE HCD
AC$MASS_SPECTROMETRY: COLLISION_ENERGY 45 (nominal)
AC$MASS_SPECTROMETRY: RESOLUTION 35000
AC$CHROMATOGRAPHY: COLUMN_NAME XBridge C18 3.5um, 2.1x50mm, Waters
AC$CHROMATOGRAPHY: FLOW_GRADIENT 90/10 at 0 min, 50/50 at 4 min, 5/95 at 17 min, 5/95 at 25 min, 90/10 at 25.1 min, 90/10 at 30 min
AC$CHROMATOGRAPHY: FLOW_RATE 200 ul/min
AC$CHROMATOGRAPHY: RETENTION_TIME 6.8 min
AC$CHROMATOGRAPHY: SOLVENT A water with 0.1% formic acid
AC$CHROMATOGRAPHY: SOLVENT B methanol with 0.1% formic acid
MS$FOCUSED_ION: BASE_PEAK 376.1475
MS$FOCUSED_ION: PRECURSOR_M/Z 376.1474
MS$FOCUSED_ION: PRECURSOR_TYPE [M+H]+
MS$DATA_PROCESSING: RECALIBRATE loess on assigned fragments and MS1
MS$DATA_PROCESSING: REANALYZE Peaks with additional N2/O included
MS$DATA_PROCESSING: WHOLE RMassBank 1.9.6
PK$SPLASH: splash10-01b9-0900000000-571a03ebb5faa3e5cd63
PK$ANNOTATION: m/z tentative_formula formula_count mass error(ppm)
  56.0495 C3H6N+ 1 56.0495 0.44
  75.0226 C6H3+ 1 75.0229 -4.89
  95.0289 C6H4F+ 1 95.0292 -3.21
  109.0448 C7H6F+ 1 109.0448 0.14
  113.0397 C6H6FO+ 2 113.0397 -0.26
  123.0241 C7H4FO+ 2 123.0241 0
  135.0604 C9H8F+ 1 135.0605 -0.55
  147.0603 C10H8F+ 1 147.0605 -0.71
  163.0554 C10H8FO+ 2 163.0554 0.37
  165.0711 C10H10FO+ 2 165.071 0.31
  194.0733 C11H13ClN+ 3 194.0731 0.81
  194.0977 C11H13FNO+ 1 194.0976 0.68
  196.0888 C11H15ClN+ 3 196.0888 0.19
  206.0977 C12H13FNO+ 1 206.0976 0.73
  358.1371 C21H22ClFNO+ 1 358.1368 0.71
  376.1478 C21H24ClFNO2+ 1 376.1474 1.01
PK$NUM_PEAK: 16
PK$PEAK: m/z int. rel.int.
  56.0495 1394662.1 2
  75.0226 613264.6 1
  95.0289 2500518.8 4
  109.0448 2840180.8 5
  113.0397 602271.2 1
  123.0241 307368576 605
  135.0604 1416728.8 2
  147.0603 1618632.6 3
  163.0554 3811797.5 7
  165.0711 506841664 999
  194.0733 3335586 6
  194.0977 2210561 4
  196.0888 1044218.9 2
  206.0977 7758101 15
  358.1371 12784845 25
  376.1478 1910966.5 3
//
