ACCESSION: MSBNK-Eawag-EQ025603
RECORD_TITLE: Hexazinone; LC-ESI-QFT; MS2; CE: 45; R=35000; [M+H]+
DATE: 2015.08.25
AUTHORS: Beck B, Stravs M, Schymanski E, Singer H, Department of Environmental Chemistry, Eawag
LICENSE: CC BY
COPYRIGHT: Copyright (C) 2015 Eawag, Duebendorf, Switzerland
COMMENT: CONFIDENCE standard compound
COMMENT: EAWAG_UCHEM_ID 256
CH$NAME: Hexazinone
CH$NAME: 3-cyclohexyl-6-(dimethylamino)-1-methyl-1,3,5-triazine-2,4-dione
CH$COMPOUND_CLASS: N/A; Environmental Standard
CH$FORMULA: C12H20N4O2
CH$EXACT_MASS: 252.15810
CH$SMILES: n1(C2CCCCC2)c(n(c(N(C)C)nc1=O)C)=O
CH$IUPAC: InChI=1S/C12H20N4O2/c1-14(2)10-13-11(17)16(12(18)15(10)3)9-7-5-4-6-8-9/h9H,4-8H2,1-3H3
CH$LINK: CAS 51235-04-2
CH$LINK: KEGG C10926
CH$LINK: PUBCHEM CID:39965
CH$LINK: INCHIKEY CAWXEEYDBZRFPE-UHFFFAOYSA-N
CH$LINK: CHEMSPIDER 36542
CH$LINK: COMPTOX DTXSID4024145
AC$INSTRUMENT: Q Exactive Plus Orbitrap Thermo Scientific
AC$INSTRUMENT_TYPE: LC-ESI-QFT
AC$MASS_SPECTROMETRY: MS_TYPE MS2
AC$MASS_SPECTROMETRY: ION_MODE POSITIVE
AC$MASS_SPECTROMETRY: IONIZATION ESI
AC$MASS_SPECTROMETRY: FRAGMENTATION_MODE HCD
AC$MASS_SPECTROMETRY: COLLISION_ENERGY 45 (nominal)
AC$MASS_SPECTROMETRY: RESOLUTION 35000
AC$CHROMATOGRAPHY: COLUMN_NAME XBridge C18 3.5um, 2.1x50mm, Waters
AC$CHROMATOGRAPHY: FLOW_GRADIENT 90/10 at 0 min, 50/50 at 4 min, 5/95 at 17 min, 5/95 at 25 min, 90/10 at 25.1 min, 90/10 at 30 min
AC$CHROMATOGRAPHY: FLOW_RATE 200 ul/min
AC$CHROMATOGRAPHY: RETENTION_TIME 7.0 min
AC$CHROMATOGRAPHY: SOLVENT A water with 0.1% formic acid
AC$CHROMATOGRAPHY: SOLVENT B methanol with 0.1% formic acid
MS$FOCUSED_ION: BASE_PEAK 253.1657
MS$FOCUSED_ION: PRECURSOR_M/Z 253.1659
MS$FOCUSED_ION: PRECURSOR_TYPE [M+H]+
MS$DATA_PROCESSING: RECALIBRATE loess on assigned fragments and MS1
MS$DATA_PROCESSING: REANALYZE Peaks with additional N2/O included
MS$DATA_PROCESSING: WHOLE RMassBank 1.9.6
PK$SPLASH: splash10-00di-3900000000-6e905d1f5d6965d0b11d
PK$ANNOTATION: m/z tentative_formula formula_count mass error(ppm)
  55.0543 C4H7+ 1 55.0542 0.42
  57.0448 C2H5N2+ 1 57.0447 0.45
  71.0604 C3H7N2+ 1 71.0604 -0.21
  72.0444 C3H6NO+ 1 72.0444 -0.28
  83.024 C3H3N2O+ 1 83.024 -0.23
  83.0855 C6H11+ 1 83.0855 0.04
  85.076 C4H9N2+ 1 85.076 0.18
  101.0346 C3H5N2O2+ 1 101.0346 0.46
  114.0663 C4H8N3O+ 1 114.0662 0.63
  128.0819 C5H10N3O+ 1 128.0818 0.17
  171.0876 C6H11N4O2+ 1 171.0877 -0.01
  253.1659 C12H21N4O2+ 1 253.1659 -0.05
PK$NUM_PEAK: 12
PK$PEAK: m/z int. rel.int.
  55.0543 8317841 7
  57.0448 1155661.2 1
  71.0604 216005280 187
  72.0444 5785367 5
  83.024 8597329 7
  83.0855 16214871 14
  85.076 149809376 130
  101.0346 15358592 13
  114.0663 16834192 14
  128.0819 5633694 4
  171.0876 1150366080 999
  253.1659 4813828 4
//
