ACCESSION: MSBNK-Eawag-EQ01131152
RECORD_TITLE: Spirotetramat BYI08330-ketohydroxy; LC-ESI-QFT; MS2; CE: 30%; R=17500; [M-H]-
DATE: 2023.04.27
AUTHORS: B. Beck [dtc,com], J. Hollender [dtc]
LICENSE: CC BY-SA
COPYRIGHT: Copyright (C) Eawag 2023
COMMENT: CONFIDENCE standard compound
COMMENT: UCHEM_ID 11311
CH$NAME: Spirotetramat BYI08330-ketohydroxy
CH$NAME: 3-(2,5-Dimethylphenyl)-3-hydroxy-8-methoxy-1-azaspiro(4.5)decane-2,4-dione
CH$NAME: 3-(2,5-dimethylphenyl)-3-hydroxy-8-methoxy-1-azaspiro[4.5]decane-2,4-dione
CH$COMPOUND_CLASS: N/A; Environmental Standard
CH$FORMULA: C18H23NO4
CH$EXACT_MASS: 317.1627
CH$SMILES: CC1=CC(=C(C=C1)C)C2(C(=O)C3(CCC(CC3)OC)NC2=O)O
CH$IUPAC: InChI=1S/C18H23NO4/c1-11-4-5-12(2)14(10-11)18(22)15(20)17(19-16(18)21)8-6-13(23-3)7-9-17/h4-5,10,13,22H,6-9H2,1-3H3,(H,19,21)
CH$LINK: PUBCHEM CID:71312325
CH$LINK: INCHIKEY XOVCVOLJZHNHLA-UHFFFAOYSA-N
CH$LINK: CHEMSPIDER 57546266
AC$INSTRUMENT: Exploris 240 Orbitrap Thermo Scientific
AC$INSTRUMENT_TYPE: LC-ESI-QFT
AC$MASS_SPECTROMETRY: MS_TYPE MS2
AC$MASS_SPECTROMETRY: ION_MODE NEGATIVE
AC$MASS_SPECTROMETRY: IONIZATION ESI
AC$MASS_SPECTROMETRY: FRAGMENTATION_MODE HCD
AC$MASS_SPECTROMETRY: COLLISION_ENERGY 30 % (nominal)
AC$MASS_SPECTROMETRY: RESOLUTION 17500
AC$MASS_SPECTROMETRY: MASS_RANGE_M/Z 50-343
AC$CHROMATOGRAPHY: COLUMN_NAME XBridge C18 3.5um, 2.1x50mm, Waters
AC$CHROMATOGRAPHY: FLOW_GRADIENT 90/10 at 0 min, 50/50 at 4 min, 5/95 at 17 min, 5/95 at 25 min, 90/10 at 25.1 min, 90/10 at 30 min
AC$CHROMATOGRAPHY: FLOW_RATE 200 uL/min
AC$CHROMATOGRAPHY: RETENTION_TIME 7.424 min
MS$FOCUSED_ION: BASE_PEAK 316.1554
MS$FOCUSED_ION: PRECURSOR_M/Z 316.1554
MS$FOCUSED_ION: PRECURSOR_TYPE [M-H]-
MS$DATA_PROCESSING: RECALIBRATE loess on assigned fragments and MS1
MS$DATA_PROCESSING: REANALYZE Peaks with additional N2/O included
MS$DATA_PROCESSING: WHOLE RMassBank 3.11.0.1
PK$SPLASH: splash10-03k9-0981000000-c42e9b6c31360da11c72
PK$ANNOTATION: m/z tentative_formula formula_count mass error(ppm)
  160.053 C10H8O2- 1 160.053 0.26
  245.1552 C16H21O2- 1 245.1547 1.98
  273.1492 C17H21O3- 1 273.1496 -1.38
  316.1539 C18H22NO4- 1 316.1554 -4.96
PK$NUM_PEAK: 4
PK$PEAK: m/z int. rel.int.
  160.053 168125 999
  245.1552 15736.2 93
  273.1492 134747.1 800
  316.1539 18946.9 112
//
