ACCESSION: MSBNK-Eawag-EQ00370954
RECORD_TITLE: Fluometuron; LC-ESI-QFT; MS2; CE: 60%; R=15000; [M-H]-
DATE: 2024.06.14
AUTHORS: F. Jud [dtc], K. Arturi [dtc], J. Hollender [dtc], A. Dax [com]
LICENSE: CC BY-SA
COPYRIGHT: Copyright (C) Eawag 2024
COMMENT: CONFIDENCE standard compound
COMMENT: UCHEM_ID 3709
CH$NAME: Fluometuron
CH$NAME: 1,1-dimethyl-3-[3-(trifluoromethyl)phenyl]urea
CH$COMPOUND_CLASS: N/A
CH$FORMULA: C10H11F3N2O
CH$EXACT_MASS: 232.0823476
CH$SMILES: CN(C)C(=O)NC1=CC=CC(=C1)C(F)(F)F
CH$IUPAC: InChI=1S/C10H11F3N2O/c1-15(2)9(16)14-8-5-3-4-7(6-8)10(11,12)13/h3-6H,1-2H3,(H,14,16)
CH$LINK: CAS 2164-17-2
CH$LINK: CHEBI CHEBI:82012
CH$LINK: KEGG C18853
CH$LINK: PUBCHEM CID:16562
CH$LINK: INCHIKEY RZILCCPWPBTYDO-UHFFFAOYSA-N
CH$LINK: CHEMSPIDER 15702
AC$INSTRUMENT: Q Exactive Plus
AC$INSTRUMENT_TYPE: LC-ESI-QFT
AC$MASS_SPECTROMETRY: MS_TYPE MS2
AC$MASS_SPECTROMETRY: ION_MODE NEGATIVE
AC$MASS_SPECTROMETRY: IONIZATION ESI
AC$MASS_SPECTROMETRY: FRAGMENTATION_MODE HCD
AC$MASS_SPECTROMETRY: COLLISION_ENERGY 60 % (nominal)
AC$MASS_SPECTROMETRY: RESOLUTION 15000
AC$MASS_SPECTROMETRY: MASS_RANGE_M/Z 50-255
AC$CHROMATOGRAPHY: COLUMN_NAME XBridge C18 3.5um, 2.1x50mm, Waters
AC$CHROMATOGRAPHY: FLOW_GRADIENT 90/10 at 0 min, 50/50 at 4 min, 5/95 at 17 min, 5/95 at 25 min, 90/10 at 25.1 min, 90/10 at 30 min
AC$CHROMATOGRAPHY: FLOW_RATE 200 uL/min
AC$CHROMATOGRAPHY: RETENTION_TIME 7.120 min
MS$FOCUSED_ION: BASE_PEAK 231.075
MS$FOCUSED_ION: PRECURSOR_M/Z 231.0751
MS$FOCUSED_ION: PRECURSOR_TYPE [M-H]-
MS$FOCUSED_ION: PRECURSOR_INTENSITY 94598997.04
MS$DATA_PROCESSING: RECALIBRATE loess on assigned fragments and MS1
MS$DATA_PROCESSING: REANALYZE Peaks with additional N2/O included
MS$DATA_PROCESSING: WHOLE RMassBank 3.15.1.1
PK$SPLASH: splash10-000i-0900000000-2a738614b8c5bfd9e02d
PK$ANNOTATION: m/z tentative_formula formula_count mass error(ppm)
  98.0036 C7N- 1 98.0036 0.03
  118.01 C7HFN- 1 118.0099 1.64
  138.0161 C7H2F2N- 1 138.0161 0.17
  142.0471 C7H6F2N- 1 142.0474 -2.11
  146.0047 C8HFNO- 1 146.0048 -0.49
  160.0379 C7H5F3N- 1 160.038 -0.61
  166.0109 C8H2F2NO- 1 166.011 -0.47
  186.0171 C8H3F3NO- 1 186.0172 -0.42
  188.0326 C8H5F3NO- 1 188.0329 -1.27
  231.0749 C10H10F3N2O- 1 231.0751 -0.81
PK$NUM_PEAK: 10
PK$PEAK: m/z int. rel.int.
  98.0036 298196 26
  118.01 217316 19
  138.0161 241593 21
  142.0471 217521.3 19
  146.0047 1458644.9 131
  160.0379 2196003.2 198
  166.0109 3860001.5 348
  186.0171 11069169 999
  188.0326 131320.8 11
  231.0749 988723.4 89
//
