ACCESSION: MSBNK-Eawag-EQ01138801
RECORD_TITLE: Phorate; LC-ESI-QFT; MS2; CE: 15%; R=17500; [M+H]+
DATE: 2023.04.27
AUTHORS: B. Beck [dtc,com], J. Hollender [dtc]
LICENSE: CC BY-SA
COPYRIGHT: Copyright (C) Eawag 2023
COMMENT: CONFIDENCE standard compound
COMMENT: UCHEM_ID 11388
CH$NAME: Phorate
CH$NAME: diethoxy-(ethylsulfanylmethylsulfanyl)-sulfanylidene-lambda5-phosphane
CH$COMPOUND_CLASS: N/A; Environmental Standard
CH$FORMULA: C7H17O2PS3
CH$EXACT_MASS: 260.0128
CH$SMILES: CCOP(=S)(OCC)SCSCC
CH$IUPAC: InChI=1S/C7H17O2PS3/c1-4-8-10(11,9-5-2)13-7-12-6-3/h4-7H2,1-3H3
CH$LINK: CAS 298-02-2
CH$LINK: CHEBI CHEBI:38764
CH$LINK: KEGG C18690
CH$LINK: PUBCHEM CID:4790
CH$LINK: INCHIKEY BULVZWIRKLYCBC-UHFFFAOYSA-N
CH$LINK: CHEMSPIDER 4626
AC$INSTRUMENT: Exploris 240 Orbitrap Thermo Scientific
AC$INSTRUMENT_TYPE: LC-ESI-QFT
AC$MASS_SPECTROMETRY: MS_TYPE MS2
AC$MASS_SPECTROMETRY: ION_MODE POSITIVE
AC$MASS_SPECTROMETRY: IONIZATION ESI
AC$MASS_SPECTROMETRY: FRAGMENTATION_MODE HCD
AC$MASS_SPECTROMETRY: COLLISION_ENERGY 15 % (nominal)
AC$MASS_SPECTROMETRY: RESOLUTION 17500
AC$MASS_SPECTROMETRY: MASS_RANGE_M/Z 50-287
AC$CHROMATOGRAPHY: COLUMN_NAME XBridge C18 3.5um, 2.1x50mm, Waters
AC$CHROMATOGRAPHY: FLOW_GRADIENT 90/10 at 0 min, 50/50 at 4 min, 5/95 at 17 min, 5/95 at 25 min, 90/10 at 25.1 min, 90/10 at 30 min
AC$CHROMATOGRAPHY: FLOW_RATE 200 uL/min
AC$CHROMATOGRAPHY: RETENTION_TIME 11.631 min
MS$FOCUSED_ION: BASE_PEAK 374.0931
MS$FOCUSED_ION: PRECURSOR_M/Z 261.0201
MS$FOCUSED_ION: PRECURSOR_TYPE [M+H]+
MS$DATA_PROCESSING: RECALIBRATE loess on assigned fragments and MS1
MS$DATA_PROCESSING: REANALYZE Peaks with additional N2/O included
MS$DATA_PROCESSING: WHOLE RMassBank 3.11.0.1
PK$SPLASH: splash10-004i-9000000000-fec36a5bca4f4b4d6fad
PK$ANNOTATION: m/z tentative_formula formula_count mass error(ppm)
  75.0263 C3H7S+ 1 75.0263 -0.52
  142.9384 CH4O2PS2+ 1 142.9385 -0.45
  153.0133 C4H10O2PS+ 1 153.0134 -0.13
  170.9697 C3H8O2PS2+ 1 170.9698 -0.61
  199.001 C5H12O2PS2+ 1 199.0011 -0.26
PK$NUM_PEAK: 5
PK$PEAK: m/z int. rel.int.
  75.0263 9524694 999
  142.9384 28243.9 2
  153.0133 80412.5 8
  170.9697 231625.2 24
  199.001 574229.9 60
//
