ACCESSION: MSBNK-Eawag-EA277052
RECORD_TITLE: Aspartame; LC-ESI-ITFT; MS2; CE: 15%; R=7500; [M-H]-
DATE: 2014.01.14
AUTHORS: Stravs M, Schymanski E, Singer H, Department of Environmental Chemistry, Eawag
LICENSE: CC BY
COPYRIGHT: Copyright (C) 2012 Eawag, Duebendorf, Switzerland
COMMENT: CONFIDENCE standard compound
COMMENT: EAWAG_UCHEM_ID 2770
CH$NAME: Aspartame
CH$NAME: 3-amino-4-[(1-benzyl-2-keto-2-methoxy-ethyl)amino]-4-keto-butyric acid
CH$COMPOUND_CLASS: N/A; Environmental Standard
CH$FORMULA: C14H18N2O5
CH$EXACT_MASS: 294.1216
CH$SMILES: COC(=O)C(CC1=CC=CC=C1)NC(=O)C(CC(=O)O)N
CH$IUPAC: InChI=1S/C14H18N2O5/c1-21-14(20)11(7-9-5-3-2-4-6-9)16-13(19)10(15)8-12(17)18/h2-6,10-11H,7-8,15H2,1H3,(H,16,19)(H,17,18)/t10-,11-/m0/s1
CH$LINK: CAS 22839-47-0
CH$LINK: CHEBI CHEBI:2877
CH$LINK: KEGG C11045
CH$LINK: PUBCHEM CID:134601
CH$LINK: INCHIKEY IAOZJIPTCAWIRG-QWRGUYRKSA-N
CH$LINK: CHEMSPIDER 2155
CH$LINK: COMPTOX DTXSID0020107
AC$INSTRUMENT: LTQ Orbitrap XL Thermo Scientific
AC$INSTRUMENT_TYPE: LC-ESI-ITFT
AC$MASS_SPECTROMETRY: MS_TYPE MS2
AC$MASS_SPECTROMETRY: ION_MODE NEGATIVE
AC$MASS_SPECTROMETRY: IONIZATION ESI
AC$MASS_SPECTROMETRY: FRAGMENTATION_MODE HCD
AC$MASS_SPECTROMETRY: COLLISION_ENERGY 15 % (nominal)
AC$MASS_SPECTROMETRY: RESOLUTION 7500
AC$CHROMATOGRAPHY: COLUMN_NAME XBridge C18 3.5um, 2.1x50mm, Waters
AC$CHROMATOGRAPHY: FLOW_GRADIENT 90/10 at 0 min, 50/50 at 4 min, 5/95 at 17 min, 5/95 at 25 min, 90/10 at 25.1 min, 90/10 at 30 min
AC$CHROMATOGRAPHY: FLOW_RATE 200 ul/min
AC$CHROMATOGRAPHY: RETENTION_TIME 4.8 min
AC$CHROMATOGRAPHY: SOLVENT A water with 0.1% formic acid
AC$CHROMATOGRAPHY: SOLVENT B methanol with 0.1% formic acid
MS$FOCUSED_ION: BASE_PEAK 293.1137
MS$FOCUSED_ION: PRECURSOR_M/Z 293.1143
MS$FOCUSED_ION: PRECURSOR_TYPE [M-H]-
MS$DATA_PROCESSING: DEPROFILE Spline
MS$DATA_PROCESSING: RECALIBRATE loess on assigned fragments and MS1
MS$DATA_PROCESSING: REANALYZE Peaks with additional N2/O included
MS$DATA_PROCESSING: WHOLE RMassBank 1.3.1
PK$SPLASH: splash10-01ox-0090000000-40da25b14169f1f4fa86
PK$ANNOTATION: m/z tentative_formula formula_count mass error(ppm)
  146.0609 C9H8NO- 1 146.0611 -1.76
  173.1089 C11H13N2- 1 173.1084 2.53
  174.0556 C10H8NO2- 1 174.0561 -2.88
  200.0719 C12H10NO2- 1 200.0717 1.24
  217.0984 C12H13N2O2- 1 217.0983 0.5
  261.0881 C13H13N2O4- 1 261.0881 0.04
  275.104 C14H15N2O4- 1 275.1037 0.91
  293.1145 C14H17N2O5- 1 293.1143 0.56
PK$NUM_PEAK: 8
PK$PEAK: m/z int. rel.int.
  146.0609 6671.4 20
  173.1089 4690 14
  174.0556 8891.8 27
  200.0719 94755.5 291
  217.0984 29107.5 89
  261.0881 289915.1 890
  275.104 24598.3 75
  293.1145 325277.3 999
//
