ACCESSION: MSBNK-Eawag-EQ01165001
RECORD_TITLE: Trimebutine; LC-ESI-QFT; MS2; CE: 15%; R=17500; [M+H]+
DATE: 2024.01.16
AUTHORS: B. Beck [dtc,com], J. Hollender [dtc]
LICENSE: CC BY-SA
COPYRIGHT: Copyright (C) Eawag 2023
COMMENT: CONFIDENCE standard compound
COMMENT: UCHEM_ID 11650
CH$NAME: Trimebutine
CH$NAME: [2-(dimethylamino)-2-phenylbutyl] 3,4,5-trimethoxybenzoate
CH$COMPOUND_CLASS: N/A; Environmental Standard
CH$FORMULA: C22H29NO5
CH$EXACT_MASS: 387.204573028
CH$SMILES: CCC(COC(=O)C1=CC(=C(C(=C1)OC)OC)OC)(C2=CC=CC=C2)N(C)C
CH$IUPAC: InChI=1S/C22H29NO5/c1-7-22(23(2)3,17-11-9-8-10-12-17)15-28-21(24)16-13-18(25-4)20(27-6)19(14-16)26-5/h8-14H,7,15H2,1-6H3
CH$LINK: CHEBI CHEBI:94458
CH$LINK: PUBCHEM CID:5573
CH$LINK: INCHIKEY LORDFXWUHHSAQU-UHFFFAOYSA-N
CH$LINK: CHEMSPIDER 5372
AC$INSTRUMENT: Exploris 240 Orbitrap Thermo Scientific
AC$INSTRUMENT_TYPE: LC-ESI-QFT
AC$MASS_SPECTROMETRY: MS_TYPE MS2
AC$MASS_SPECTROMETRY: ION_MODE POSITIVE
AC$MASS_SPECTROMETRY: IONIZATION ESI
AC$MASS_SPECTROMETRY: FRAGMENTATION_MODE HCD
AC$MASS_SPECTROMETRY: COLLISION_ENERGY 15 % (nominal)
AC$MASS_SPECTROMETRY: RESOLUTION 17500
AC$MASS_SPECTROMETRY: MASS_RANGE_M/Z 50-417
AC$CHROMATOGRAPHY: COLUMN_NAME XBridge C18 3.5um, 2.1x50mm, Waters
AC$CHROMATOGRAPHY: FLOW_GRADIENT 90/10 at 0 min, 50/50 at 4 min, 5/95 at 17 min, 5/95 at 25 min, 90/10 at 25.1 min, 90/10 at 30 min
AC$CHROMATOGRAPHY: FLOW_RATE 200 uL/min
AC$CHROMATOGRAPHY: RETENTION_TIME 6.755 min
MS$FOCUSED_ION: BASE_PEAK 388.2118
MS$FOCUSED_ION: PRECURSOR_M/Z 388.2118
MS$FOCUSED_ION: PRECURSOR_TYPE [M+H]+
MS$DATA_PROCESSING: RECALIBRATE loess on assigned fragments and MS1
MS$DATA_PROCESSING: REANALYZE Peaks with additional N2/O included
MS$DATA_PROCESSING: WHOLE RMassBank 3.11.2
PK$SPLASH: splash10-0006-0109000000-4eb4536cc55f6d406d7f
PK$ANNOTATION: m/z tentative_formula formula_count mass error(ppm)
  131.0856 C10H11+ 1 131.0855 0.6
  195.0653 C10H11O4+ 1 195.0652 0.5
  213.0757 C10H13O5+ 1 213.0757 -0.42
  343.1543 C20H23O5+ 1 343.154 0.78
PK$NUM_PEAK: 4
PK$PEAK: m/z int. rel.int.
  131.0856 6572272 93
  195.0653 6356109.5 90
  213.0757 5834528 83
  343.1543 69943992 999
//
