ACCESSION: MSBNK-Eawag-EA258355
RECORD_TITLE: Valsartan; LC-ESI-ITFT; MS2; CE: 60%; R=7500; [M-H]-
DATE: 2014.01.14
AUTHORS: Stravs M, Schymanski E, Singer H, Department of Environmental Chemistry, Eawag
LICENSE: CC BY
COPYRIGHT: Copyright (C) 2012 Eawag, Duebendorf, Switzerland
COMMENT: CONFIDENCE standard compound
COMMENT: EAWAG_UCHEM_ID 2583
CH$NAME: Valsartan
CH$NAME: (2S)-3-methyl-2-[1-oxopentyl-[[4-[2-(2H-tetrazol-5-yl)phenyl]phenyl]methyl]amino]butanoic acid
CH$COMPOUND_CLASS: N/A; Environmental Standard
CH$FORMULA: C24H29N5O3
CH$EXACT_MASS: 435.2270
CH$SMILES: CCCCC(=O)N(CC1=CC=C(C=C1)C2=C(C=CC=C2)C3=NN=NN3)[C@@H](C(C)C)C(O)=O
CH$IUPAC: InChI=1S/C24H29N5O3/c1-4-5-10-21(30)29(22(16(2)3)24(31)32)15-17-11-13-18(14-12-17)19-8-6-7-9-20(19)23-25-27-28-26-23/h6-9,11-14,16,22H,4-5,10,15H2,1-3H3,(H,31,32)(H,25,26,27,28)/t22-/m0/s1
CH$LINK: CAS 137862-53-4
CH$LINK: KEGG D00400
CH$LINK: PUBCHEM CID:60846
CH$LINK: INCHIKEY ACWBQPMHZXGDFX-QFIPXVFZSA-N
CH$LINK: CHEMSPIDER 54833
AC$INSTRUMENT: LTQ Orbitrap XL Thermo Scientific
AC$INSTRUMENT_TYPE: LC-ESI-ITFT
AC$MASS_SPECTROMETRY: MS_TYPE MS2
AC$MASS_SPECTROMETRY: ION_MODE NEGATIVE
AC$MASS_SPECTROMETRY: IONIZATION ESI
AC$MASS_SPECTROMETRY: FRAGMENTATION_MODE HCD
AC$MASS_SPECTROMETRY: COLLISION_ENERGY 60 % (nominal)
AC$MASS_SPECTROMETRY: RESOLUTION 7500
AC$CHROMATOGRAPHY: COLUMN_NAME XBridge C18 3.5um, 2.1x50mm, Waters
AC$CHROMATOGRAPHY: FLOW_GRADIENT 90/10 at 0 min, 50/50 at 4 min, 5/95 at 17 min, 5/95 at 25 min, 90/10 at 25.1 min, 90/10 at 30 min
AC$CHROMATOGRAPHY: FLOW_RATE 200 ul/min
AC$CHROMATOGRAPHY: RETENTION_TIME 11.0 min
AC$CHROMATOGRAPHY: SOLVENT A water with 0.1% formic acid
AC$CHROMATOGRAPHY: SOLVENT B methanol with 0.1% formic acid
MS$FOCUSED_ION: BASE_PEAK 434.2193
MS$FOCUSED_ION: PRECURSOR_M/Z 434.2198
MS$FOCUSED_ION: PRECURSOR_TYPE [M-H]-
MS$DATA_PROCESSING: DEPROFILE Spline
MS$DATA_PROCESSING: RECALIBRATE loess on assigned fragments and MS1
MS$DATA_PROCESSING: REANALYZE Peaks with additional N2/O included
MS$DATA_PROCESSING: WHOLE RMassBank 1.3.1
PK$SPLASH: splash10-004i-0900000000-00e9b9924b37c4db7a8d
PK$ANNOTATION: m/z tentative_formula formula_count mass error(ppm)
  116.0721 C5H10NO2- 1 116.0717 3.86
  156.1398 C9H18NO- 1 156.1394 2.45
  178.0793 C14H10- 1 178.0788 2.81
  179.0868 C14H11- 1 179.0866 0.98
  193.066 C14H9O- 1 193.0659 0.78
  206.0855 C14H10N2- 1 206.0849 2.54
  207.093 C14H11N2- 1 207.0928 0.86
PK$NUM_PEAK: 7
PK$PEAK: m/z int. rel.int.
  116.0721 34255.5 154
  156.1398 24026.1 108
  178.0793 37910.7 170
  179.0868 221898.2 999
  193.066 26791.2 120
  206.0855 17441.9 78
  207.093 20538.8 92
//
