ACCESSION: MSBNK-Eawag-EA032852
RECORD_TITLE: Fluconazole; LC-ESI-ITFT; MS2; CE: 15%; R=7500; [M-H]-
DATE: 2014.01.14
AUTHORS: Stravs M, Schymanski E, Singer H, Department of Environmental Chemistry, Eawag
LICENSE: CC BY
COPYRIGHT: Copyright (C) 2012 Eawag, Duebendorf, Switzerland
COMMENT: CONFIDENCE standard compound
COMMENT: EAWAG_UCHEM_ID 328
CH$NAME: Fluconazole
CH$NAME: 2-(2,4-difluorophenyl)-1,3-bis(1,2,4-triazol-1-yl)-2-propanol
CH$COMPOUND_CLASS: N/A; Environmental Standard
CH$FORMULA: C13H12F2N6O
CH$EXACT_MASS: 306.1041
CH$SMILES: OC(CN1C=NC=N1)(CN2C=NC=N2)C3=C(F)C=C(F)C=C3
CH$IUPAC: InChI=1S/C13H12F2N6O/c14-10-1-2-11(12(15)3-10)13(22,4-20-8-16-6-18-20)5-21-9-17-7-19-21/h1-3,6-9,22H,4-5H2
CH$LINK: CAS 86386-73-4
CH$LINK: CHEBI CHEBI:46081
CH$LINK: KEGG D00322
CH$LINK: PUBCHEM CID:3365
CH$LINK: INCHIKEY RFHAOTPXVQNOHP-UHFFFAOYSA-N
CH$LINK: CHEMSPIDER 3248
CH$LINK: COMPTOX DTXSID3020627
AC$INSTRUMENT: LTQ Orbitrap XL Thermo Scientific
AC$INSTRUMENT_TYPE: LC-ESI-ITFT
AC$MASS_SPECTROMETRY: MS_TYPE MS2
AC$MASS_SPECTROMETRY: ION_MODE NEGATIVE
AC$MASS_SPECTROMETRY: IONIZATION ESI
AC$MASS_SPECTROMETRY: FRAGMENTATION_MODE HCD
AC$MASS_SPECTROMETRY: COLLISION_ENERGY 15 % (nominal)
AC$MASS_SPECTROMETRY: RESOLUTION 7500
AC$CHROMATOGRAPHY: COLUMN_NAME XBridge C18 3.5um, 2.1x50mm, Waters
AC$CHROMATOGRAPHY: FLOW_GRADIENT 90/10 at 0 min, 50/50 at 4 min, 5/95 at 17 min, 5/95 at 25 min, 90/10 at 25.1 min, 90/10 at 30 min
AC$CHROMATOGRAPHY: FLOW_RATE 200 ul/min
AC$CHROMATOGRAPHY: RETENTION_TIME 5.2 min
AC$CHROMATOGRAPHY: SOLVENT A water with 0.1% formic acid
AC$CHROMATOGRAPHY: SOLVENT B methanol with 0.1% formic acid
MS$FOCUSED_ION: BASE_PEAK 351.1016
MS$FOCUSED_ION: PRECURSOR_M/Z 305.0968
MS$FOCUSED_ION: PRECURSOR_TYPE [M-H]-
MS$DATA_PROCESSING: DEPROFILE Spline
MS$DATA_PROCESSING: RECALIBRATE loess on assigned fragments and MS1
MS$DATA_PROCESSING: REANALYZE Peaks with additional N2/O included
MS$DATA_PROCESSING: WHOLE RMassBank 1.3.1
PK$SPLASH: splash10-0006-0900000000-ea278fc262275613a1fe
PK$ANNOTATION: m/z tentative_formula formula_count mass error(ppm)
  68.0255 C2H2N3- 1 68.0254 0.43
  108.0205 C4H2N3O- 1 108.0203 1.9
  122.0365 C5H4N3O- 1 122.036 4.05
  191.0689 C7H7N6O- 1 191.0687 1.09
  222.0482 C10H6F2N3O- 2 222.0484 -0.91
  305.0971 C13H11F2N6O- 1 305.0968 0.99
PK$NUM_PEAK: 6
PK$PEAK: m/z int. rel.int.
  68.0255 83729.5 38
  108.0205 14317.4 6
  122.0365 10867.9 5
  191.0689 2155217.7 999
  222.0482 18355.5 8
  305.0971 114310.1 52
//
