ACCESSION: MSBNK-Eawag-EQ01086205
RECORD_TITLE: Paraxanthine; LC-ESI-QFT; MS2; CE: 75%; R=17500; [M+H]+
DATE: 2024.05.08
AUTHORS: C. Meyer [dtc], B. Beck [dtc,com], J. Hollender [dtc]
LICENSE: CC BY-SA
COPYRIGHT: Copyright (C) Eawag 2023
PUBLICATION: Meyer, C., Stravs, M., Hollender, J.. How Wastewater Reflects Human Metabolism - Suspect Screening of Pharmaceutical Metabolites in Wastewater Influent. doi:10.1021/acs.est.4c00968
COMMENT: CONFIDENCE standard compound
COMMENT: UCHEM_ID 10862
CH$NAME: Paraxanthine
CH$NAME: 1,7-dimethyl-3H-purine-2,6-dione
CH$COMPOUND_CLASS: N/A; Environmental Standard
CH$FORMULA: C7H8N4O2
CH$EXACT_MASS: 180.0647255
CH$SMILES: CN1C=NC2=C1C(=O)N(C(=O)N2)C
CH$IUPAC: InChI=1S/C7H8N4O2/c1-10-3-8-5-4(10)6(12)11(2)7(13)9-5/h3H,1-2H3,(H,9,13)
CH$LINK: CHEBI CHEBI:25858
CH$LINK: PUBCHEM CID:4687
CH$LINK: INCHIKEY QUNWUDVFRNGTCO-UHFFFAOYSA-N
CH$LINK: CHEMSPIDER 4525
AC$INSTRUMENT: Exploris 240 Orbitrap Thermo Scientific
AC$INSTRUMENT_TYPE: LC-ESI-QFT
AC$MASS_SPECTROMETRY: MS_TYPE MS2
AC$MASS_SPECTROMETRY: ION_MODE POSITIVE
AC$MASS_SPECTROMETRY: IONIZATION ESI
AC$MASS_SPECTROMETRY: FRAGMENTATION_MODE HCD
AC$MASS_SPECTROMETRY: COLLISION_ENERGY 75 % (nominal)
AC$MASS_SPECTROMETRY: RESOLUTION 17500
AC$MASS_SPECTROMETRY: MASS_RANGE_M/Z 41-206
AC$CHROMATOGRAPHY: COLUMN_NAME XBridge C18 3.5um, 2.1x50mm, Waters
AC$CHROMATOGRAPHY: FLOW_GRADIENT 90/10 at 0 min, 50/50 at 4 min, 5/95 at 17 min, 5/95 at 25 min, 90/10 at 25.1 min, 90/10 at 30 min
AC$CHROMATOGRAPHY: FLOW_RATE 200 uL/min
AC$CHROMATOGRAPHY: RETENTION_TIME 2.483 min
MS$FOCUSED_ION: BASE_PEAK 181.0718
MS$FOCUSED_ION: PRECURSOR_M/Z 181.072
MS$FOCUSED_ION: PRECURSOR_TYPE [M+H]+
MS$DATA_PROCESSING: RECALIBRATE loess on assigned fragments and MS1
MS$DATA_PROCESSING: REANALYZE Peaks with additional N2/O included
MS$DATA_PROCESSING: WHOLE RMassBank 3.15.1
PK$SPLASH: splash10-00di-2900000000-6ac9485b27adc9374b06
PK$ANNOTATION: m/z tentative_formula formula_count mass error(ppm)
  42.0338 C2H4N+ 1 42.0338 -0.53
  55.029 C2H3N2+ 1 55.0291 -0.82
  67.0291 C3H3N2+ 1 67.0291 0.82
  69.0447 C3H5N2+ 1 69.0447 -0.63
  96.0555 C4H6N3+ 1 96.0556 -0.82
  97.0394 C4H5N2O+ 1 97.0396 -2.39
  124.0505 C5H6N3O+ 1 124.0505 -0.54
  142.0608 C5H8N3O2+ 1 142.0611 -2.25
  163.0609 C7H7N4O+ 1 163.0614 -3.31
  181.072 C7H9N4O2+ 1 181.072 -0.19
PK$NUM_PEAK: 10
PK$PEAK: m/z int. rel.int.
  42.0338 1987512 32
  55.029 5311030 86
  67.0291 1473510.5 23
  69.0447 4021137.2 65
  96.0555 4827559 78
  97.0394 692778.5 11
  124.0505 61643852 999
  142.0608 1724545.9 27
  163.0609 230756.3 3
  181.072 5404969.5 87
//
