ACCESSION: MSBNK-Eawag-EQ01152402
RECORD_TITLE: 1-Methyluric acid; LC-ESI-QFT; MS2; CE: 30%; R=17500; [M+H]+
DATE: 2024.05.08
AUTHORS: C. Meyer [dtc], B. Beck [dtc,com], J. Hollender [dtc]
LICENSE: CC BY-SA
COPYRIGHT: Copyright (C) Eawag 2023
PUBLICATION: Meyer, C., Stravs, M., Hollender, J.. How Wastewater Reflects Human Metabolism - Suspect Screening of Pharmaceutical Metabolites in Wastewater Influent. doi:10.1021/acs.est.4c00968
COMMENT: CONFIDENCE standard compound
COMMENT: UCHEM_ID 11524
CH$NAME: 1-Methyluric acid
CH$NAME: 1-methyl-7,9-dihydro-3H-purine-2,6,8-trione
CH$COMPOUND_CLASS: N/A; Environmental Standard
CH$FORMULA: C6H6N4O3
CH$EXACT_MASS: 182.0439901
CH$SMILES: CN1C(=O)C2=C(NC(=O)N2)NC1=O
CH$IUPAC: InChI=1S/C6H6N4O3/c1-10-4(11)2-3(9-6(10)13)8-5(12)7-2/h1H3,(H,9,13)(H2,7,8,12)
CH$LINK: CHEBI CHEBI:68441
CH$LINK: PUBCHEM CID:69726
CH$LINK: INCHIKEY QFDRTQONISXGJA-UHFFFAOYSA-N
CH$LINK: CHEMSPIDER 62926
AC$INSTRUMENT: Exploris 240 Orbitrap Thermo Scientific
AC$INSTRUMENT_TYPE: LC-ESI-QFT
AC$MASS_SPECTROMETRY: MS_TYPE MS2
AC$MASS_SPECTROMETRY: ION_MODE POSITIVE
AC$MASS_SPECTROMETRY: IONIZATION ESI
AC$MASS_SPECTROMETRY: FRAGMENTATION_MODE HCD
AC$MASS_SPECTROMETRY: COLLISION_ENERGY 30 % (nominal)
AC$MASS_SPECTROMETRY: RESOLUTION 17500
AC$MASS_SPECTROMETRY: MASS_RANGE_M/Z 41-208
AC$CHROMATOGRAPHY: COLUMN_NAME XBridge C18 3.5um, 2.1x50mm, Waters
AC$CHROMATOGRAPHY: FLOW_GRADIENT 90/10 at 0 min, 50/50 at 4 min, 5/95 at 17 min, 5/95 at 25 min, 90/10 at 25.1 min, 90/10 at 30 min
AC$CHROMATOGRAPHY: FLOW_RATE 200 uL/min
AC$CHROMATOGRAPHY: RETENTION_TIME 1.514 min
MS$FOCUSED_ION: BASE_PEAK 256.9597
MS$FOCUSED_ION: PRECURSOR_M/Z 183.0513
MS$FOCUSED_ION: PRECURSOR_TYPE [M+H]+
MS$DATA_PROCESSING: RECALIBRATE loess on assigned fragments and MS1
MS$DATA_PROCESSING: REANALYZE Peaks with additional N2/O included
MS$DATA_PROCESSING: WHOLE RMassBank 3.15.1
PK$SPLASH: splash10-001i-0900000000-34b2df1428ba9043dc27
PK$ANNOTATION: m/z tentative_formula formula_count mass error(ppm)
  126.0296 C4H4N3O2+ 1 126.0298 -1.26
  152.0093 C5H2N3O3+ 1 152.0091 1.39
  155.0563 C5H7N4O2+ 1 155.0564 -0.1
  183.0512 C6H7N4O3+ 1 183.0513 -0.54
PK$NUM_PEAK: 4
PK$PEAK: m/z int. rel.int.
  126.0296 197185.2 14
  152.0093 63308.9 4
  155.0563 855313.4 62
  183.0512 13671812 999
//
