ACCESSION: MSBNK-Eawag-EQ309703
RECORD_TITLE: Naptalam; LC-ESI-QFT; MS2; CE: 45; R=35000; [M+H]+
DATE: 2015.08.25
AUTHORS: Beck B, Stravs M, Schymanski E, Singer H, Department of Environmental Chemistry, Eawag
LICENSE: CC BY
COPYRIGHT: Copyright (C) 2015 Eawag, Duebendorf, Switzerland
COMMENT: CONFIDENCE standard compound
COMMENT: EAWAG_UCHEM_ID 3097
CH$NAME: Naptalam
CH$NAME: 2-(1-naphthylcarbamoyl)benzoic acid
CH$COMPOUND_CLASS: N/A; Environmental Standard
CH$FORMULA: C18H13NO3
CH$EXACT_MASS: 291.08954
CH$SMILES: O=C(O)c1ccccc1C(=O)Nc3cccc2ccccc23
CH$IUPAC: InChI=1S/C18H13NO3/c20-17(14-9-3-4-10-15(14)18(21)22)19-16-11-5-7-12-6-1-2-8-13(12)16/h1-11H,(H,19,20)(H,21,22)
CH$LINK: CAS 132-66-1
CH$LINK: PUBCHEM CID:8594
CH$LINK: INCHIKEY JXTHEWSKYLZVJC-UHFFFAOYSA-N
CH$LINK: CHEMSPIDER 8275
CH$LINK: COMPTOX DTXSID6032437
AC$INSTRUMENT: Q Exactive Orbitrap Thermo Scientific
AC$INSTRUMENT_TYPE: LC-ESI-QFT
AC$MASS_SPECTROMETRY: MS_TYPE MS2
AC$MASS_SPECTROMETRY: ION_MODE POSITIVE
AC$MASS_SPECTROMETRY: IONIZATION ESI
AC$MASS_SPECTROMETRY: FRAGMENTATION_MODE HCD
AC$MASS_SPECTROMETRY: COLLISION_ENERGY 45 (nominal)
AC$MASS_SPECTROMETRY: RESOLUTION 35000
AC$CHROMATOGRAPHY: COLUMN_NAME XBridge C18 3.5um, 2.1x50mm, Waters
AC$CHROMATOGRAPHY: FLOW_GRADIENT 90/10 at 0 min, 50/50 at 4 min, 5/95 at 17 min, 5/95 at 25 min, 90/10 at 25.1 min, 90/10 at 30 min
AC$CHROMATOGRAPHY: FLOW_RATE 200 ul/min
AC$CHROMATOGRAPHY: RETENTION_TIME 7.2 min
AC$CHROMATOGRAPHY: SOLVENT A water with 0.1% formic acid
AC$CHROMATOGRAPHY: SOLVENT B methanol with 0.1% formic acid
MS$FOCUSED_ION: BASE_PEAK 292.0968
MS$FOCUSED_ION: PRECURSOR_M/Z 292.0968
MS$FOCUSED_ION: PRECURSOR_TYPE [M+H]+
MS$DATA_PROCESSING: DEPROFILE Spline
MS$DATA_PROCESSING: RECALIBRATE loess on assigned fragments and MS1
MS$DATA_PROCESSING: REANALYZE Peaks with additional N2/O included
MS$DATA_PROCESSING: WHOLE RMassBank 1.9.6
PK$SPLASH: splash10-0005-0910000000-99bed2e772c92d6d436f
PK$ANNOTATION: m/z tentative_formula formula_count mass error(ppm)
  65.0385 C5H5+ 1 65.0386 -1.48
  93.0334 C6H5O+ 1 93.0335 -0.77
  103.0542 C8H7+ 1 103.0542 -0.36
  105.0335 C7H5O+ 1 105.0335 0.18
  111.044 C6H7O2+ 1 111.0441 -0.14
  117.0697 C9H9+ 1 117.0699 -1.17
  121.0284 C7H5O2+ 1 121.0284 -0.38
  121.0396 C6H5N2O+ 1 121.0396 -0.16
  127.0541 C10H7+ 1 127.0542 -1.15
  130.0288 C8H4NO+ 1 130.0287 0.54
  143.073 C10H9N+ 1 143.073 0.06
  144.0807 C10H10N+ 1 144.0808 -0.18
  145.0647 C10H9O+ 1 145.0648 -0.49
  149.0233 C8H5O3+ 1 149.0233 0.06
  155.0602 C10H7N2+ 1 155.0604 -0.87
  167.0338 C8H7O4+ 1 167.0339 -0.69
  196.0397 C12H6NO2+ 1 196.0393 2.12
  227.0721 C17H9N+ 1 227.073 -3.53
  228.0803 C17H10N+ 1 228.0808 -2.04
  246.0912 C17H12NO+ 1 246.0913 -0.45
  256.0756 C18H10NO+ 1 256.0757 -0.35
  274.0861 C18H12NO2+ 1 274.0863 -0.53
PK$NUM_PEAK: 22
PK$PEAK: m/z int. rel.int.
  65.0385 2129822.8 9
  93.0334 991634.4 4
  103.0542 510261.9 2
  105.0335 1011629.6 4
  111.044 641795.4 2
  117.0697 2087282.7 9
  121.0284 10359828.5 48
  121.0396 1174724.9 5
  127.0541 831831.6 3
  130.0288 1481463.2 6
  143.073 2996548.5 13
  144.0807 190722395.7 886
  145.0647 5180633.4 24
  149.0233 214914199.5 999
  155.0602 3537063.7 16
  167.0338 1515325.9 7
  196.0397 316751.3 1
  227.0721 400010.5 1
  228.0803 686976.9 3
  246.0912 3651627.3 16
  256.0756 62422017.9 290
  274.0861 21035120.8 97
//
