ACCESSION: MSBNK-Eawag-EQ00355401
RECORD_TITLE: Triasulfuron; LC-ESI-QFT; MS2; CE: 15%; R=15000; [M+H]+
DATE: 2024.06.14
AUTHORS: F. Jud [dtc], K. Arturi [dtc], J. Hollender [dtc], A. Dax [com]
LICENSE: CC BY-SA
COPYRIGHT: Copyright (C) Eawag 2024
COMMENT: CONFIDENCE standard compound
COMMENT: UCHEM_ID 3554
CH$NAME: Triasulfuron
CH$NAME: 1-[2-(2-chloroethoxy)phenyl]sulfonyl-3-(4-methoxy-6-methyl-1,3,5-triazin-2-yl)urea
CH$COMPOUND_CLASS: N/A
CH$FORMULA: C14H16ClN5O5S
CH$EXACT_MASS: 401.0560673
CH$SMILES: CC1=NC(=NC(=N1)OC)NC(=O)NS(=O)(=O)C2=CC=CC=C2OCCCl
CH$IUPAC: InChI=1S/C14H16ClN5O5S/c1-9-16-12(19-14(17-9)24-2)18-13(21)20-26(22,23)11-6-4-3-5-10(11)25-8-7-15/h3-6H,7-8H2,1-2H3,(H2,16,17,18,19,20,21)
CH$LINK: CAS 86725-08-8
CH$LINK: CHEBI CHEBI:9673
CH$LINK: KEGG C10961
CH$LINK: PUBCHEM CID:73282
CH$LINK: INCHIKEY XOPFESVZMSQIKC-UHFFFAOYSA-N
CH$LINK: CHEMSPIDER 66025
AC$INSTRUMENT: Exploris 240 Thermo Scientific
AC$INSTRUMENT_TYPE: LC-ESI-QFT
AC$MASS_SPECTROMETRY: MS_TYPE MS2
AC$MASS_SPECTROMETRY: ION_MODE POSITIVE
AC$MASS_SPECTROMETRY: IONIZATION ESI
AC$MASS_SPECTROMETRY: FRAGMENTATION_MODE HCD
AC$MASS_SPECTROMETRY: COLLISION_ENERGY 15 % (nominal)
AC$MASS_SPECTROMETRY: RESOLUTION 15000
AC$MASS_SPECTROMETRY: MASS_RANGE_M/Z 50-431
AC$CHROMATOGRAPHY: COLUMN_NAME XBridge C18 3.5um, 2.1x50mm, Waters
AC$CHROMATOGRAPHY: FLOW_GRADIENT 90/10 at 0 min, 50/50 at 4 min, 5/95 at 17 min, 5/95 at 25 min, 90/10 at 25.1 min, 90/10 at 30 min
AC$CHROMATOGRAPHY: FLOW_RATE 200 uL/min
AC$CHROMATOGRAPHY: RETENTION_TIME 5.566 min
MS$FOCUSED_ION: BASE_PEAK 402.063
MS$FOCUSED_ION: PRECURSOR_M/Z 402.0633
MS$FOCUSED_ION: PRECURSOR_TYPE [M+H]+
MS$DATA_PROCESSING: RECALIBRATE loess on assigned fragments and MS1
MS$DATA_PROCESSING: REANALYZE Peaks with additional N2/O included
MS$DATA_PROCESSING: WHOLE RMassBank 3.15.1.1
PK$SPLASH: splash10-0udi-0300900000-1367a36a83abed54cf5f
PK$ANNOTATION: m/z tentative_formula formula_count mass error(ppm)
  141.077 C5H9N4O+ 2 141.0771 -0.83
  167.0562 C6H7N4O2+ 3 167.0564 -1.05
  402.0632 C14H17ClN5O5S+ 1 402.0633 -0.42
PK$NUM_PEAK: 3
PK$PEAK: m/z int. rel.int.
  141.077 9830442 115
  167.0562 22031292 259
  402.0632 84768624 999
//
