ACCESSION: MSBNK-Eawag-EQ348756
RECORD_TITLE: Iodosulfuron-methyl; LC-ESI-QFT; MS2; CE: 90; R=35000; [M-H]-
DATE: 2015.08.26
AUTHORS: Stravs M, Schymanski E, Singer H, Department of Environmental Chemistry, Eawag and Thomaidis N, University of Athens
LICENSE: CC BY
COPYRIGHT: Copyright (C) 2015 Eawag, Duebendorf, Switzerland
COMMENT: CONFIDENCE standard compound
COMMENT: EAWAG_UCHEM_ID 3487
CH$NAME: Iodosulfuron-methyl
CH$NAME: Methyl 4-iodo-2-(N-(4-methoxy-6-methyl-1,3,5-triazin-2-ylcarbamoyl)sulfamoyl)benzoate
CH$NAME: Methyl 4-iodo-2-[(4-methoxy-6-methyl-1,3,5-triazin-2-yl)carbamoylsulfamoyl]benzoate
CH$COMPOUND_CLASS: N/A; Environmental Standard
CH$FORMULA: C14H14IN5O6S
CH$EXACT_MASS: 506.97095
CH$SMILES: Cc2nc(NC(=O)NS(=O)(=O)c1cc(I)ccc1C(=O)OC)nc(OC)n2
CH$IUPAC: InChI=1S/C14H14IN5O6S/c1-7-16-12(19-14(17-7)26-3)18-13(22)20-27(23,24)10-6-8(15)4-5-9(10)11(21)25-2/h4-6H,1-3H3,(H2,16,17,18,19,20,22)
CH$LINK: CAS 144550-36-7
CH$LINK: PUBCHEM CID:11027582
CH$LINK: INCHIKEY VWGAYSCWLXQJBQ-UHFFFAOYSA-N
CH$LINK: CHEMSPIDER 9202762
CH$LINK: COMPTOX DTXSID1043968
AC$INSTRUMENT: Q Exactive Plus Orbitrap Thermo Scientific
AC$INSTRUMENT_TYPE: LC-ESI-QFT
AC$MASS_SPECTROMETRY: MS_TYPE MS2
AC$MASS_SPECTROMETRY: ION_MODE NEGATIVE
AC$MASS_SPECTROMETRY: IONIZATION ESI
AC$MASS_SPECTROMETRY: FRAGMENTATION_MODE HCD
AC$MASS_SPECTROMETRY: COLLISION_ENERGY 90 (nominal)
AC$MASS_SPECTROMETRY: RESOLUTION 35000
AC$CHROMATOGRAPHY: COLUMN_NAME XBridge C18 3.5um, 2.1x50mm, Waters
AC$CHROMATOGRAPHY: FLOW_GRADIENT 90/10 at 0 min, 50/50 at 4 min, 5/95 at 17 min, 5/95 at 25 min, 90/10 at 25.1 min, 90/10 at 30 min
AC$CHROMATOGRAPHY: FLOW_RATE 200 ul/min
AC$CHROMATOGRAPHY: RETENTION_TIME 9.2 min
AC$CHROMATOGRAPHY: SOLVENT A water with 0.1% formic acid
AC$CHROMATOGRAPHY: SOLVENT B methanol with 0.1% formic acid
MS$FOCUSED_ION: BASE_PEAK 505.9636
MS$FOCUSED_ION: PRECURSOR_M/Z 505.9637
MS$FOCUSED_ION: PRECURSOR_TYPE [M-H]-
MS$DATA_PROCESSING: RECALIBRATE loess on assigned fragments and MS1
MS$DATA_PROCESSING: REANALYZE Peaks with additional N2/O included
MS$DATA_PROCESSING: WHOLE RMassBank 1.9.6
PK$SPLASH: splash10-066r-9800000000-d1c8232fa40cadd9d849
PK$ANNOTATION: m/z tentative_formula formula_count mass error(ppm)
  55.0302 C2H3N2- 1 55.0302 0.7
  61.9707 NOS- 1 61.9706 1.32
  64.0067 C3N2- 1 64.0067 0.52
  65.0146 C3HN2- 1 65.0145 1.51
  66.0099 C2N3- 1 66.0098 1.51
  81.0333 C3H3N3- 1 81.0332 0.67
  82.0412 C3H4N3- 1 82.0411 0.97
  92.013 C3N4- 1 92.0128 1.8
  96.0568 C4H6N3- 1 96.0567 1.35
  97.041 C4H5N2O- 1 97.0407 2.3
  98.0361 C3H4N3O- 1 98.036 0.97
  106.0063 C6H2O2- 1 106.006 2.57
  107.0365 C4H3N4- 1 107.0363 1.4
  109.0521 C4H5N4- 1 109.052 0.83
  120.0093 C6H2NO2- 1 120.0091 1.32
  124.0392 C4H4N4O- 1 124.0391 1.05
  125.047 C4H5N4O- 1 125.0469 0.76
  126.9052 I- 1 126.905 1.25
  137.0469 C5H5N4O- 1 137.0469 -0.25
  139.0627 C5H7N4O- 1 139.0625 1.26
  156.0292 C4H4N4O3- 1 156.0289 1.93
  180.9842 C7H3NO3S- 1 180.9839 1.81
  183.971 C6H2NO4S- 1 183.971 0.26
  307.8894 C7H3INO3S- 1 307.8884 3.36
PK$NUM_PEAK: 24
PK$PEAK: m/z int. rel.int.
  55.0302 3544867 181
  61.9707 246943.7 12
  64.0067 115423.4 5
  65.0146 11368099 580
  66.0099 13880114 709
  81.0333 508291.5 25
  82.0412 4072804 208
  92.013 20196.9 1
  96.0568 123384.3 6
  97.041 40815.1 2
  98.0361 239418.5 12
  106.0063 39445.1 2
  107.0365 19548718 999
  109.0521 870246.2 44
  120.0093 118100.7 6
  124.0392 1367528.2 69
  125.047 1694848.6 86
  126.9052 922171.9 47
  137.0469 22074.5 1
  139.0627 8390355 428
  156.0292 92149.3 4
  180.9842 760245.1 38
  183.971 27489.7 1
  307.8894 40843.7 2
//
