ACCESSION: MSBNK-Eawag-EQ01129602
RECORD_TITLE: Desmethyl-Pirimicarb; LC-ESI-QFT; MS2; CE: 30%; R=17500; [M+H]+
DATE: 2023.04.27
AUTHORS: B. Beck [dtc,com], J. Hollender [dtc]
LICENSE: CC BY-SA
COPYRIGHT: Copyright (C) Eawag 2023
COMMENT: CONFIDENCE standard compound
COMMENT: UCHEM_ID 11296
CH$NAME: Desmethyl-Pirimicarb
CH$NAME: 5,6-Dimethyl-2-(methylamino)-4-pyrimidinyl dimethylcarbamate
CH$NAME: [5,6-dimethyl-2-(methylamino)pyrimidin-4-yl] N,N-dimethylcarbamate
CH$COMPOUND_CLASS: N/A; Environmental Standard
CH$FORMULA: C10H16N4O2
CH$EXACT_MASS: 224.1273
CH$SMILES: CC1=C(N=C(N=C1OC(=O)N(C)C)NC)C
CH$IUPAC: InChI=1S/C10H16N4O2/c1-6-7(2)12-9(11-3)13-8(6)16-10(15)14(4)5/h1-5H3,(H,11,12,13)
CH$LINK: CAS 31786-65-9
CH$LINK: PUBCHEM CID:93139
CH$LINK: INCHIKEY GTKRZJVAXAQBMB-UHFFFAOYSA-N
CH$LINK: CHEMSPIDER 84084
AC$INSTRUMENT: Exploris 240 Orbitrap Thermo Scientific
AC$INSTRUMENT_TYPE: LC-ESI-QFT
AC$MASS_SPECTROMETRY: MS_TYPE MS2
AC$MASS_SPECTROMETRY: ION_MODE POSITIVE
AC$MASS_SPECTROMETRY: IONIZATION ESI
AC$MASS_SPECTROMETRY: FRAGMENTATION_MODE HCD
AC$MASS_SPECTROMETRY: COLLISION_ENERGY 30 % (nominal)
AC$MASS_SPECTROMETRY: RESOLUTION 17500
AC$MASS_SPECTROMETRY: MASS_RANGE_M/Z 50-251
AC$CHROMATOGRAPHY: COLUMN_NAME XBridge C18 3.5um, 2.1x50mm, Waters
AC$CHROMATOGRAPHY: FLOW_GRADIENT 90/10 at 0 min, 50/50 at 4 min, 5/95 at 17 min, 5/95 at 25 min, 90/10 at 25.1 min, 90/10 at 30 min
AC$CHROMATOGRAPHY: FLOW_RATE 200 uL/min
AC$CHROMATOGRAPHY: RETENTION_TIME 2.964 min
MS$FOCUSED_ION: BASE_PEAK 225.1343
MS$FOCUSED_ION: PRECURSOR_M/Z 225.1346
MS$FOCUSED_ION: PRECURSOR_TYPE [M+H]+
MS$DATA_PROCESSING: RECALIBRATE loess on assigned fragments and MS1
MS$DATA_PROCESSING: REANALYZE Peaks with additional N2/O included
MS$DATA_PROCESSING: WHOLE RMassBank 3.11.0.1
PK$SPLASH: splash10-0100-9850000000-f8e51c43d96ffe4ff88b
PK$ANNOTATION: m/z tentative_formula formula_count mass error(ppm)
  72.0443 C3H6NO+ 1 72.0444 -0.76
  85.0759 C4H9N2+ 1 85.076 -1.55
  168.113 C8H14N3O+ 1 168.1131 -0.64
  180.0768 C8H10N3O2+ 1 180.0768 0.13
  181.1449 C9H17N4+ 1 181.1448 0.65
  225.1345 C10H17N4O2+ 1 225.1346 -0.56
PK$NUM_PEAK: 6
PK$PEAK: m/z int. rel.int.
  72.0443 284319872 999
  85.0759 7848791.5 27
  168.113 213314992 749
  180.0768 42401144 148
  181.1449 13657690 47
  225.1345 171902000 604
//
