ACCESSION: MSBNK-Eawag-EA030604
RECORD_TITLE: Terbutryn; LC-ESI-ITFT; MS2; CE: 45%; R=7500; [M+H]+
DATE: 2014.01.14
AUTHORS: Stravs M, Schymanski E, Singer H, Department of Environmental Chemistry, Eawag
LICENSE: CC BY
COPYRIGHT: Copyright (C) 2012 Eawag, Duebendorf, Switzerland
COMMENT: CONFIDENCE standard compound
COMMENT: EAWAG_UCHEM_ID 306
CH$NAME: Terbutryn
CH$NAME: 2-N-tert-butyl-4-N-ethyl-6-methylsulfanyl-1,3,5-triazine-2,4-diamine
CH$COMPOUND_CLASS: N/A; Environmental Standard
CH$FORMULA: C10H19N5S
CH$EXACT_MASS: 241.1356
CH$SMILES: c1(nc(nc(n1)SC)NCC)NC(C)(C)C
CH$IUPAC: InChI=1S/C10H19N5S/c1-6-11-7-12-8(15-10(2,3)4)14-9(13-7)16-5/h6H2,1-5H3,(H2,11,12,13,14,15)
CH$LINK: CAS 886-50-0
CH$LINK: CHEBI CHEBI:44156
CH$LINK: PUBCHEM CID:13450
CH$LINK: INCHIKEY IROINLKCQGIITA-UHFFFAOYSA-N
CH$LINK: CHEMSPIDER 12874
CH$LINK: COMPTOX DTXSID3024318
AC$INSTRUMENT: LTQ Orbitrap XL Thermo Scientific
AC$INSTRUMENT_TYPE: LC-ESI-ITFT
AC$MASS_SPECTROMETRY: MS_TYPE MS2
AC$MASS_SPECTROMETRY: ION_MODE POSITIVE
AC$MASS_SPECTROMETRY: IONIZATION ESI
AC$MASS_SPECTROMETRY: FRAGMENTATION_MODE HCD
AC$MASS_SPECTROMETRY: COLLISION_ENERGY 45 % (nominal)
AC$MASS_SPECTROMETRY: RESOLUTION 7500
AC$CHROMATOGRAPHY: COLUMN_NAME XBridge C18 3.5um, 2.1x50mm, Waters
AC$CHROMATOGRAPHY: FLOW_GRADIENT 90/10 at 0 min, 50/50 at 4 min, 5/95 at 17 min, 5/95 at 25 min, 90/10 at 25.1 min, 90/10 at 30 min
AC$CHROMATOGRAPHY: FLOW_RATE 200 ul/min
AC$CHROMATOGRAPHY: RETENTION_TIME 8.5 min
AC$CHROMATOGRAPHY: SOLVENT A water with 0.1% formic acid
AC$CHROMATOGRAPHY: SOLVENT B methanol with 0.1% formic acid
MS$FOCUSED_ION: BASE_PEAK 242.1438
MS$FOCUSED_ION: PRECURSOR_M/Z 242.1434
MS$FOCUSED_ION: PRECURSOR_TYPE [M+H]+
MS$DATA_PROCESSING: DEPROFILE Spline
MS$DATA_PROCESSING: RECALIBRATE loess on assigned fragments and MS1
MS$DATA_PROCESSING: REANALYZE Peaks with additional N2/O included
MS$DATA_PROCESSING: WHOLE RMassBank 1.3.1
PK$SPLASH: splash10-000i-0910000000-a2f3c75f16c9a16ba186
PK$ANNOTATION: m/z tentative_formula formula_count mass error(ppm)
  68.0242 C2H2N3+ 1 68.0243 -1.08
  71.0601 C3H7N2+ 1 71.0604 -3.44
  74.0057 C2H4NS+ 1 74.0059 -3.2
  91.0324 C2H7N2S+ 1 91.0324 -0.17
  96.0558 C4H6N3+ 1 96.0556 1.32
  113.0821 C4H9N4+ 1 113.0822 -0.47
  116.0273 C3H6N3S+ 1 116.0277 -3.23
  138.0773 C5H8N5+ 1 138.0774 -0.52
  144.0592 C5H10N3S+ 1 144.059 1.15
  158.0495 C4H8N5S+ 1 158.0495 0.17
  171.0568 C5H9N5S+ 1 171.0573 -2.85
  186.081 C6H12N5S+ 1 186.0808 0.84
  242.144 C10H20N5S+ 1 242.1434 2.67
PK$NUM_PEAK: 13
PK$PEAK: m/z int. rel.int.
  68.0242 54996.1 2
  71.0601 107415.8 4
  74.0057 53543.5 2
  91.0324 349811.9 15
  96.0558 114865.8 5
  113.0821 53493.6 2
  116.0273 49814.7 2
  138.0773 170658 7
  144.0592 154152 6
  158.0495 351796.3 15
  171.0568 54460 2
  186.081 22245836.4 999
  242.144 4286263.9 192
//
