ACCESSION: MSBNK-Eawag-EQ00381301
RECORD_TITLE: Prothioconazole; LC-ESI-QFT; MS2; CE: 15%; R=15000; [M+H]+
DATE: 2024.06.14
AUTHORS: F. Jud [dtc], K. Arturi [dtc], J. Hollender [dtc], A. Dax [com]
LICENSE: CC BY-SA
COPYRIGHT: Copyright (C) Eawag 2024
COMMENT: CONFIDENCE standard compound
COMMENT: UCHEM_ID 3813
CH$NAME: Prothioconazole
CH$NAME: 2-[2-(1-chlorocyclopropyl)-3-(2-chlorophenyl)-2-hydroxypropyl]-1H-1,2,4-triazole-3-thione
CH$COMPOUND_CLASS: N/A
CH$FORMULA: C14H15Cl2N3OS
CH$EXACT_MASS: 343.0312885
CH$SMILES: C1CC1(C(CC2=CC=CC=C2Cl)(CN3C(=S)N=CN3)O)Cl
CH$IUPAC: InChI=1S/C14H15Cl2N3OS/c15-11-4-2-1-3-10(11)7-14(20,13(16)5-6-13)8-19-12(21)17-9-18-19/h1-4,9,20H,5-8H2,(H,17,18,21)
CH$LINK: CAS 178928-70-6
CH$LINK: CHEBI CHEBI:84008
CH$LINK: KEGG C18888
CH$LINK: PUBCHEM CID:6451142
CH$LINK: INCHIKEY MNHVNIJQQRJYDH-UHFFFAOYSA-N
CH$LINK: CHEMSPIDER 4953623
AC$INSTRUMENT: Exploris 240 Thermo Scientific
AC$INSTRUMENT_TYPE: LC-ESI-QFT
AC$MASS_SPECTROMETRY: MS_TYPE MS2
AC$MASS_SPECTROMETRY: ION_MODE POSITIVE
AC$MASS_SPECTROMETRY: IONIZATION ESI
AC$MASS_SPECTROMETRY: FRAGMENTATION_MODE HCD
AC$MASS_SPECTROMETRY: COLLISION_ENERGY 15 % (nominal)
AC$MASS_SPECTROMETRY: RESOLUTION 15000
AC$MASS_SPECTROMETRY: MASS_RANGE_M/Z 50-372
AC$CHROMATOGRAPHY: COLUMN_NAME XBridge C18 3.5um, 2.1x50mm, Waters
AC$CHROMATOGRAPHY: FLOW_GRADIENT 90/10 at 0 min, 50/50 at 4 min, 5/95 at 17 min, 5/95 at 25 min, 90/10 at 25.1 min, 90/10 at 30 min
AC$CHROMATOGRAPHY: FLOW_RATE 200 uL/min
AC$CHROMATOGRAPHY: RETENTION_TIME 11.770 min
MS$FOCUSED_ION: BASE_PEAK 344.0382
MS$FOCUSED_ION: PRECURSOR_M/Z 344.0386
MS$FOCUSED_ION: PRECURSOR_TYPE [M+H]+
MS$DATA_PROCESSING: RECALIBRATE loess on assigned fragments and MS1
MS$DATA_PROCESSING: REANALYZE Peaks with additional N2/O included
MS$DATA_PROCESSING: WHOLE RMassBank 3.15.1.1
PK$SPLASH: splash10-004i-0009000000-839c7246ba9eb976c48b
PK$ANNOTATION: m/z tentative_formula formula_count mass error(ppm)
  102.012 C2H4N3S+ 1 102.012 -0.17
  225.0229 C12H11Cl2+ 1 225.0232 -1.65
  290.0515 C14H13ClN3S+ 1 290.0513 0.62
  326.0276 C14H14Cl2N3S+ 1 326.028 -1.12
PK$NUM_PEAK: 4
PK$PEAK: m/z int. rel.int.
  102.012 438967.8 11
  225.0229 984193.3 25
  290.0515 1364244.9 34
  326.0276 39169684 999
//
