ACCESSION: MSBNK-Eawag-EQ016856
RECORD_TITLE: Triclosan; LC-ESI-QFT; MS2; CE: 90; R=35000; [M-H]-
DATE: 2015.08.26
AUTHORS: Beck B, Stravs M, Schymanski E, Singer H, Department of Environmental Chemistry, Eawag
LICENSE: CC BY
COPYRIGHT: Copyright (C) 2015 Eawag, Duebendorf, Switzerland
COMMENT: CONFIDENCE standard compound
COMMENT: EAWAG_UCHEM_ID 168
CH$NAME: Triclosan
CH$NAME: 5-chloro-2-(2,4-dichlorophenoxy)phenol
CH$COMPOUND_CLASS: N/A; Environmental Standard
CH$FORMULA: C12H7Cl3O2
CH$EXACT_MASS: 287.95116
CH$SMILES: c1(Oc2c(cc(Cl)cc2)Cl)c(cc(Cl)cc1)O
CH$IUPAC: InChI=1S/C12H7Cl3O2/c13-7-1-3-11(9(15)5-7)17-12-4-2-8(14)6-10(12)16/h1-6,16H
CH$LINK: CAS 3380-34-5
CH$LINK: CHEBI CHEBI:164200
CH$LINK: KEGG C12059
CH$LINK: PUBCHEM CID:5564
CH$LINK: INCHIKEY XEFQLINVKFYRCS-UHFFFAOYSA-N
CH$LINK: CHEMSPIDER 5363
CH$LINK: COMPTOX DTXSID5032498
AC$INSTRUMENT: Q Exactive Plus Orbitrap Thermo Scientific
AC$INSTRUMENT_TYPE: LC-ESI-QFT
AC$MASS_SPECTROMETRY: MS_TYPE MS2
AC$MASS_SPECTROMETRY: ION_MODE NEGATIVE
AC$MASS_SPECTROMETRY: IONIZATION ESI
AC$MASS_SPECTROMETRY: FRAGMENTATION_MODE HCD
AC$MASS_SPECTROMETRY: COLLISION_ENERGY 90 (nominal)
AC$MASS_SPECTROMETRY: RESOLUTION 35000
AC$CHROMATOGRAPHY: COLUMN_NAME XBridge C18 3.5um, 2.1x50mm, Waters
AC$CHROMATOGRAPHY: FLOW_GRADIENT 90/10 at 0 min, 50/50 at 4 min, 5/95 at 17 min, 5/95 at 25 min, 90/10 at 25.1 min, 90/10 at 30 min
AC$CHROMATOGRAPHY: FLOW_RATE 200 ul/min
AC$CHROMATOGRAPHY: RETENTION_TIME 14.8 min
AC$CHROMATOGRAPHY: SOLVENT A water with 0.1% formic acid
AC$CHROMATOGRAPHY: SOLVENT B methanol with 0.1% formic acid
MS$FOCUSED_ION: BASE_PEAK 286.9437
MS$FOCUSED_ION: PRECURSOR_M/Z 286.9439
MS$FOCUSED_ION: PRECURSOR_TYPE [M-H]-
MS$DATA_PROCESSING: RECALIBRATE loess on assigned fragments and MS1
MS$DATA_PROCESSING: REANALYZE Peaks with additional N2/O included
MS$DATA_PROCESSING: WHOLE RMassBank 1.9.6
PK$SPLASH: splash10-01ox-1900000000-3924bb3259de13cc0c32
PK$ANNOTATION: m/z tentative_formula formula_count mass error(ppm)
  89.0032 C6HO- 1 89.0033 -0.77
  141.9824 C6H3ClO2- 1 141.9827 -1.87
  160.9567 C6H3Cl2O- 1 160.9566 0.23
PK$NUM_PEAK: 3
PK$PEAK: m/z int. rel.int.
  89.0032 18347.4 240
  141.9824 76365 999
  160.9567 54334 710
//
