ACCESSION: MSBNK-Eawag-EQ500152
RECORD_TITLE: Chlorothalonil TP SYN548581; LC-ESI-QFT; MS2; CE: 30%; R=15000; [M-H]-
DATE: 2021.03.16
AUTHORS: K. Kiefer [dtc], J. Hollender [dtc], H. Singer [dtc], B. Lauper [com]
LICENSE: CC BY-SA
COPYRIGHT: Copyright (C) Eawag 2019
PUBLICATION: Kiefer, K.; Mueller, A.; Singer, H.; Hollender, J. New relevant pesticide transformation products in groundwater detected using target and suspect screening for agricultural and urban micropollutants with LC-HRMS. Water Research 2019, 165. DOI: https://doi.org/10.1016/j.watres.2019.114972
COMMENT: CONFIDENCE standard compound
COMMENT: UCHEM_ID 5001
CH$NAME: Chlorothalonil TP SYN548581
CH$NAME: 4-carbamoyl-2,3,5-trichloro-6-cyanobenzenesulfonic acid
CH$COMPOUND_CLASS: N/A; Environmental Standard
CH$FORMULA: C8H3Cl3N2O4S
CH$EXACT_MASS: 327.8879
CH$SMILES: NC(=O)C1=C(Cl)C(Cl)=C(C(C#N)=C1Cl)S(O)(=O)=O
CH$IUPAC: InChI=1S/C8H3Cl3N2O4S/c9-4-2(1-12)7(18(15,16)17)6(11)5(10)3(4)8(13)14/h(H2,13,14)(H,15,16,17)
CH$LINK: PUBCHEM CID:139595145
CH$LINK: INCHIKEY GTKOZWUQRHEXJR-UHFFFAOYSA-N
CH$LINK: CHEMSPIDER 95550156
AC$INSTRUMENT: Orbitrap Exploris 240 Thermo Scientific
AC$INSTRUMENT_TYPE: LC-ESI-QFT
AC$MASS_SPECTROMETRY: MS_TYPE MS2
AC$MASS_SPECTROMETRY: ION_MODE NEGATIVE
AC$MASS_SPECTROMETRY: IONIZATION ESI
AC$MASS_SPECTROMETRY: FRAGMENTATION_MODE HCD
AC$MASS_SPECTROMETRY: COLLISION_ENERGY 30 % (nominal)
AC$MASS_SPECTROMETRY: RESOLUTION 15000
AC$MASS_SPECTROMETRY: MASS_RANGE_M/Z NA-NA
AC$CHROMATOGRAPHY: COLUMN_NAME Atlantis C18 3um, 3.0x150mm, Waters
AC$CHROMATOGRAPHY: FLOW_GRADIENT 100/0 at 0 min, 100/0 at 1.5 min, 5/95 at 18.5 min, 5/95 at 28.5 min, 100/0 at 29 min, 100/0 at 33 min
AC$CHROMATOGRAPHY: FLOW_RATE 300 uL/min
AC$CHROMATOGRAPHY: RETENTION_TIME 10.493 min
MS$FOCUSED_ION: BASE_PEAK 326.8808
MS$FOCUSED_ION: PRECURSOR_M/Z 326.8806
MS$FOCUSED_ION: PRECURSOR_TYPE [M-H]-
MS$FOCUSED_ION: PRECURSOR_INTENSITY 53505816
MS$DATA_PROCESSING: RECALIBRATE loess on assigned fragments and MS1
MS$DATA_PROCESSING: REANALYZE Peaks with additional N2/O included
MS$DATA_PROCESSING: WHOLE RMassBank 2.99.4
PK$SPLASH: splash10-004j-0089000000-58263d1a1d4bd480d936
PK$ANNOTATION: m/z tentative_formula formula_count mass error(ppm)
  114.9264 ClO3S- 1 114.9262 1.23
  203.9178 C7HCl3N- 2 203.918 -0.89
  210.947 C8HCl2N2O- 1 210.9471 -0.59
  219.9122 C2H2Cl2N2O4S- 2 219.9118 1.96
  226.9422 C8HCl2N2O2- 1 226.9421 0.8
  246.924 C8H2Cl3N2O- 1 246.9238 0.54
  262.9188 C8H2Cl3N2O2- 1 262.9187 0.35
  326.8808 C8H2Cl3N2O4S- 1 326.8806 0.57
PK$NUM_PEAK: 8
PK$PEAK: m/z int. rel.int.
  114.9264 337400.4 16
  203.9178 943485.8 46
  210.947 140567.3 6
  219.9122 301861 14
  226.9422 67667.2 3
  246.924 13056781 636
  262.9188 5912139 288
  326.8808 20480332 999
//
