ACCESSION: MSBNK-Eawag-EQ313552
RECORD_TITLE: Didanosine; LC-ESI-QFT; MS2; CE: 30; R=35000; [M-H]-
DATE: 2015.08.25
AUTHORS: Beck B, Stravs M, Schymanski E, Singer H, Department of Environmental Chemistry, Eawag
LICENSE: CC BY
COPYRIGHT: Copyright (C) 2015 Eawag, Duebendorf, Switzerland
COMMENT: CONFIDENCE standard compound
COMMENT: EAWAG_UCHEM_ID 3135
CH$NAME: Didanosine
CH$NAME: 9-[(2R,5S)-5-(hydroxymethyl)-2-oxolanyl]-3H-purin-6-one
CH$COMPOUND_CLASS: N/A; Environmental Standard
CH$FORMULA: C10H12N4O3
CH$EXACT_MASS: 236.09094
CH$SMILES: O=C3/N=C\Nc1c3ncn1[C@@H]2O[C@@H](CC2)CO
CH$IUPAC: InChI=1S/C10H12N4O3/c15-3-6-1-2-7(17-6)14-5-13-8-9(14)11-4-12-10(8)16/h4-7,15H,1-3H2,(H,11,12,16)/t6-,7+/m0/s1
CH$LINK: CAS 69655-05-6
CH$LINK: CHEMSPIDER 45864
CH$LINK: COMPTOX DTXSID6022927
CH$LINK: INCHIKEY BXZVVICBKDXVGW-NKWVEPMBSA-N
CH$LINK: KEGG C06953
CH$LINK: PUBCHEM CID:135398739
AC$INSTRUMENT: Q Exactive Orbitrap Thermo Scientific
AC$INSTRUMENT_TYPE: LC-ESI-QFT
AC$MASS_SPECTROMETRY: MS_TYPE MS2
AC$MASS_SPECTROMETRY: ION_MODE NEGATIVE
AC$MASS_SPECTROMETRY: IONIZATION ESI
AC$MASS_SPECTROMETRY: FRAGMENTATION_MODE HCD
AC$MASS_SPECTROMETRY: COLLISION_ENERGY 30 (nominal)
AC$MASS_SPECTROMETRY: RESOLUTION 35000
AC$CHROMATOGRAPHY: COLUMN_NAME XBridge C18 3.5um, 2.1x50mm, Waters
AC$CHROMATOGRAPHY: FLOW_GRADIENT 90/10 at 0 min, 50/50 at 4 min, 5/95 at 17 min, 5/95 at 25 min, 90/10 at 25.1 min, 90/10 at 30 min
AC$CHROMATOGRAPHY: FLOW_RATE 200 ul/min
AC$CHROMATOGRAPHY: RETENTION_TIME 2.3 min
AC$CHROMATOGRAPHY: SOLVENT A water with 0.1% formic acid
AC$CHROMATOGRAPHY: SOLVENT B methanol with 0.1% formic acid
MS$FOCUSED_ION: BASE_PEAK 235.0838
MS$FOCUSED_ION: PRECURSOR_M/Z 235.0837
MS$FOCUSED_ION: PRECURSOR_TYPE [M-H]-
MS$DATA_PROCESSING: DEPROFILE Spline
MS$DATA_PROCESSING: RECALIBRATE loess on assigned fragments and MS1
MS$DATA_PROCESSING: REANALYZE Peaks with additional N2/O included
MS$DATA_PROCESSING: WHOLE RMassBank 1.9.6
PK$SPLASH: splash10-000i-0490000000-0ac04c4f4e817e6da391
PK$ANNOTATION: m/z tentative_formula formula_count mass error(ppm)
  92.0254 C4H2N3- 1 92.0254 -0.33
  108.0201 C4H2N3O- 1 108.0203 -1.9
  126.031 C4H4N3O2- 1 126.0309 0.56
  132.0568 C7H6N3- 1 132.0567 0.45
  134.0233 C5H2N4O- 1 134.0234 -0.59
  135.0313 C5H3N4O- 1 135.0312 0.34
  175.0624 C8H7N4O- 1 175.0625 -0.94
  192.0779 C9H10N3O2- 1 192.0779 0.05
  217.0728 C10H9N4O2- 1 217.0731 -1.33
  233.0681 C10H9N4O3- 1 233.068 0.46
  235.0836 C10H11N4O3- 1 235.0837 -0.44
PK$NUM_PEAK: 11
PK$PEAK: m/z int. rel.int.
  92.0254 50504.1 4
  108.0201 32041.7 2
  126.031 22128.3 1
  132.0568 46699.9 3
  134.0233 184434.9 15
  135.0313 4781591.2 399
  175.0624 294107.2 24
  192.0779 58691.1 4
  217.0728 29784.6 2
  233.0681 96071.5 8
  235.0836 11958873.9 999
//
