ACCESSION: MSBNK-Eawag-EQ01045601
RECORD_TITLE: Hexa(methoxymethyl)melamine; LC-ESI-QFT; MS2; CE: 15%; R=17500; [M+H]+
DATE: 2024.05.08
AUTHORS: C. Meyer [dtc], B. Beck [dtc,com], J. Hollender [dtc]
LICENSE: CC BY-SA
COPYRIGHT: Copyright (C) Eawag 2023
PUBLICATION: Meyer, C., Stravs, M., Hollender, J.. How Wastewater Reflects Human Metabolism - Suspect Screening of Pharmaceutical Metabolites in Wastewater Influent. doi:10.1021/acs.est.4c00968
COMMENT: CONFIDENCE standard compound
COMMENT: UCHEM_ID 10456
CH$NAME: Hexa(methoxymethyl)melamine
CH$NAME: 2-N,2-N,4-N,4-N,6-N,6-N-hexakis(methoxymethyl)-1,3,5-triazine-2,4,6-triamine
CH$COMPOUND_CLASS: N/A; Environmental Standard
CH$FORMULA: C15H30N6O6
CH$EXACT_MASS: 390.2226827
CH$SMILES: COCN(COC)C1=NC(=NC(=N1)N(COC)COC)N(COC)COC
CH$IUPAC: InChI=1S/C15H30N6O6/c1-22-7-19(8-23-2)13-16-14(20(9-24-3)10-25-4)18-15(17-13)21(11-26-5)12-27-6/h7-12H2,1-6H3
CH$LINK: PUBCHEM CID:62479
CH$LINK: INCHIKEY BNCADMBVWNPPIZ-UHFFFAOYSA-N
CH$LINK: CHEMSPIDER 56259
AC$INSTRUMENT: Exploris 240 Orbitrap Thermo Scientific
AC$INSTRUMENT_TYPE: LC-ESI-QFT
AC$MASS_SPECTROMETRY: MS_TYPE MS2
AC$MASS_SPECTROMETRY: ION_MODE POSITIVE
AC$MASS_SPECTROMETRY: IONIZATION ESI
AC$MASS_SPECTROMETRY: FRAGMENTATION_MODE HCD
AC$MASS_SPECTROMETRY: COLLISION_ENERGY 15 % (nominal)
AC$MASS_SPECTROMETRY: RESOLUTION 17500
AC$MASS_SPECTROMETRY: MASS_RANGE_M/Z 50-420
AC$CHROMATOGRAPHY: COLUMN_NAME XBridge C18 3.5um, 2.1x50mm, Waters
AC$CHROMATOGRAPHY: FLOW_GRADIENT 90/10 at 0 min, 50/50 at 4 min, 5/95 at 17 min, 5/95 at 25 min, 90/10 at 25.1 min, 90/10 at 30 min
AC$CHROMATOGRAPHY: FLOW_RATE 200 uL/min
AC$CHROMATOGRAPHY: RETENTION_TIME 6.393 min
MS$FOCUSED_ION: BASE_PEAK 359.2034
MS$FOCUSED_ION: PRECURSOR_M/Z 391.23
MS$FOCUSED_ION: PRECURSOR_TYPE [M+H]+
MS$DATA_PROCESSING: RECALIBRATE loess on assigned fragments and MS1
MS$DATA_PROCESSING: REANALYZE Peaks with additional N2/O included
MS$DATA_PROCESSING: WHOLE RMassBank 3.15.1
PK$SPLASH: splash10-001i-0090000000-30fab00041f0e01f6d5b
PK$ANNOTATION: m/z tentative_formula formula_count mass error(ppm)
  207.0987 C8H11N6O+ 1 207.0989 -0.77
  253.1399 C10H17N6O2+ 2 253.1408 -3.48
  283.1512 C11H19N6O3+ 1 283.1513 -0.52
  329.1918 C13H25N6O4+ 1 329.1932 -4.05
PK$NUM_PEAK: 4
PK$PEAK: m/z int. rel.int.
  207.0987 13762098 133
  253.1399 583059.9 5
  283.1512 102780480 999
  329.1918 1925020.5 18
//
