ACCESSION: MSBNK-Eawag-EQ00293602
RECORD_TITLE: Iprovalicarb; LC-ESI-QFT; MS2; CE: 30%; R=15000; [M+H]+
DATE: 2024.06.14
AUTHORS: F. Jud [dtc], K. Arturi [dtc], J. Hollender [dtc], A. Dax [com]
LICENSE: CC BY-SA
COPYRIGHT: Copyright (C) Eawag 2024
COMMENT: CONFIDENCE standard compound
COMMENT: UCHEM_ID 2936
CH$NAME: Iprovalicarb
CH$NAME: Isopropyl (3-methyl-1-{[1-(4-methylphenyl)ethyl]amino}-1-oxobutan-2-yl)carbamate
CH$NAME: propan-2-yl N-[3-methyl-1-[1-(4-methylphenyl)ethylamino]-1-oxobutan-2-yl]carbamate
CH$COMPOUND_CLASS: N/A
CH$FORMULA: C18H28N2O3
CH$EXACT_MASS: 320.2099928
CH$SMILES: CC1=CC=C(C=C1)C(C)NC(=O)C(C(C)C)NC(=O)OC(C)C
CH$IUPAC: InChI=1S/C18H28N2O3/c1-11(2)16(20-18(22)23-12(3)4)17(21)19-14(6)15-9-7-13(5)8-10-15/h7-12,14,16H,1-6H3,(H,19,21)(H,20,22)
CH$LINK: CAS 140923-17-7
CH$LINK: CHEBI CHEBI:83593
CH$LINK: PUBCHEM CID:6914821
CH$LINK: INCHIKEY NWUWYYSKZYIQAE-UHFFFAOYSA-N
CH$LINK: CHEMSPIDER 5290696
AC$INSTRUMENT: Exploris 240 Thermo Scientific
AC$INSTRUMENT_TYPE: LC-ESI-QFT
AC$MASS_SPECTROMETRY: MS_TYPE MS2
AC$MASS_SPECTROMETRY: ION_MODE POSITIVE
AC$MASS_SPECTROMETRY: IONIZATION ESI
AC$MASS_SPECTROMETRY: FRAGMENTATION_MODE HCD
AC$MASS_SPECTROMETRY: COLLISION_ENERGY 30 % (nominal)
AC$MASS_SPECTROMETRY: RESOLUTION 15000
AC$MASS_SPECTROMETRY: MASS_RANGE_M/Z 50-349
AC$CHROMATOGRAPHY: COLUMN_NAME XBridge C18 3.5um, 2.1x50mm, Waters
AC$CHROMATOGRAPHY: FLOW_GRADIENT 90/10 at 0 min, 50/50 at 4 min, 5/95 at 17 min, 5/95 at 25 min, 90/10 at 25.1 min, 90/10 at 30 min
AC$CHROMATOGRAPHY: FLOW_RATE 200 uL/min
AC$CHROMATOGRAPHY: RETENTION_TIME 9.865 min
MS$FOCUSED_ION: BASE_PEAK 321.2171
MS$FOCUSED_ION: PRECURSOR_M/Z 321.2173
MS$FOCUSED_ION: PRECURSOR_TYPE [M+H]+
MS$DATA_PROCESSING: RECALIBRATE loess on assigned fragments and MS1
MS$DATA_PROCESSING: REANALYZE Peaks with additional N2/O included
MS$DATA_PROCESSING: WHOLE RMassBank 3.15.1.1
PK$SPLASH: splash10-014i-0900000000-ff4ba5d9a43d4ab89ccf
PK$ANNOTATION: m/z tentative_formula formula_count mass error(ppm)
  116.0705 C5H10NO2+ 1 116.0706 -0.75
  117.1024 C5H13N2O+ 1 117.1022 1.01
  119.0854 C9H11+ 1 119.0855 -0.84
  144.0654 C6H10NO3+ 1 144.0655 -0.53
  158.1173 C8H16NO2+ 1 158.1176 -1.71
  186.1121 C9H16NO3+ 1 186.1125 -1.9
PK$NUM_PEAK: 6
PK$PEAK: m/z int. rel.int.
  116.0705 21571350 216
  117.1024 4083715.5 41
  119.0854 99402600 999
  144.0654 7260319.5 72
  158.1173 2486205.5 24
  186.1121 3054722 30
//
