ACCESSION: MSBNK-Eawag-EA294214
RECORD_TITLE: Methomyl; LC-ESI-ITFT; MS2; CE: 35%; R=30000; [M+H]+
DATE: 2014.01.14
AUTHORS: Stravs M, Schymanski E, Singer H, Department of Environmental Chemistry, Eawag
LICENSE: CC BY
COPYRIGHT: Copyright (C) 2012 Eawag, Duebendorf, Switzerland
COMMENT: CONFIDENCE standard compound
COMMENT: EAWAG_UCHEM_ID 2942
CH$NAME: Methomyl
CH$NAME: (1E)-N-(methylcarbamoyloxy)ethanimidothioic acid methyl ester
CH$COMPOUND_CLASS: N/A; Environmental Standard
CH$FORMULA: C5H10N2O2S
CH$EXACT_MASS: 162.0463
CH$SMILES: C/C(=N\OC(=O)NC)SC
CH$IUPAC: InChI=1S/C5H10N2O2S/c1-4(10-3)7-9-5(8)6-2/h1-3H3,(H,6,8)/b7-4+
CH$LINK: CAS 16752-77-5
CH$LINK: CHEBI CHEBI:6835
CH$LINK: KEGG C11196
CH$LINK: PUBCHEM CID:4109
CH$LINK: INCHIKEY UHXUZOCRWCRNSJ-QPJJXVBHSA-N
CH$LINK: CHEMSPIDER 3966
AC$INSTRUMENT: LTQ Orbitrap XL Thermo Scientific
AC$INSTRUMENT_TYPE: LC-ESI-ITFT
AC$MASS_SPECTROMETRY: MS_TYPE MS2
AC$MASS_SPECTROMETRY: ION_MODE POSITIVE
AC$MASS_SPECTROMETRY: IONIZATION ESI
AC$MASS_SPECTROMETRY: FRAGMENTATION_MODE CID
AC$MASS_SPECTROMETRY: COLLISION_ENERGY 35 % (nominal)
AC$MASS_SPECTROMETRY: RESOLUTION 30000
AC$CHROMATOGRAPHY: COLUMN_NAME XBridge C18 3.5um, 2.1x50mm, Waters
AC$CHROMATOGRAPHY: FLOW_GRADIENT 90/10 at 0 min, 50/50 at 4 min, 5/95 at 17 min, 5/95 at 25 min, 90/10 at 25.1 min, 90/10 at 30 min
AC$CHROMATOGRAPHY: FLOW_RATE 200 ul/min
AC$CHROMATOGRAPHY: RETENTION_TIME 3.6 min
AC$CHROMATOGRAPHY: SOLVENT A water with 0.1% formic acid
AC$CHROMATOGRAPHY: SOLVENT B methanol with 0.1% formic acid
MS$FOCUSED_ION: BASE_PEAK 163.0536
MS$FOCUSED_ION: PRECURSOR_M/Z 163.0536
MS$FOCUSED_ION: PRECURSOR_TYPE [M+H]+
MS$DATA_PROCESSING: DEPROFILE Spline
MS$DATA_PROCESSING: RECALIBRATE loess on assigned fragments and MS1
MS$DATA_PROCESSING: REANALYZE Peaks with additional N2/O included
MS$DATA_PROCESSING: WHOLE RMassBank 1.3.1
PK$SPLASH: splash10-00y0-9800000000-e1b10436e09d20202a33
PK$ANNOTATION: m/z tentative_formula formula_count mass error(ppm)
  55.0542 C4H7+ 1 55.0542 -1.03
  57.0698 C4H9+ 1 57.0699 -1.52
  65.0055 CH5OS+ 1 65.0056 -0.34
  78.0372 C2H8NS+ 1 78.0372 -0.34
  88.0215 C3H6NS+ 1 88.0215 -0.53
  89.0596 C4H9O2+ 1 89.0597 -0.74
  106.0321 C3H8NOS+ 1 106.0321 -0.48
  107.0702 C4H11O3+ 1 107.0703 -0.57
  118.9789 CHN3O2S+ 1 118.9784 4.47
  122.027 C3H8NO2S+ 1 122.027 -0.54
PK$NUM_PEAK: 10
PK$PEAK: m/z int. rel.int.
  55.0542 3623.9 3
  57.0698 4064.2 3
  65.0055 694747.9 644
  78.0372 2359.8 2
  88.0215 763520 708
  89.0596 177942.9 165
  106.0321 185503.7 172
  107.0702 227738.6 211
  118.9789 8688 8
  122.027 1076089.7 999
//
