ACCESSION: MSBNK-Eawag-EQ01122001
RECORD_TITLE: Cycloxaprid; LC-ESI-QFT; MS2; CE: 15%; R=17500; [M+H]+
DATE: 2023.04.27
AUTHORS: B. Beck [dtc,com], J. Hollender [dtc]
LICENSE: CC BY-SA
COPYRIGHT: Copyright (C) Eawag 2023
COMMENT: CONFIDENCE standard compound
COMMENT: UCHEM_ID 11220
CH$NAME: Cycloxaprid
CH$NAME: 1-((6-chloropyridin-3-yl)methyl)-9-nitro-2,3,5,6,7,8-hexahydro-1H-5,8-epoxyimidazo[1,2-a]azepine
CH$NAME: 5-[(6-chloropyridin-3-yl)methyl]-7-nitro-11-oxa-2,5-diazatricyclo[6.2.1.02,6]undec-6-ene
CH$COMPOUND_CLASS: N/A; Environmental Standard
CH$FORMULA: C14H15ClN4O3
CH$EXACT_MASS: 322.0833
CH$SMILES: C1CC2N3CCN(C3=C(C1O2)[N+](=O)[O-])CC4=CN=C(C=C4)Cl
CH$IUPAC: InChI=1S/C14H15ClN4O3/c15-11-3-1-9(7-16-11)8-17-5-6-18-12-4-2-10(22-12)13(14(17)18)19(20)21/h1,3,7,10,12H,2,4-6,8H2
CH$LINK: PUBCHEM CID:58496250
CH$LINK: INCHIKEY NDHXMRFNYMNBKO-UHFFFAOYSA-N
AC$INSTRUMENT: Exploris 240 Orbitrap Thermo Scientific
AC$INSTRUMENT_TYPE: LC-ESI-QFT
AC$MASS_SPECTROMETRY: MS_TYPE MS2
AC$MASS_SPECTROMETRY: ION_MODE POSITIVE
AC$MASS_SPECTROMETRY: IONIZATION ESI
AC$MASS_SPECTROMETRY: FRAGMENTATION_MODE HCD
AC$MASS_SPECTROMETRY: COLLISION_ENERGY 15 % (nominal)
AC$MASS_SPECTROMETRY: RESOLUTION 17500
AC$MASS_SPECTROMETRY: MASS_RANGE_M/Z 50-351
AC$CHROMATOGRAPHY: COLUMN_NAME XBridge C18 3.5um, 2.1x50mm, Waters
AC$CHROMATOGRAPHY: FLOW_GRADIENT 90/10 at 0 min, 50/50 at 4 min, 5/95 at 17 min, 5/95 at 25 min, 90/10 at 25.1 min, 90/10 at 30 min
AC$CHROMATOGRAPHY: FLOW_RATE 200 uL/min
AC$CHROMATOGRAPHY: RETENTION_TIME 2.935 min
MS$FOCUSED_ION: BASE_PEAK 323.0906
MS$FOCUSED_ION: PRECURSOR_M/Z 323.0905
MS$FOCUSED_ION: PRECURSOR_TYPE [M+H]+
MS$DATA_PROCESSING: RECALIBRATE loess on assigned fragments and MS1
MS$DATA_PROCESSING: REANALYZE Peaks with additional N2/O included
MS$DATA_PROCESSING: WHOLE RMassBank 3.11.0.1
PK$SPLASH: splash10-00di-0029000000-a2b43ba6b29b65769860
PK$ANNOTATION: m/z tentative_formula formula_count mass error(ppm)
  193.0401 C9H8ClN3+ 2 193.0401 -0.16
  277.0977 C14H16ClN3O+ 1 277.0976 0.36
  293.0931 C14H16ClN3O2+ 1 293.0926 1.8
  323.0905 C14H16ClN4O3+ 1 323.0905 -0.15
PK$NUM_PEAK: 4
PK$PEAK: m/z int. rel.int.
  193.0401 247069.8 6
  277.0977 12367109 309
  293.0931 411574.3 10
  323.0905 39934308 999
//
