ACCESSION: MSBNK-Eawag-EQ500659
RECORD_TITLE: 5-Methoxy-2H-benzotriazole; LC-ESI-QFT; MS2; CE: 180%; R=15000; [M-H]-
DATE: 2021.03.16
AUTHORS: K. Kiefer [dtc], J. Hollender [dtc], H. Singer [dtc], B. Lauper [com]
LICENSE: CC BY-SA
COPYRIGHT: Copyright (C) Eawag 2019
PUBLICATION: Kiefer, K.; Mueller, A.; Singer, H.; Hollender, J. New relevant pesticide transformation products in groundwater detected using target and suspect screening for agricultural and urban micropollutants with LC-HRMS. Water Research 2019, 165. DOI: https://doi.org/10.1016/j.watres.2019.114972
COMMENT: CONFIDENCE standard compound
COMMENT: UCHEM_ID 5006
CH$NAME: 5-Methoxy-2H-benzotriazole
CH$NAME: 5-Methoxy-1H-benzotriazole
CH$COMPOUND_CLASS: N/A; Environmental Standard
CH$FORMULA: C7H7N3O
CH$EXACT_MASS: 149.0589
CH$SMILES: COC1=CC2=NNN=C2C=C1
CH$IUPAC: InChI=1S/C7H7N3O/c1-11-5-2-3-6-7(4-5)9-10-8-6/h2-4H,1H3,(H,8,9,10)
CH$LINK: CAS 27799-91-3
CH$LINK: PUBCHEM CID:119717
CH$LINK: INCHIKEY SUPSFAUIWDRKKZ-UHFFFAOYSA-N
CH$LINK: CHEMSPIDER 106892
CH$LINK: COMPTOX DTXSID70182120
AC$INSTRUMENT: Orbitrap Exploris 240 Thermo Scientific
AC$INSTRUMENT_TYPE: LC-ESI-QFT
AC$MASS_SPECTROMETRY: MS_TYPE MS2
AC$MASS_SPECTROMETRY: ION_MODE NEGATIVE
AC$MASS_SPECTROMETRY: IONIZATION ESI
AC$MASS_SPECTROMETRY: FRAGMENTATION_MODE HCD
AC$MASS_SPECTROMETRY: COLLISION_ENERGY 180 % (nominal)
AC$MASS_SPECTROMETRY: RESOLUTION 15000
AC$MASS_SPECTROMETRY: MASS_RANGE_M/Z NA-NA
AC$CHROMATOGRAPHY: COLUMN_NAME Atlantis C18 3um, 3.0x150mm, Waters
AC$CHROMATOGRAPHY: FLOW_GRADIENT 100/0 at 0 min, 100/0 at 1.5 min, 5/95 at 18.5 min, 5/95 at 28.5 min, 100/0 at 29 min, 100/0 at 33 min
AC$CHROMATOGRAPHY: FLOW_RATE 300 uL/min
AC$CHROMATOGRAPHY: RETENTION_TIME 14.525 min
MS$FOCUSED_ION: BASE_PEAK 148.0517
MS$FOCUSED_ION: PRECURSOR_M/Z 148.0516
MS$FOCUSED_ION: PRECURSOR_TYPE [M-H]-
MS$FOCUSED_ION: PRECURSOR_INTENSITY 29982336
MS$DATA_PROCESSING: RECALIBRATE loess on assigned fragments and MS1
MS$DATA_PROCESSING: REANALYZE Peaks with additional N2/O included
MS$DATA_PROCESSING: WHOLE RMassBank 2.99.4
PK$SPLASH: splash10-0udi-9000000000-7530cb9919063a7a936a
PK$ANNOTATION: m/z tentative_formula formula_count mass error(ppm)
  50.0036 C3N- 1 50.0036 -0.64
  51.0114 C3HN- 1 51.0114 -0.53
  63.0116 C4HN- 1 63.0114 1.68
  65.9987 C3NO- 1 65.9985 1.89
  79.0067 C4HNO- 1 79.0064 4.76
PK$NUM_PEAK: 5
PK$PEAK: m/z int. rel.int.
  50.0036 345641.8 999
  51.0114 44359.1 128
  63.0116 103719.9 299
  65.9987 69794 201
  79.0067 61163.4 176
//
