ACCESSION: MSBNK-Eawag-EA282705
RECORD_TITLE: Mephedrone; LC-ESI-ITFT; MS2; CE: 60%; R=7500; [M+H]+
DATE: 2014.01.14
AUTHORS: Stravs M, Schymanski E, Singer H, Department of Environmental Chemistry, Eawag
LICENSE: CC BY
COPYRIGHT: Copyright (C) 2012 Eawag, Duebendorf, Switzerland
COMMENT: CONFIDENCE standard compound
COMMENT: EAWAG_UCHEM_ID 2827
CH$NAME: Mephedrone
CH$NAME: 2-(Methylamino)-1-(4-methylphenyl)-1-propanone
CH$NAME: 4-methylmethcathinone
CH$COMPOUND_CLASS: N/A; Environmental Standard
CH$FORMULA: C11H15NO
CH$EXACT_MASS: 177.1154
CH$SMILES: Cc1ccc(cc1)C(=O)C(C)NC
CH$IUPAC: InChI=1S/C11H15NO/c1-8-4-6-10(7-5-8)11(13)9(2)12-3/h4-7,9,12H,1-3H3
CH$LINK: CAS 1189805-46-6
CH$LINK: CHEBI CHEBI:59331
CH$LINK: PUBCHEM CID:45266826
CH$LINK: INCHIKEY YELGFTGWJGBAQU-UHFFFAOYSA-N
CH$LINK: CHEMSPIDER 21485694
CH$LINK: COMPTOX DTXSID20891437
AC$INSTRUMENT: LTQ Orbitrap XL Thermo Scientific
AC$INSTRUMENT_TYPE: LC-ESI-ITFT
AC$MASS_SPECTROMETRY: MS_TYPE MS2
AC$MASS_SPECTROMETRY: ION_MODE POSITIVE
AC$MASS_SPECTROMETRY: IONIZATION ESI
AC$MASS_SPECTROMETRY: FRAGMENTATION_MODE HCD
AC$MASS_SPECTROMETRY: COLLISION_ENERGY 60 % (nominal)
AC$MASS_SPECTROMETRY: RESOLUTION 7500
AC$CHROMATOGRAPHY: COLUMN_NAME XBridge C18 3.5um, 2.1x50mm, Waters
AC$CHROMATOGRAPHY: FLOW_GRADIENT 90/10 at 0 min, 50/50 at 4 min, 5/95 at 17 min, 5/95 at 25 min, 90/10 at 25.1 min, 90/10 at 30 min
AC$CHROMATOGRAPHY: FLOW_RATE 200 ul/min
AC$CHROMATOGRAPHY: RETENTION_TIME 4.3 min
AC$CHROMATOGRAPHY: SOLVENT A water with 0.1% formic acid
AC$CHROMATOGRAPHY: SOLVENT B methanol with 0.1% formic acid
MS$FOCUSED_ION: BASE_PEAK 178.1231
MS$FOCUSED_ION: PRECURSOR_M/Z 178.1226
MS$FOCUSED_ION: PRECURSOR_TYPE [M+H]+
MS$DATA_PROCESSING: DEPROFILE Spline
MS$DATA_PROCESSING: RECALIBRATE loess on assigned fragments and MS1
MS$DATA_PROCESSING: REANALYZE Peaks with additional N2/O included
MS$DATA_PROCESSING: WHOLE RMassBank 1.3.1
PK$SPLASH: splash10-01ot-0900000000-0e8d2be244e2c2b90065
PK$ANNOTATION: m/z tentative_formula formula_count mass error(ppm)
  58.0652 C3H8N+ 1 58.0651 0.94
  91.0543 C7H7+ 1 91.0542 0.7
  117.0701 C9H9+ 1 117.0699 2.08
  119.0856 C9H11+ 1 119.0855 0.87
  129.0701 C10H9+ 1 129.0699 1.42
  130.065 C9H8N+ 1 130.0651 -0.66
  131.0859 C10H11+ 1 131.0855 3.23
  144.0809 C10H10N+ 1 144.0808 1.14
  145.0888 C10H11N+ 1 145.0886 1.3
  147.0805 C10H11O+ 1 147.0804 0.74
  158.097 C11H12N+ 1 158.0964 3.82
  159.1048 C11H13N+ 1 159.1043 3.2
  160.1123 C11H14N+ 1 160.1121 1.4
PK$NUM_PEAK: 13
PK$PEAK: m/z int. rel.int.
  58.0652 78291.7 7
  91.0543 123693.9 12
  117.0701 74133.5 7
  119.0856 1792902.7 174
  129.0701 52713.2 5
  130.065 62992.4 6
  131.0859 44943.1 4
  144.0809 500850.9 48
  145.0888 10260169.4 999
  147.0805 355399.4 34
  158.097 60896.1 5
  159.1048 49603 4
  160.1123 7770895.2 756
//
