ACCESSION: MSBNK-Eawag-EA066701
RECORD_TITLE: Simeton; LC-ESI-ITFT; MS2; CE: 35%; R=7500; [M+H]+
DATE: 2014.01.14
AUTHORS: Stravs M, Schymanski E, Singer H, Department of Environmental Chemistry, Eawag
LICENSE: CC BY
COPYRIGHT: Copyright (C) 2012 Eawag, Duebendorf, Switzerland
COMMENT: CONFIDENCE standard compound
COMMENT: EAWAG_UCHEM_ID 667
CH$NAME: Simeton
CH$NAME: 2-N,4-N-diethyl-6-methoxy-1,3,5-triazine-2,4-diamine
CH$COMPOUND_CLASS: N/A; Environmental Standard
CH$FORMULA: C8H15N5O
CH$EXACT_MASS: 197.1271
CH$SMILES: c1(nc(nc(n1)OC)NCC)NCC
CH$IUPAC: InChI=1S/C8H15N5O/c1-4-9-6-11-7(10-5-2)13-8(12-6)14-3/h4-5H2,1-3H3,(H2,9,10,11,12,13)
CH$LINK: CAS 673-04-1
CH$LINK: CHEBI CHEBI:30264
CH$LINK: PUBCHEM CID:12654
CH$LINK: INCHIKEY HKAMKLBXTLTVCN-UHFFFAOYSA-N
CH$LINK: CHEMSPIDER 12133
CH$LINK: COMPTOX DTXSID9042388
AC$INSTRUMENT: LTQ Orbitrap XL Thermo Scientific
AC$INSTRUMENT_TYPE: LC-ESI-ITFT
AC$MASS_SPECTROMETRY: MS_TYPE MS2
AC$MASS_SPECTROMETRY: ION_MODE POSITIVE
AC$MASS_SPECTROMETRY: IONIZATION ESI
AC$MASS_SPECTROMETRY: FRAGMENTATION_MODE CID
AC$MASS_SPECTROMETRY: COLLISION_ENERGY 35 % (nominal)
AC$MASS_SPECTROMETRY: RESOLUTION 7500
AC$CHROMATOGRAPHY: COLUMN_NAME XBridge C18 3.5um, 2.1x50mm, Waters
AC$CHROMATOGRAPHY: FLOW_GRADIENT 90/10 at 0 min, 50/50 at 4 min, 5/95 at 17 min, 5/95 at 25 min, 90/10 at 25.1 min, 90/10 at 30 min
AC$CHROMATOGRAPHY: FLOW_RATE 200 ul/min
AC$CHROMATOGRAPHY: RETENTION_TIME 4.9 min
AC$CHROMATOGRAPHY: SOLVENT A water with 0.1% formic acid
AC$CHROMATOGRAPHY: SOLVENT B methanol with 0.1% formic acid
MS$FOCUSED_ION: BASE_PEAK 198.1352
MS$FOCUSED_ION: PRECURSOR_M/Z 198.1349
MS$FOCUSED_ION: PRECURSOR_TYPE [M+H]+
MS$DATA_PROCESSING: DEPROFILE Spline
MS$DATA_PROCESSING: RECALIBRATE loess on assigned fragments and MS1
MS$DATA_PROCESSING: REANALYZE Peaks with additional N2/O included
MS$DATA_PROCESSING: WHOLE RMassBank 1.3.1
PK$SPLASH: splash10-006t-0900000000-56827ba24a77f56afad2
PK$ANNOTATION: m/z tentative_formula formula_count mass error(ppm)
  69.0084 C2HN2O+ 1 69.0083 0.74
  71.0603 C3H7N2+ 1 71.0604 -1.61
  82.04 C3H4N3+ 1 82.04 0.69
  83.0238 C3H3N2O+ 1 83.024 -2.52
  85.0761 C4H9N2+ 1 85.076 1
  96.0557 C4H6N3+ 1 96.0556 0.38
  97.0397 C4H5N2O+ 1 97.0396 1.04
  100.0506 C3H6N3O+ 1 100.0505 0.32
  110.0713 C5H8N3+ 1 110.0713 0.6
  114.0663 C4H8N3O+ 1 114.0662 0.98
  124.087 C6H10N3+ 1 124.0869 0.29
  127.0975 C5H11N4+ 1 127.0978 -2.22
  128.0819 C5H10N3O+ 1 128.0818 0.79
  142.0726 C4H8N5O+ 1 142.0723 1.72
  142.0976 C6H12N3O+ 1 142.0975 0.5
  166.1084 C7H12N5+ 1 166.1087 -1.76
  170.1038 C6H12N5O+ 1 170.1036 0.79
  198.1352 C8H16N5O+ 1 198.1349 1.23
PK$NUM_PEAK: 18
PK$PEAK: m/z int. rel.int.
  69.0084 102782.5 16
  71.0603 88365.7 14
  82.04 41586.1 6
  83.0238 42206.3 6
  85.0761 205065.5 33
  96.0557 92650.5 15
  97.0397 202143 33
  100.0506 94205.6 15
  110.0713 230987.9 37
  114.0663 2986875.6 490
  124.087 1334876.7 219
  127.0975 33448.6 5
  128.0819 1413405.3 232
  142.0726 38039 6
  142.0976 259748 42
  166.1084 88022 14
  170.1038 2043297.4 335
  198.1352 6084012.9 999
//
