ACCESSION: MSBNK-Eawag-EQ01123105
RECORD_TITLE: Dimetilan; LC-ESI-QFT; MS2; CE: 75%; R=17500; [M+H]+
DATE: 2023.04.27
AUTHORS: B. Beck [dtc,com], J. Hollender [dtc]
LICENSE: CC BY-SA
COPYRIGHT: Copyright (C) Eawag 2023
COMMENT: CONFIDENCE standard compound
COMMENT: UCHEM_ID 11231
CH$NAME: Dimetilan
CH$NAME: [1-(dimethylcarbamoyl)-5-methylpyrazol-3-yl] N,N-dimethylcarbamate
CH$COMPOUND_CLASS: N/A; Environmental Standard
CH$FORMULA: C10H16N4O3
CH$EXACT_MASS: 240.1222
CH$SMILES: CC1=CC(=NN1C(=O)N(C)C)OC(=O)N(C)C
CH$IUPAC: InChI=1S/C10H16N4O3/c1-7-6-8(17-10(16)13(4)5)11-14(7)9(15)12(2)3/h6H,1-5H3
CH$LINK: CAS 644-64-4
CH$LINK: PUBCHEM CID:12572
CH$LINK: INCHIKEY RDBIYWSVMRVKSG-UHFFFAOYSA-N
CH$LINK: CHEMSPIDER 12052
AC$INSTRUMENT: Exploris 240 Orbitrap Thermo Scientific
AC$INSTRUMENT_TYPE: LC-ESI-QFT
AC$MASS_SPECTROMETRY: MS_TYPE MS2
AC$MASS_SPECTROMETRY: ION_MODE POSITIVE
AC$MASS_SPECTROMETRY: IONIZATION ESI
AC$MASS_SPECTROMETRY: FRAGMENTATION_MODE HCD
AC$MASS_SPECTROMETRY: COLLISION_ENERGY 75 % (nominal)
AC$MASS_SPECTROMETRY: RESOLUTION 17500
AC$MASS_SPECTROMETRY: MASS_RANGE_M/Z 50-267
AC$CHROMATOGRAPHY: COLUMN_NAME XBridge C18 3.5um, 2.1x50mm, Waters
AC$CHROMATOGRAPHY: FLOW_GRADIENT 90/10 at 0 min, 50/50 at 4 min, 5/95 at 17 min, 5/95 at 25 min, 90/10 at 25.1 min, 90/10 at 30 min
AC$CHROMATOGRAPHY: FLOW_RATE 200 uL/min
AC$CHROMATOGRAPHY: RETENTION_TIME 4.214 min
MS$FOCUSED_ION: BASE_PEAK 241.1293
MS$FOCUSED_ION: PRECURSOR_M/Z 241.1295
MS$FOCUSED_ION: PRECURSOR_TYPE [M+H]+
MS$DATA_PROCESSING: RECALIBRATE loess on assigned fragments and MS1
MS$DATA_PROCESSING: REANALYZE Peaks with additional N2/O included
MS$DATA_PROCESSING: WHOLE RMassBank 3.11.0.1
PK$SPLASH: splash10-00di-9000000000-f1d8531725116d345433
PK$ANNOTATION: m/z tentative_formula formula_count mass error(ppm)
  56.0132 C2H2NO+ 1 56.0131 1.55
  72.0444 C3H6NO+ 1 72.0444 -0.49
PK$NUM_PEAK: 2
PK$PEAK: m/z int. rel.int.
  56.0132 5960030 10
  72.0444 581279296 999
//
