ACCESSION: MSBNK-Eawag-EQ424455
RECORD_TITLE: Fludioxonil-TP CGA 192155; LC-ESI-QFT; MS2; CE: 75%; R=17500; [M-H]-
DATE: 2019.12.03
AUTHORS: K. Kiefer [dtc], J. Hollender [dtc], H. Singer [dtc], M. Stravs [com]
LICENSE: CC BY-SA
COPYRIGHT: Copyright (C) Eawag 2019
PUBLICATION: Kiefer, K.; Mueller, A.; Singer, H.; Hollender, J. New relevant pesticide transformation products in groundwater detected using target and suspect screening for agricultural and urban micropollutants with LC-HRMS. Water Research 2019, 165. DOI: https://doi.org/10.1016/j.watres.2019.114972
COMMENT: CONFIDENCE standard compound
COMMENT: UCHEM_ID 4244
CH$NAME: Fludioxonil-TP CGA 192155
CH$NAME: 2,2-difluoro-1,3-benzodioxole-4-carboxylic acid
CH$COMPOUND_CLASS: N/A; Environmental Standard
CH$FORMULA: C8H4F2O4
CH$EXACT_MASS: 202.0078
CH$SMILES: OC(=O)C1=CC=CC2=C1OC(F)(F)O2
CH$IUPAC: InChI=1S/C8H4F2O4/c9-8(10)13-5-3-1-2-4(7(11)12)6(5)14-8/h1-3H,(H,11,12)
CH$LINK: CAS 126120-85-2
CH$LINK: PUBCHEM CID:2774067
CH$LINK: INCHIKEY ZGAQVJDFFVTWJK-UHFFFAOYSA-N
CH$LINK: CHEMSPIDER 2054476
AC$INSTRUMENT: Q Exactive Orbitrap Thermo Scientific
AC$INSTRUMENT_TYPE: LC-ESI-QFT
AC$MASS_SPECTROMETRY: MS_TYPE MS2
AC$MASS_SPECTROMETRY: ION_MODE NEGATIVE
AC$MASS_SPECTROMETRY: IONIZATION ESI
AC$MASS_SPECTROMETRY: FRAGMENTATION_MODE HCD
AC$MASS_SPECTROMETRY: COLLISION_ENERGY 75 % (nominal)
AC$MASS_SPECTROMETRY: RESOLUTION 17500
AC$CHROMATOGRAPHY: COLUMN_NAME XBridge C18 3.5um, 2.1x50mm, Waters
AC$CHROMATOGRAPHY: FLOW_GRADIENT 90/10 at 0 min, 50/50 at 4 min, 5/95 at 17 min, 5/95 at 25 min, 90/10 at 25.1 min, 90/10 at 30 min
AC$CHROMATOGRAPHY: FLOW_RATE 200 uL/min
AC$CHROMATOGRAPHY: RETENTION_TIME 6.536 min
AC$CHROMATOGRAPHY: SOLVENT A water with 0.1% formic acid
AC$CHROMATOGRAPHY: SOLVENT B MeOH with 0.1% formic acid
MS$FOCUSED_ION: BASE_PEAK 201.0004
MS$FOCUSED_ION: PRECURSOR_M/Z 201.0005
MS$FOCUSED_ION: PRECURSOR_TYPE [M-H]-
MS$DATA_PROCESSING: RECALIBRATE loess on assigned fragments and MS1
MS$DATA_PROCESSING: REANALYZE Peaks with additional N2/O included
MS$DATA_PROCESSING: WHOLE RMassBank 2.99.1
PK$SPLASH: splash10-0006-9000000000-5d945b77408ecfae4377
PK$ANNOTATION: m/z tentative_formula formula_count mass error(ppm)
  62.9887 CFO2- 1 62.9888 -1.7
  63.024 C5H3- 1 63.024 0.19
  65.0033 C4HO- 1 65.0033 0.34
  91.019 C6H3O- 1 91.0189 0.4
  93.0147 C6H2F- 1 93.0146 0.59
PK$NUM_PEAK: 6
PK$PEAK: m/z int. rel.int.
  62.9887 190930.5 5
  63.024 927750.7 26
  65.0033 7250983 208
  91.019 34794756 999
  92.0221 83420.5 2
  93.0147 174103.5 4
//
