ACCESSION: MSBNK-Eawag-EQ01110003
RECORD_TITLE: Methyl toluene-4-sulfonate; LC-ESI-QFT; MS2; CE: 45%; R=15000; [M+H]+
DATE: 2024.06.14
AUTHORS: F. Jud [dtc], K. Arturi [dtc], J. Hollender [dtc], A. Dax [com]
LICENSE: CC BY-SA
COPYRIGHT: Copyright (C) Eawag 2024
COMMENT: CONFIDENCE standard compound
COMMENT: UCHEM_ID 11100
CH$NAME: Methyl toluene-4-sulfonate
CH$NAME: Methyl p-toluenesulfonate
CH$NAME: methyl 4-methylbenzenesulfonate
CH$COMPOUND_CLASS: N/A
CH$FORMULA: C8H10O3S
CH$EXACT_MASS: 186.0350652
CH$SMILES: COS(=O)(=O)C1=CC=C(C)C=C1
CH$IUPAC: InChI=1S/C8H10O3S/c1-7-3-5-8(6-4-7)12(9,10)11-2/h3-6H,1-2H3
CH$LINK: CAS 80-48-8
CH$LINK: PUBCHEM CID:6645
CH$LINK: INCHIKEY VUQUOGPMUUJORT-UHFFFAOYSA-N
CH$LINK: CHEMSPIDER 6393
AC$INSTRUMENT: Exploris 240 Thermo Scientific
AC$INSTRUMENT_TYPE: LC-ESI-QFT
AC$MASS_SPECTROMETRY: MS_TYPE MS2
AC$MASS_SPECTROMETRY: ION_MODE POSITIVE
AC$MASS_SPECTROMETRY: IONIZATION ESI
AC$MASS_SPECTROMETRY: FRAGMENTATION_MODE HCD
AC$MASS_SPECTROMETRY: COLLISION_ENERGY 45 % (nominal)
AC$MASS_SPECTROMETRY: RESOLUTION 15000
AC$MASS_SPECTROMETRY: MASS_RANGE_M/Z 42-212
AC$CHROMATOGRAPHY: COLUMN_NAME XBridge C18 3.5um, 2.1x50mm, Waters
AC$CHROMATOGRAPHY: FLOW_GRADIENT 90/10 at 0 min, 50/50 at 4 min, 5/95 at 17 min, 5/95 at 25 min, 90/10 at 25.1 min, 90/10 at 30 min
AC$CHROMATOGRAPHY: FLOW_RATE 200 uL/min
AC$CHROMATOGRAPHY: RETENTION_TIME 5.707 min
MS$FOCUSED_ION: BASE_PEAK 187.0421
MS$FOCUSED_ION: PRECURSOR_M/Z 187.0423
MS$FOCUSED_ION: PRECURSOR_TYPE [M+H]+
MS$DATA_PROCESSING: RECALIBRATE loess on assigned fragments and MS1
MS$DATA_PROCESSING: REANALYZE Peaks with additional N2/O included
MS$DATA_PROCESSING: WHOLE RMassBank 3.15.1.1
PK$SPLASH: splash10-0a4i-4900000000-d9e04e071851dd5c7fb8
PK$ANNOTATION: m/z tentative_formula formula_count mass error(ppm)
  65.0386 C5H5+ 1 65.0386 -0.33
  67.0542 C5H7+ 1 67.0542 0.33
  91.0542 C7H7+ 1 91.0542 -0.08
  92.0619 C7H8+ 1 92.0621 -1.53
  108.057 C7H8O+ 1 108.057 0.35
  109.0648 C7H9O+ 1 109.0648 0.06
  155.0161 C7H7O2S+ 1 155.0161 0.09
  187.0423 C8H11O3S+ 1 187.0423 -0.46
PK$NUM_PEAK: 8
PK$PEAK: m/z int. rel.int.
  65.0386 1019352 38
  67.0542 684286.9 26
  91.0542 19243528 734
  92.0619 1468561.9 56
  108.057 829562.8 31
  109.0648 26190332 999
  155.0161 14887610 567
  187.0423 1685666.2 64
//
