ACCESSION: MSBNK-Eawag-EA295411
RECORD_TITLE: Thiacloprid; LC-ESI-ITFT; MS2; CE: 60%; R=15000; [M+H]+
DATE: 2014.01.14
AUTHORS: Stravs M, Schymanski E, Singer H, Department of Environmental Chemistry, Eawag
LICENSE: CC BY
COPYRIGHT: Copyright (C) 2012 Eawag, Duebendorf, Switzerland
COMMENT: CONFIDENCE standard compound
COMMENT: EAWAG_UCHEM_ID 2954
CH$NAME: Thiacloprid
CH$NAME: (Z)-[3-[(6-Chloro-3-pyridinyl)methyl]-2-thiazolidinylidene]cyanamide
CH$NAME: Calypso
CH$COMPOUND_CLASS: N/A; Environmental Standard
CH$FORMULA: C10H9ClN4S
CH$EXACT_MASS: 252.0236
CH$SMILES: C1CSC(=NC#N)N1CC2=CN=C(C=C2)Cl
CH$IUPAC: InChI=1S/C10H9ClN4S/c11-9-2-1-8(5-13-9)6-15-3-4-16-10(15)14-7-12/h1-2,5H,3-4,6H2
CH$LINK: CAS 111988-49-9
CH$LINK: PUBCHEM CID:115224
CH$LINK: INCHIKEY HOKKPVIRMVDYPB-UHFFFAOYSA-N
CH$LINK: CHEMSPIDER 21865404
AC$INSTRUMENT: LTQ Orbitrap XL Thermo Scientific
AC$INSTRUMENT_TYPE: LC-ESI-ITFT
AC$MASS_SPECTROMETRY: MS_TYPE MS2
AC$MASS_SPECTROMETRY: ION_MODE POSITIVE
AC$MASS_SPECTROMETRY: IONIZATION ESI
AC$MASS_SPECTROMETRY: FRAGMENTATION_MODE HCD
AC$MASS_SPECTROMETRY: COLLISION_ENERGY 60 % (nominal)
AC$MASS_SPECTROMETRY: RESOLUTION 15000
AC$CHROMATOGRAPHY: COLUMN_NAME XBridge C18 3.5um, 2.1x50mm, Waters
AC$CHROMATOGRAPHY: FLOW_GRADIENT 90/10 at 0 min, 50/50 at 4 min, 5/95 at 17 min, 5/95 at 25 min, 90/10 at 25.1 min, 90/10 at 30 min
AC$CHROMATOGRAPHY: FLOW_RATE 200 ul/min
AC$CHROMATOGRAPHY: RETENTION_TIME 5.8 min
AC$CHROMATOGRAPHY: SOLVENT A water with 0.1% formic acid
AC$CHROMATOGRAPHY: SOLVENT B methanol with 0.1% formic acid
MS$FOCUSED_ION: BASE_PEAK 253.0312
MS$FOCUSED_ION: PRECURSOR_M/Z 253.0309
MS$FOCUSED_ION: PRECURSOR_TYPE [M+H]+
MS$DATA_PROCESSING: DEPROFILE Spline
MS$DATA_PROCESSING: RECALIBRATE loess on assigned fragments and MS1
MS$DATA_PROCESSING: REANALYZE Peaks with additional N2/O included
MS$DATA_PROCESSING: WHOLE RMassBank 1.3.1
PK$SPLASH: splash10-004i-0900000000-6f298bf252aaf5eedc45
PK$ANNOTATION: m/z tentative_formula formula_count mass error(ppm)
  63.0229 C5H3+ 1 63.0229 -0.74
  90.0339 C6H4N+ 1 90.0338 0.38
  91.0417 C6H5N+ 1 91.0417 0.21
  98.9997 C5H4Cl+ 1 98.9996 0.46
  126.0106 C6H5ClN+ 1 126.0105 0.53
  144.0211 C6H7ClNO+ 2 144.0211 0.36
  151.006 C7H4ClN2+ 1 151.0058 1.31
  211.009 C9H8ClN2S+ 1 211.0091 -0.4
  253.031 C10H10ClN4S+ 1 253.0309 0.47
PK$NUM_PEAK: 9
PK$PEAK: m/z int. rel.int.
  63.0229 55854.6 1
  90.0339 943699.4 23
  91.0417 84179.2 2
  98.9997 372293.4 9
  126.0106 40370827.4 999
  144.0211 454343.2 11
  151.006 120516.2 2
  211.009 56476.7 1
  253.031 109832.2 2
//
