ACCESSION: MSBNK-Eawag-EQ333401
RECORD_TITLE: Atropine; LC-ESI-QFT; MS2; CE: 15; R=35000; [M+H]+
DATE: 2015.08.25
AUTHORS: Otto J, Stravs M, Schymanski E, Singer H, Department of Environmental Chemistry, Eawag
LICENSE: CC BY
COPYRIGHT: Copyright (C) 2015 Eawag, Duebendorf, Switzerland
COMMENT: CONFIDENCE standard compound
COMMENT: EAWAG_UCHEM_ID 3334
CH$NAME: Atropine
CH$NAME: (1R,5S)-8-Methyl-8-azabicyclo[3.2.1]oct-3-yl tropate
CH$COMPOUND_CLASS: N/A; Environmental Standard
CH$FORMULA: C17H23NO3
CH$EXACT_MASS: 289.16779
CH$SMILES: CN1[C@@H]2CC[C@H]1C[C@H](C2)OC(=O)C(CO)C3=CC=CC=C3
CH$IUPAC: InChI=1S/C17H23NO3/c1-18-13-7-8-14(18)10-15(9-13)21-17(20)16(11-19)12-5-3-2-4-6-12/h2-6,13-16,19H,7-11H2,1H3/t13-,14+,15+,16?
CH$LINK: CAS 51-55-8
CH$LINK: KEGG C01479
CH$LINK: PUBCHEM CID:174174
CH$LINK: INCHIKEY RKUNBYITZUJHSG-SPUOUPEWSA-N
CH$LINK: CHEMSPIDER 151965
CH$LINK: COMPTOX DTXSID4020113
AC$INSTRUMENT: Q Exactive Orbitrap Thermo Scientific
AC$INSTRUMENT_TYPE: LC-ESI-QFT
AC$MASS_SPECTROMETRY: MS_TYPE MS2
AC$MASS_SPECTROMETRY: ION_MODE POSITIVE
AC$MASS_SPECTROMETRY: IONIZATION ESI
AC$MASS_SPECTROMETRY: FRAGMENTATION_MODE HCD
AC$MASS_SPECTROMETRY: COLLISION_ENERGY 15 (nominal)
AC$MASS_SPECTROMETRY: RESOLUTION 35000
AC$CHROMATOGRAPHY: COLUMN_NAME XBridge C18 3.5um, 2.1x50mm, Waters
AC$CHROMATOGRAPHY: FLOW_GRADIENT 90/10 at 0 min, 50/50 at 4 min, 5/95 at 17 min, 5/95 at 25 min, 90/10 at 25.1 min, 90/10 at 30 min
AC$CHROMATOGRAPHY: FLOW_RATE 200 ul/min
AC$CHROMATOGRAPHY: RETENTION_TIME 4.3 min
AC$CHROMATOGRAPHY: SOLVENT A water with 0.1% formic acid
AC$CHROMATOGRAPHY: SOLVENT B methanol with 0.1% formic acid
MS$FOCUSED_ION: BASE_PEAK 290.1752
MS$FOCUSED_ION: PRECURSOR_M/Z 290.1751
MS$FOCUSED_ION: PRECURSOR_TYPE [M+H]+
MS$DATA_PROCESSING: DEPROFILE vendor picking in Proteowizard
MS$DATA_PROCESSING: RECALIBRATE loess on assigned fragments and MS1
MS$DATA_PROCESSING: REANALYZE Peaks with additional N2/O included
MS$DATA_PROCESSING: WHOLE RMassBank 1.9.6
PK$SPLASH: splash10-0006-0090000000-b8bc13dbb3c507a0f6b6
PK$ANNOTATION: m/z tentative_formula formula_count mass error(ppm)
  93.0698 C7H9+ 1 93.0699 -0.82
  124.112 C8H14N+ 1 124.1121 -0.37
  290.175 C17H24NO3+ 1 290.1751 -0.31
PK$NUM_PEAK: 3
PK$PEAK: m/z int. rel.int.
  93.0698 1577255 1
  124.112 14028554 11
  290.175 1172646912 999
//
