ACCESSION: MSBNK-Eawag-EQ335102
RECORD_TITLE: Memantine; LC-ESI-QFT; MS2; CE: 30; R=35000; [M+H]+
DATE: 2015.08.25
AUTHORS: Beck B, Stravs M, Schymanski E, Singer H, Department of Environmental Chemistry, Eawag
LICENSE: CC BY
COPYRIGHT: Copyright (C) 2015 Eawag, Duebendorf, Switzerland
COMMENT: CONFIDENCE standard compound
COMMENT: EAWAG_UCHEM_ID 3351
CH$NAME: Memantine
CH$NAME: 3,5-dimethyladamantan-1-amine
CH$COMPOUND_CLASS: N/A; Environmental Standard
CH$FORMULA: C12H21N
CH$EXACT_MASS: 179.16740
CH$SMILES: CC12CC3CC(C1)(CC(C3)(C2)N)C
CH$IUPAC: InChI=1S/C12H21N/c1-10-3-9-4-11(2,6-10)8-12(13,5-9)7-10/h9H,3-8,13H2,1-2H3
CH$LINK: CAS 19982-08-2
CH$LINK: CHEBI CHEBI:64312
CH$LINK: KEGG C13736
CH$LINK: PUBCHEM CID:4054
CH$LINK: INCHIKEY BUGYDGFZZOZRHP-UHFFFAOYSA-N
CH$LINK: CHEMSPIDER 3914
CH$LINK: COMPTOX DTXSID5045174
AC$INSTRUMENT: Q Exactive Plus Orbitrap Thermo Scientific
AC$INSTRUMENT_TYPE: LC-ESI-QFT
AC$MASS_SPECTROMETRY: MS_TYPE MS2
AC$MASS_SPECTROMETRY: ION_MODE POSITIVE
AC$MASS_SPECTROMETRY: IONIZATION ESI
AC$MASS_SPECTROMETRY: FRAGMENTATION_MODE HCD
AC$MASS_SPECTROMETRY: COLLISION_ENERGY 30 (nominal)
AC$MASS_SPECTROMETRY: RESOLUTION 35000
AC$CHROMATOGRAPHY: COLUMN_NAME XBridge C18 3.5um, 2.1x50mm, Waters
AC$CHROMATOGRAPHY: FLOW_GRADIENT 90/10 at 0 min, 50/50 at 4 min, 5/95 at 17 min, 5/95 at 25 min, 90/10 at 25.1 min, 90/10 at 30 min
AC$CHROMATOGRAPHY: FLOW_RATE 200 ul/min
AC$CHROMATOGRAPHY: RETENTION_TIME 6.7 min
AC$CHROMATOGRAPHY: SOLVENT A water with 0.1% formic acid
AC$CHROMATOGRAPHY: SOLVENT B methanol with 0.1% formic acid
MS$FOCUSED_ION: BASE_PEAK 180.1746
MS$FOCUSED_ION: PRECURSOR_M/Z 180.1747
MS$FOCUSED_ION: PRECURSOR_TYPE [M+H]+
MS$DATA_PROCESSING: RECALIBRATE loess on assigned fragments and MS1
MS$DATA_PROCESSING: REANALYZE Peaks with additional N2/O included
MS$DATA_PROCESSING: WHOLE RMassBank 1.9.6
PK$SPLASH: splash10-03di-0900000000-ce475f103d528ff4d342
PK$ANNOTATION: m/z tentative_formula formula_count mass error(ppm)
  55.0542 C4H7+ 1 55.0542 -0.12
  91.0541 C7H7+ 1 91.0542 -1.5
  93.0696 C7H9+ 1 93.0699 -3.08
  107.0854 C8H11+ 1 107.0855 -1.28
  121.1012 C9H13+ 1 121.1012 0.6
  163.1481 C12H19+ 1 163.1481 -0.04
  180.1747 C12H22N+ 1 180.1747 0.08
PK$NUM_PEAK: 7
PK$PEAK: m/z int. rel.int.
  55.0542 2890245 1
  91.0541 1904379.5 1
  93.0696 2988525 1
  107.0854 30065052 17
  121.1012 1957522.4 1
  163.1481 1728303744 999
  180.1747 753911488 435
//
