ACCESSION: MSBNK-Eawag-EA026907
RECORD_TITLE: Metazachlor; LC-ESI-ITFT; MS2; CE: 90%; R=7500; [M+H]+
DATE: 2014.01.14
AUTHORS: Stravs M, Schymanski E, Singer H, Department of Environmental Chemistry, Eawag
LICENSE: CC BY
COPYRIGHT: Copyright (C) 2012 Eawag, Duebendorf, Switzerland
COMMENT: CONFIDENCE standard compound
COMMENT: EAWAG_UCHEM_ID 269
CH$NAME: Metazachlor
CH$NAME: 2-chloranyl-N-(2,6-dimethylphenyl)-N-(pyrazol-1-ylmethyl)ethanamide
CH$COMPOUND_CLASS: N/A; Environmental Standard
CH$FORMULA: C14H16ClN3O
CH$EXACT_MASS: 277.0976
CH$SMILES: N(c1c(cccc1C)C)(Cn1cccn1)C(CCl)=O
CH$IUPAC: InChI=1S/C14H16ClN3O/c1-11-5-3-6-12(2)14(11)18(13(19)9-15)10-17-8-4-7-16-17/h3-8H,9-10H2,1-2H3
CH$LINK: CAS 67129-08-2
CH$LINK: KEGG C10948
CH$LINK: PUBCHEM CID:49384
CH$LINK: INCHIKEY STEPQTYSZVCJPV-UHFFFAOYSA-N
CH$LINK: CHEMSPIDER 44885
CH$LINK: COMPTOX DTXSID4058156
AC$INSTRUMENT: LTQ Orbitrap XL Thermo Scientific
AC$INSTRUMENT_TYPE: LC-ESI-ITFT
AC$MASS_SPECTROMETRY: MS_TYPE MS2
AC$MASS_SPECTROMETRY: ION_MODE POSITIVE
AC$MASS_SPECTROMETRY: IONIZATION ESI
AC$MASS_SPECTROMETRY: FRAGMENTATION_MODE HCD
AC$MASS_SPECTROMETRY: COLLISION_ENERGY 90 % (nominal)
AC$MASS_SPECTROMETRY: RESOLUTION 7500
AC$CHROMATOGRAPHY: COLUMN_NAME XBridge C18 3.5um, 2.1x50mm, Waters
AC$CHROMATOGRAPHY: FLOW_GRADIENT 90/10 at 0 min, 50/50 at 4 min, 5/95 at 17 min, 5/95 at 25 min, 90/10 at 25.1 min, 90/10 at 30 min
AC$CHROMATOGRAPHY: FLOW_RATE 200 ul/min
AC$CHROMATOGRAPHY: RETENTION_TIME 8.5 min
AC$CHROMATOGRAPHY: SOLVENT A water with 0.1% formic acid
AC$CHROMATOGRAPHY: SOLVENT B methanol with 0.1% formic acid
MS$FOCUSED_ION: BASE_PEAK 278.106
MS$FOCUSED_ION: PRECURSOR_M/Z 278.1055
MS$FOCUSED_ION: PRECURSOR_TYPE [M+H]+
MS$DATA_PROCESSING: DEPROFILE Spline
MS$DATA_PROCESSING: RECALIBRATE loess on assigned fragments and MS1
MS$DATA_PROCESSING: REANALYZE Peaks with additional N2/O included
MS$DATA_PROCESSING: WHOLE RMassBank 1.3.1
PK$SPLASH: splash10-053r-0900000000-e6f9e13ab1a99eb783fa
PK$ANNOTATION: m/z tentative_formula formula_count mass error(ppm)
  76.9791 C2H2ClO+ 1 76.9789 2.48
  77.0387 C6H5+ 1 77.0386 1.08
  79.0543 C6H7+ 1 79.0542 1.31
  91.0543 C7H7+ 1 91.0542 1.24
  103.0543 C8H7+ 1 103.0542 0.91
  105.07 C8H9+ 1 105.0699 1.27
  106.0776 C8H10+ 1 106.0777 -0.58
  107.0856 C8H11+ 1 107.0855 0.4
  117.057 C8H7N+ 1 117.0573 -2.65
  118.0656 C8H8N+ 1 118.0651 3.59
  119.0732 C8H9N+ 1 119.073 2.18
  132.081 C9H10N+ 1 132.0808 1.93
  133.0758 C8H9N2+ 1 133.076 -1.76
  134.0966 C9H12N+ 1 134.0964 1.45
PK$NUM_PEAK: 14
PK$PEAK: m/z int. rel.int.
  76.9791 7650.5 8
  77.0387 15596.3 16
  79.0543 58668.6 63
  91.0543 10865.8 11
  103.0543 29849.1 32
  105.07 545117.5 586
  106.0776 10418.9 11
  107.0856 15248.5 16
  117.057 5271.4 5
  118.0656 3079.7 3
  119.0732 10607.3 11
  132.081 18018.3 19
  133.0758 9930.5 10
  134.0966 927892.9 999
//
