ACCESSION: MSBNK-Eawag-EA091605
RECORD_TITLE: Carbamazepine-10,11-epoxide; LC-ESI-ITFT; MS2; CE: 60%; R=7500; [M+H]+
DATE: 2014.01.14
AUTHORS: Stravs M, Schymanski E, Singer H, Department of Environmental Chemistry, Eawag
LICENSE: CC BY
COPYRIGHT: Copyright (C) 2012 Eawag, Duebendorf, Switzerland
COMMENT: CONFIDENCE standard compound
COMMENT: EAWAG_UCHEM_ID 916
CH$NAME: Carbamazepine-10,11-epoxide
CH$NAME: 1a,10b-Dihydro-6H-dibenz(b,f)oxiren(d)azepine-6-carboxamide
CH$COMPOUND_CLASS: N/A; Environmental Standard
CH$FORMULA: C15H12N2O2
CH$EXACT_MASS: 252.0899
CH$SMILES: NC(=O)N2c1ccccc1C4OC4c3ccccc23
CH$IUPAC: InChI=1S/C15H12N2O2/c16-15(18)17-11-7-3-1-5-9(11)13-14(19-13)10-6-2-4-8-12(10)17/h1-8,13-14H,(H2,16,18)
CH$LINK: CAS 36507-30-9
CH$LINK: KEGG C07496
CH$LINK: PUBCHEM CID:2555
CH$LINK: INCHIKEY ZRWWEEVEIOGMMT-UHFFFAOYSA-N
CH$LINK: CHEMSPIDER 2458
CH$LINK: COMPTOX DTXSID60891456
AC$INSTRUMENT: LTQ Orbitrap XL Thermo Scientific
AC$INSTRUMENT_TYPE: LC-ESI-ITFT
AC$MASS_SPECTROMETRY: MS_TYPE MS2
AC$MASS_SPECTROMETRY: ION_MODE POSITIVE
AC$MASS_SPECTROMETRY: IONIZATION ESI
AC$MASS_SPECTROMETRY: FRAGMENTATION_MODE HCD
AC$MASS_SPECTROMETRY: COLLISION_ENERGY 60 % (nominal)
AC$MASS_SPECTROMETRY: RESOLUTION 7500
AC$CHROMATOGRAPHY: COLUMN_NAME XBridge C18 3.5um, 2.1x50mm, Waters
AC$CHROMATOGRAPHY: FLOW_GRADIENT 90/10 at 0 min, 50/50 at 4 min, 5/95 at 17 min, 5/95 at 25 min, 90/10 at 25.1 min, 90/10 at 30 min
AC$CHROMATOGRAPHY: FLOW_RATE 200 ul/min
AC$CHROMATOGRAPHY: RETENTION_TIME 6.3 min
AC$CHROMATOGRAPHY: SOLVENT A water with 0.1% formic acid
AC$CHROMATOGRAPHY: SOLVENT B methanol with 0.1% formic acid
MS$FOCUSED_ION: BASE_PEAK 275.08
MS$FOCUSED_ION: PRECURSOR_M/Z 253.0972
MS$FOCUSED_ION: PRECURSOR_TYPE [M+H]+
MS$DATA_PROCESSING: DEPROFILE Spline
MS$DATA_PROCESSING: RECALIBRATE loess on assigned fragments and MS1
MS$DATA_PROCESSING: REANALYZE Peaks with additional N2/O included
MS$DATA_PROCESSING: WHOLE RMassBank 1.3.1
PK$SPLASH: splash10-001i-0910000000-f98fd081a308fa16c768
PK$ANNOTATION: m/z tentative_formula formula_count mass error(ppm)
  165.0698 C13H9+ 1 165.0699 -0.59
  167.0734 C12H9N+ 1 167.073 2.51
  180.081 C13H10N+ 1 180.0808 1.47
  181.0887 C13H11N+ 1 181.0886 0.66
  182.0967 C13H12N+ 1 182.0964 1.23
  192.0802 C14H10N+ 1 192.0808 -3
  193.0895 C14H11N+ 1 193.0886 4.86
  208.0759 C14H10NO+ 1 208.0757 0.82
  210.0916 C14H12NO+ 1 210.0913 1.14
  236.07 C15H10NO2+ 1 236.0706 -2.48
  253.0979 C15H13N2O2+ 1 253.0972 2.87
PK$NUM_PEAK: 11
PK$PEAK: m/z int. rel.int.
  165.0698 9506.5 9
  167.0734 26625.9 26
  180.081 1007150.5 999
  181.0887 42377.9 42
  182.0967 342008.2 339
  192.0802 5860.3 5
  193.0895 6964.8 6
  208.0759 3307.8 3
  210.0916 198269.9 196
  236.07 2749 2
  253.0979 4525.4 4
//
