ACCESSION: MSBNK-Eawag-EA084508
RECORD_TITLE: 4-Aminoantipyrine; LC-ESI-ITFT; MS2; CE: 15%; R=15000; [M+H]+
DATE: 2014.01.14
AUTHORS: Stravs M, Schymanski E, Singer H, Department of Environmental Chemistry, Eawag
LICENSE: CC BY
COPYRIGHT: Copyright (C) 2012 Eawag, Duebendorf, Switzerland
COMMENT: CONFIDENCE standard compound
COMMENT: EAWAG_UCHEM_ID 845
CH$NAME: 4-Aminoantipyrine
CH$NAME: 4-amino-1,5-dimethyl-2-phenyl-3-pyrazolin-3-one
CH$COMPOUND_CLASS: N/A; Environmental Standard
CH$FORMULA: C11H13N3O
CH$EXACT_MASS: 203.1059
CH$SMILES: c(ccc1N(N(C=2C)C)C(=O)C2N)cc1
CH$IUPAC: InChI=1S/C11H13N3O/c1-8-10(12)11(15)14(13(8)2)9-6-4-3-5-7-9/h3-7H,12H2,1-2H3
CH$LINK: CAS 83-07-8
CH$LINK: PUBCHEM CID:2151
CH$LINK: INCHIKEY RLFWWDJHLFCNIJ-UHFFFAOYSA-N
CH$LINK: CHEMSPIDER 2066
CH$LINK: COMPTOX DTXSID8048860
AC$INSTRUMENT: LTQ Orbitrap XL Thermo Scientific
AC$INSTRUMENT_TYPE: LC-ESI-ITFT
AC$MASS_SPECTROMETRY: MS_TYPE MS2
AC$MASS_SPECTROMETRY: ION_MODE POSITIVE
AC$MASS_SPECTROMETRY: IONIZATION ESI
AC$MASS_SPECTROMETRY: FRAGMENTATION_MODE HCD
AC$MASS_SPECTROMETRY: COLLISION_ENERGY 15 % (nominal)
AC$MASS_SPECTROMETRY: RESOLUTION 15000
AC$CHROMATOGRAPHY: COLUMN_NAME XBridge C18 3.5um, 2.1x50mm, Waters
AC$CHROMATOGRAPHY: FLOW_GRADIENT 90/10 at 0 min, 50/50 at 4 min, 5/95 at 17 min, 5/95 at 25 min, 90/10 at 25.1 min, 90/10 at 30 min
AC$CHROMATOGRAPHY: FLOW_RATE 200 ul/min
AC$CHROMATOGRAPHY: RETENTION_TIME 2.6 min
AC$CHROMATOGRAPHY: SOLVENT A water with 0.1% formic acid
AC$CHROMATOGRAPHY: SOLVENT B methanol with 0.1% formic acid
MS$FOCUSED_ION: BASE_PEAK 204.1138
MS$FOCUSED_ION: PRECURSOR_M/Z 204.1131
MS$FOCUSED_ION: PRECURSOR_TYPE [M+H]+
MS$DATA_PROCESSING: DEPROFILE Spline
MS$DATA_PROCESSING: RECALIBRATE loess on assigned fragments and MS1
MS$DATA_PROCESSING: REANALYZE Peaks with additional N2/O included
MS$DATA_PROCESSING: WHOLE RMassBank 1.3.1
PK$SPLASH: splash10-0udi-0190000000-e3ab6fa08329ed0758df
PK$ANNOTATION: m/z tentative_formula formula_count mass error(ppm)
  56.0495 C3H6N+ 1 56.0495 -0.46
  83.0604 C4H7N2+ 1 83.0604 0.06
  85.0761 C4H9N2+ 1 85.076 0.77
  94.0652 C6H8N+ 1 94.0651 0.26
  111.0554 C5H7N2O+ 1 111.0553 1
  145.0761 C9H9N2+ 1 145.076 0.59
  146.06 C9H8NO+ 1 146.06 0
  159.0918 C10H11N2+ 1 159.0917 0.79
  173.071 C10H9N2O+ 1 173.0709 0.35
  187.0866 C11H11N2O+ 1 187.0866 0.22
  189.0899 C10H11N3O+ 1 189.0897 1.52
  204.1133 C11H14N3O+ 1 204.1131 1.04
PK$NUM_PEAK: 12
PK$PEAK: m/z int. rel.int.
  56.0495 219854.5 23
  83.0604 62638.1 6
  85.0761 59821.8 6
  94.0652 60797.6 6
  111.0554 51865.5 5
  145.0761 18386.2 1
  146.06 29531 3
  159.0918 324302.7 34
  173.071 138046.6 14
  187.0866 436726.5 47
  189.0899 43853.5 4
  204.1133 9271641.9 999
//
