ACCESSION: MSBNK-Eawag-EQ01151707
RECORD_TITLE: 2-Acetylpyrazine; LC-ESI-QFT; MS2; CE: 120%; R=17500; [M+H]+
DATE: 2024.05.08
AUTHORS: C. Meyer [dtc], B. Beck [dtc,com], J. Hollender [dtc]
LICENSE: CC BY-SA
COPYRIGHT: Copyright (C) Eawag 2023
PUBLICATION: Meyer, C., Stravs, M., Hollender, J.. How Wastewater Reflects Human Metabolism - Suspect Screening of Pharmaceutical Metabolites in Wastewater Influent. doi:10.1021/acs.est.4c00968
COMMENT: CONFIDENCE standard compound
COMMENT: UCHEM_ID 11517
CH$NAME: 2-Acetylpyrazine
CH$NAME: Acetylpyrazine
CH$NAME: 1-pyrazin-2-ylethanone
CH$COMPOUND_CLASS: N/A; Environmental Standard
CH$FORMULA: C6H6N2O
CH$EXACT_MASS: 122.0480128
CH$SMILES: CC(=O)C1=NC=CN=C1
CH$IUPAC: InChI=1S/C6H6N2O/c1-5(9)6-4-7-2-3-8-6/h2-4H,1H3
CH$LINK: CHEBI CHEBI:145236
CH$LINK: PUBCHEM CID:30914
CH$LINK: INCHIKEY DBZAKQWXICEWNW-UHFFFAOYSA-N
CH$LINK: CHEMSPIDER 28682
AC$INSTRUMENT: Exploris 240 Orbitrap Thermo Scientific
AC$INSTRUMENT_TYPE: LC-ESI-QFT
AC$MASS_SPECTROMETRY: MS_TYPE MS2
AC$MASS_SPECTROMETRY: ION_MODE POSITIVE
AC$MASS_SPECTROMETRY: IONIZATION ESI
AC$MASS_SPECTROMETRY: FRAGMENTATION_MODE HCD
AC$MASS_SPECTROMETRY: COLLISION_ENERGY 120 % (nominal)
AC$MASS_SPECTROMETRY: RESOLUTION 17500
AC$MASS_SPECTROMETRY: MASS_RANGE_M/Z 40-147
AC$CHROMATOGRAPHY: COLUMN_NAME XBridge C18 3.5um, 2.1x50mm, Waters
AC$CHROMATOGRAPHY: FLOW_GRADIENT 90/10 at 0 min, 50/50 at 4 min, 5/95 at 17 min, 5/95 at 25 min, 90/10 at 25.1 min, 90/10 at 30 min
AC$CHROMATOGRAPHY: FLOW_RATE 200 uL/min
AC$CHROMATOGRAPHY: RETENTION_TIME 2.489 min
MS$FOCUSED_ION: BASE_PEAK 132.9582
MS$FOCUSED_ION: PRECURSOR_M/Z 123.0553
MS$FOCUSED_ION: PRECURSOR_TYPE [M+H]+
MS$DATA_PROCESSING: RECALIBRATE loess on assigned fragments and MS1
MS$DATA_PROCESSING: REANALYZE Peaks with additional N2/O included
MS$DATA_PROCESSING: WHOLE RMassBank 3.15.1
PK$SPLASH: splash10-001i-9000000000-d051a0d6d28996a2cd1b
PK$ANNOTATION: m/z tentative_formula formula_count mass error(ppm)
  42.0338 C2H4N+ 1 42.0338 -1.53
  43.0178 C2H3O+ 1 43.0178 -0.95
  51.0229 C4H3+ 1 51.0229 -1.01
  52.0181 C3H2N+ 1 52.0182 -0.66
  53.0259 C3H3N+ 1 53.026 -1.52
  54.0338 C3H4N+ 1 54.0338 -0.59
  68.0495 C4H6N+ 1 68.0495 0.6
  78.0337 C5H4N+ 1 78.0338 -1.4
  79.0291 C4H3N2+ 1 79.0291 -0.14
  80.0369 C4H4N2+ 1 80.0369 -0.28
  81.0447 C4H5N2+ 1 81.0447 -0.52
  95.0604 C5H7N2+ 1 95.0604 0.16
  97.0397 C4H5N2O+ 1 97.0396 0.13
  105.0446 C6H5N2+ 1 105.0447 -0.91
  123.0551 C6H7N2O+ 1 123.0553 -1.51
PK$NUM_PEAK: 15
PK$PEAK: m/z int. rel.int.
  42.0338 31788.6 3
  43.0178 704896.5 87
  51.0229 54710.5 6
  52.0181 364730.7 45
  53.0259 43898.6 5
  54.0338 2825015 349
  68.0495 83277.5 10
  78.0337 119021.2 14
  79.0291 165389.9 20
  80.0369 158132 19
  81.0447 8078773.5 999
  95.0604 213608.4 26
  97.0397 197375.4 24
  105.0446 255295.2 31
  123.0551 183496.9 22
//
