ACCESSION: MSBNK-Eawag-EA026911
RECORD_TITLE: Metazachlor; LC-ESI-ITFT; MS2; CE: 60%; R=15000; [M+H]+
DATE: 2014.01.14
AUTHORS: Stravs M, Schymanski E, Singer H, Department of Environmental Chemistry, Eawag
LICENSE: CC BY
COPYRIGHT: Copyright (C) 2012 Eawag, Duebendorf, Switzerland
COMMENT: CONFIDENCE standard compound
COMMENT: EAWAG_UCHEM_ID 269
CH$NAME: Metazachlor
CH$NAME: 2-chloranyl-N-(2,6-dimethylphenyl)-N-(pyrazol-1-ylmethyl)ethanamide
CH$COMPOUND_CLASS: N/A; Environmental Standard
CH$FORMULA: C14H16ClN3O
CH$EXACT_MASS: 277.0976
CH$SMILES: N(c1c(cccc1C)C)(Cn1cccn1)C(CCl)=O
CH$IUPAC: InChI=1S/C14H16ClN3O/c1-11-5-3-6-12(2)14(11)18(13(19)9-15)10-17-8-4-7-16-17/h3-8H,9-10H2,1-2H3
CH$LINK: CAS 67129-08-2
CH$LINK: KEGG C10948
CH$LINK: PUBCHEM CID:49384
CH$LINK: INCHIKEY STEPQTYSZVCJPV-UHFFFAOYSA-N
CH$LINK: CHEMSPIDER 44885
CH$LINK: COMPTOX DTXSID4058156
AC$INSTRUMENT: LTQ Orbitrap XL Thermo Scientific
AC$INSTRUMENT_TYPE: LC-ESI-ITFT
AC$MASS_SPECTROMETRY: MS_TYPE MS2
AC$MASS_SPECTROMETRY: ION_MODE POSITIVE
AC$MASS_SPECTROMETRY: IONIZATION ESI
AC$MASS_SPECTROMETRY: FRAGMENTATION_MODE HCD
AC$MASS_SPECTROMETRY: COLLISION_ENERGY 60 % (nominal)
AC$MASS_SPECTROMETRY: RESOLUTION 15000
AC$CHROMATOGRAPHY: COLUMN_NAME XBridge C18 3.5um, 2.1x50mm, Waters
AC$CHROMATOGRAPHY: FLOW_GRADIENT 90/10 at 0 min, 50/50 at 4 min, 5/95 at 17 min, 5/95 at 25 min, 90/10 at 25.1 min, 90/10 at 30 min
AC$CHROMATOGRAPHY: FLOW_RATE 200 ul/min
AC$CHROMATOGRAPHY: RETENTION_TIME 8.5 min
AC$CHROMATOGRAPHY: SOLVENT A water with 0.1% formic acid
AC$CHROMATOGRAPHY: SOLVENT B methanol with 0.1% formic acid
MS$FOCUSED_ION: BASE_PEAK 278.106
MS$FOCUSED_ION: PRECURSOR_M/Z 278.1055
MS$FOCUSED_ION: PRECURSOR_TYPE [M+H]+
MS$DATA_PROCESSING: DEPROFILE Spline
MS$DATA_PROCESSING: RECALIBRATE loess on assigned fragments and MS1
MS$DATA_PROCESSING: REANALYZE Peaks with additional N2/O included
MS$DATA_PROCESSING: WHOLE RMassBank 1.3.1
PK$SPLASH: splash10-001i-0900000000-2dda4e8f194ca2309125
PK$ANNOTATION: m/z tentative_formula formula_count mass error(ppm)
  76.9789 C2H2ClO+ 1 76.9789 0.41
  105.07 C8H9+ 1 105.0699 0.98
  107.0855 C8H11+ 1 107.0855 0.22
  117.0571 C8H7N+ 1 117.0573 -2.06
  132.081 C9H10N+ 1 132.0808 1.93
  134.0966 C9H12N+ 1 134.0964 1.22
PK$NUM_PEAK: 6
PK$PEAK: m/z int. rel.int.
  76.9789 8657.4 6
  105.07 18355.7 13
  107.0855 2770.2 2
  117.0571 1847.6 1
  132.081 3437.9 2
  134.0966 1343047.9 999
//
