ACCESSION: MSBNK-Eawag-EQ01128009
RECORD_TITLE: Methamidophos; LC-ESI-QFT; MS2; CE: 180%; R=17500; [M+H]+
DATE: 2023.04.27
AUTHORS: B. Beck [dtc,com], J. Hollender [dtc]
LICENSE: CC BY-SA
COPYRIGHT: Copyright (C) Eawag 2023
COMMENT: CONFIDENCE standard compound
COMMENT: UCHEM_ID 11280
CH$NAME: Methamidophos
CH$NAME: [amino(methylsulfanyl)phosphoryl]oxymethane
CH$COMPOUND_CLASS: N/A; Environmental Standard
CH$FORMULA: C2H8NO2PS
CH$EXACT_MASS: 141.0013
CH$SMILES: COP(=O)(N)SC
CH$IUPAC: InChI=1S/C2H8NO2PS/c1-5-6(3,4)7-2/h1-2H3,(H2,3,4)
CH$LINK: CAS 65960-97-6
CH$LINK: CHEBI CHEBI:38721
CH$LINK: KEGG C18667
CH$LINK: PUBCHEM CID:4096
CH$LINK: INCHIKEY NNKVPIKMPCQWCG-UHFFFAOYSA-N
CH$LINK: CHEMSPIDER 3954
AC$INSTRUMENT: Exploris 240 Orbitrap Thermo Scientific
AC$INSTRUMENT_TYPE: LC-ESI-QFT
AC$MASS_SPECTROMETRY: MS_TYPE MS2
AC$MASS_SPECTROMETRY: ION_MODE POSITIVE
AC$MASS_SPECTROMETRY: IONIZATION ESI
AC$MASS_SPECTROMETRY: FRAGMENTATION_MODE HCD
AC$MASS_SPECTROMETRY: COLLISION_ENERGY 180 % (nominal)
AC$MASS_SPECTROMETRY: RESOLUTION 17500
AC$MASS_SPECTROMETRY: MASS_RANGE_M/Z 40-166
AC$CHROMATOGRAPHY: COLUMN_NAME XBridge C18 3.5um, 2.1x50mm, Waters
AC$CHROMATOGRAPHY: FLOW_GRADIENT 90/10 at 0 min, 50/50 at 4 min, 5/95 at 17 min, 5/95 at 25 min, 90/10 at 25.1 min, 90/10 at 30 min
AC$CHROMATOGRAPHY: FLOW_RATE 200 uL/min
AC$CHROMATOGRAPHY: RETENTION_TIME 1.413 min
MS$FOCUSED_ION: BASE_PEAK 142.0086
MS$FOCUSED_ION: PRECURSOR_M/Z 142.0086
MS$FOCUSED_ION: PRECURSOR_TYPE [M+H]+
MS$DATA_PROCESSING: RECALIBRATE loess on assigned fragments and MS1
MS$DATA_PROCESSING: REANALYZE Peaks with additional N2/O included
MS$DATA_PROCESSING: WHOLE RMassBank 3.11.0.1
PK$SPLASH: splash10-0002-9000000000-af47ba4ad9b8b2711990
PK$ANNOTATION: m/z tentative_formula formula_count mass error(ppm)
  44.9794 CHS+ 1 44.9793 0.09
  45.9841 HNP+ 1 45.9841 -0.08
  46.9681 OP+ 1 46.9681 -0.06
  46.995 CH3S+ 1 46.995 -0.13
  48.9837 H2OP+ 1 48.9838 -0.72
  63.9947 H3NOP+ 1 63.9947 -0.26
  64.9787 H2O2P+ 1 64.9787 -0.02
  78.9945 CH4O2P+ 1 78.9943 2.09
  79.9894 H3NO2P+ 1 79.9896 -1.98
PK$NUM_PEAK: 9
PK$PEAK: m/z int. rel.int.
  44.9794 2539822.2 743
  45.9841 804863.9 235
  46.9681 2724788.2 797
  46.995 3412800.5 999
  48.9837 91151.3 26
  63.9947 2542657 744
  64.9787 122169 35
  78.9945 571387.6 167
  79.9894 135975.4 39
//
