ACCESSION: MSBNK-Eawag-EA295407
RECORD_TITLE: Thiacloprid; LC-ESI-ITFT; MS2; CE: 90%; R=7500; [M+H]+
DATE: 2014.01.14
AUTHORS: Stravs M, Schymanski E, Singer H, Department of Environmental Chemistry, Eawag
LICENSE: CC BY
COPYRIGHT: Copyright (C) 2012 Eawag, Duebendorf, Switzerland
COMMENT: CONFIDENCE standard compound
COMMENT: EAWAG_UCHEM_ID 2954
CH$NAME: Thiacloprid
CH$NAME: (Z)-[3-[(6-Chloro-3-pyridinyl)methyl]-2-thiazolidinylidene]cyanamide
CH$NAME: Calypso
CH$COMPOUND_CLASS: N/A; Environmental Standard
CH$FORMULA: C10H9ClN4S
CH$EXACT_MASS: 252.0236
CH$SMILES: C1CSC(=NC#N)N1CC2=CN=C(C=C2)Cl
CH$IUPAC: InChI=1S/C10H9ClN4S/c11-9-2-1-8(5-13-9)6-15-3-4-16-10(15)14-7-12/h1-2,5H,3-4,6H2
CH$LINK: CAS 111988-49-9
CH$LINK: PUBCHEM CID:115224
CH$LINK: INCHIKEY HOKKPVIRMVDYPB-UHFFFAOYSA-N
CH$LINK: CHEMSPIDER 21865404
AC$INSTRUMENT: LTQ Orbitrap XL Thermo Scientific
AC$INSTRUMENT_TYPE: LC-ESI-ITFT
AC$MASS_SPECTROMETRY: MS_TYPE MS2
AC$MASS_SPECTROMETRY: ION_MODE POSITIVE
AC$MASS_SPECTROMETRY: IONIZATION ESI
AC$MASS_SPECTROMETRY: FRAGMENTATION_MODE HCD
AC$MASS_SPECTROMETRY: COLLISION_ENERGY 90 % (nominal)
AC$MASS_SPECTROMETRY: RESOLUTION 7500
AC$CHROMATOGRAPHY: COLUMN_NAME XBridge C18 3.5um, 2.1x50mm, Waters
AC$CHROMATOGRAPHY: FLOW_GRADIENT 90/10 at 0 min, 50/50 at 4 min, 5/95 at 17 min, 5/95 at 25 min, 90/10 at 25.1 min, 90/10 at 30 min
AC$CHROMATOGRAPHY: FLOW_RATE 200 ul/min
AC$CHROMATOGRAPHY: RETENTION_TIME 5.8 min
AC$CHROMATOGRAPHY: SOLVENT A water with 0.1% formic acid
AC$CHROMATOGRAPHY: SOLVENT B methanol with 0.1% formic acid
MS$FOCUSED_ION: BASE_PEAK 253.0312
MS$FOCUSED_ION: PRECURSOR_M/Z 253.0309
MS$FOCUSED_ION: PRECURSOR_TYPE [M+H]+
MS$DATA_PROCESSING: DEPROFILE Spline
MS$DATA_PROCESSING: RECALIBRATE loess on assigned fragments and MS1
MS$DATA_PROCESSING: REANALYZE Peaks with additional N2/O included
MS$DATA_PROCESSING: WHOLE RMassBank 1.3.1
PK$SPLASH: splash10-004i-6900000000-47950bcbd44edf070fc5
PK$ANNOTATION: m/z tentative_formula formula_count mass error(ppm)
  63.023 C5H3+ 1 63.0229 0.37
  64.0183 C4H2N+ 1 64.0182 2.57
  65.0386 C5H5+ 1 65.0386 0.21
  72.984 C3H2Cl+ 1 72.984 0.35
  80.0495 C5H6N+ 1 80.0495 0.93
  81.0336 C5H5O+ 1 81.0335 0.97
  90.0338 C6H4N+ 1 90.0338 0.05
  91.0417 C6H5N+ 1 91.0417 0.21
  98.9996 C5H4Cl+ 1 98.9996 -0.24
  108.0444 C3H9ClN2+ 1 108.0449 -4.14
  123.9952 C6H3ClN+ 1 123.9949 3.12
  126.0105 C6H5ClN+ 1 126.0105 -0.11
  144.0211 C6H7ClNO+ 2 144.0211 0.01
  151.0057 C7H4ClN2+ 1 151.0058 -0.08
PK$NUM_PEAK: 14
PK$PEAK: m/z int. rel.int.
  63.023 690041.1 26
  64.0183 31180 1
  65.0386 127760 4
  72.984 978942.9 38
  80.0495 53096.9 2
  81.0336 130372.4 5
  90.0338 7614143.9 295
  91.0417 1463123.3 56
  98.9996 7589130.4 294
  108.0444 435126.2 16
  123.9952 32274.3 1
  126.0105 25720907.5 999
  144.0211 1380301.7 53
  151.0057 80719.7 3
//
