ACCESSION: MSBNK-Eawag-EQ00010801
RECORD_TITLE: BifenoxH; LC-ESI-QFT; MS2; CE: 15%; R=15000; [M+H]+
DATE: 2024.06.14
AUTHORS: F. Jud [dtc], K. Arturi [dtc], J. Hollender [dtc], A. Dax [com]
LICENSE: CC BY-SA
COPYRIGHT: Copyright (C) Eawag 2024
COMMENT: CONFIDENCE standard compound
COMMENT: UCHEM_ID 108
CH$NAME: BifenoxH
CH$NAME: Bifenox
CH$NAME: methyl 5-(2,4-dichlorophenoxy)-2-nitrobenzoate
CH$COMPOUND_CLASS: N/A
CH$FORMULA: C14H9Cl2NO5
CH$EXACT_MASS: 340.9857777
CH$SMILES: COC(=O)C1=C(C=CC(=C1)OC2=C(C=C(C=C2)Cl)Cl)[N+](=O)[O-]
CH$IUPAC: InChI=1S/C14H9Cl2NO5/c1-21-14(18)10-7-9(3-4-12(10)17(19)20)22-13-5-2-8(15)6-11(13)16/h2-7H,1H3
CH$LINK: CAS 42576-02-3
CH$LINK: CHEBI CHEBI:6613
CH$LINK: KEGG C11066
CH$LINK: PUBCHEM CID:39230
CH$LINK: INCHIKEY SUSRORUBZHMPCO-UHFFFAOYSA-N
CH$LINK: CHEMSPIDER 35891
AC$INSTRUMENT: Q Exactive Plus
AC$INSTRUMENT_TYPE: LC-ESI-QFT
AC$MASS_SPECTROMETRY: MS_TYPE MS2
AC$MASS_SPECTROMETRY: ION_MODE POSITIVE
AC$MASS_SPECTROMETRY: IONIZATION ESI
AC$MASS_SPECTROMETRY: FRAGMENTATION_MODE HCD
AC$MASS_SPECTROMETRY: COLLISION_ENERGY 15 % (nominal)
AC$MASS_SPECTROMETRY: RESOLUTION 15000
AC$MASS_SPECTROMETRY: MASS_RANGE_M/Z 50-365
AC$CHROMATOGRAPHY: COLUMN_NAME XBridge C18 3.5um, 2.1x50mm, Waters
AC$CHROMATOGRAPHY: FLOW_GRADIENT 90/10 at 0 min, 50/50 at 4 min, 5/95 at 17 min, 5/95 at 25 min, 90/10 at 25.1 min, 90/10 at 30 min
AC$CHROMATOGRAPHY: FLOW_RATE 200 uL/min
AC$CHROMATOGRAPHY: RETENTION_TIME 12.553 min
MS$FOCUSED_ION: BASE_PEAK 164.9845
MS$FOCUSED_ION: PRECURSOR_M/Z 341.9931
MS$FOCUSED_ION: PRECURSOR_TYPE [M+H]+
MS$FOCUSED_ION: PRECURSOR_INTENSITY 10833477.93
MS$DATA_PROCESSING: RECALIBRATE loess on assigned fragments and MS1
MS$DATA_PROCESSING: REANALYZE Peaks with additional N2/O included
MS$DATA_PROCESSING: WHOLE RMassBank 3.15.1.1
PK$SPLASH: splash10-0a4i-0009000000-a69f3d9c9cdd31b2cedc
PK$ANNOTATION: m/z tentative_formula formula_count mass error(ppm)
  188.95 C7H3Cl2O2+ 1 188.9505 -2.58
  265.9766 C12H6Cl2NO2+ 1 265.977 -1.65
  309.9666 C13H6Cl2NO4+ 1 309.9668 -0.68
PK$NUM_PEAK: 3
PK$PEAK: m/z int. rel.int.
  188.95 32700.9 11
  265.9766 64048.4 22
  309.9666 2809219.5 999
//
