ACCESSION: MSBNK-Eawag-EQ01163208
RECORD_TITLE: Disulfiram; LC-ESI-QFT; MS2; CE: 150%; R=17500; [M+H]+
DATE: 2024.01.16
AUTHORS: B. Beck [dtc,com], J. Hollender [dtc]
LICENSE: CC BY-SA
COPYRIGHT: Copyright (C) Eawag 2023
COMMENT: CONFIDENCE standard compound
COMMENT: UCHEM_ID 11632
CH$NAME: Disulfiram
CH$NAME: diethylcarbamothioylsulfanyl N,N-diethylcarbamodithioate
CH$COMPOUND_CLASS: N/A; Environmental Standard
CH$FORMULA: C10H20N2S4
CH$EXACT_MASS: 296.05093264
CH$SMILES: CCN(CC)C(=S)SSC(=S)N(CC)CC
CH$IUPAC: InChI=1S/C10H20N2S4/c1-5-11(6-2)9(13)15-16-10(14)12(7-3)8-4/h5-8H2,1-4H3
CH$LINK: CHEBI CHEBI:4659
CH$LINK: PUBCHEM CID:3117
CH$LINK: INCHIKEY AUZONCFQVSMFAP-UHFFFAOYSA-N
CH$LINK: CHEMSPIDER 3005
AC$INSTRUMENT: Exploris 240 Orbitrap Thermo Scientific
AC$INSTRUMENT_TYPE: LC-ESI-QFT
AC$MASS_SPECTROMETRY: MS_TYPE MS2
AC$MASS_SPECTROMETRY: ION_MODE POSITIVE
AC$MASS_SPECTROMETRY: IONIZATION ESI
AC$MASS_SPECTROMETRY: FRAGMENTATION_MODE HCD
AC$MASS_SPECTROMETRY: COLLISION_ENERGY 150 % (nominal)
AC$MASS_SPECTROMETRY: RESOLUTION 17500
AC$MASS_SPECTROMETRY: MASS_RANGE_M/Z 50-324
AC$CHROMATOGRAPHY: COLUMN_NAME XBridge C18 3.5um, 2.1x50mm, Waters
AC$CHROMATOGRAPHY: FLOW_GRADIENT 90/10 at 0 min, 50/50 at 4 min, 5/95 at 17 min, 5/95 at 25 min, 90/10 at 25.1 min, 90/10 at 30 min
AC$CHROMATOGRAPHY: FLOW_RATE 200 uL/min
AC$CHROMATOGRAPHY: RETENTION_TIME 10.039 min
MS$FOCUSED_ION: BASE_PEAK 116.0527
MS$FOCUSED_ION: PRECURSOR_M/Z 297.0582
MS$FOCUSED_ION: PRECURSOR_TYPE [M+H]+
MS$DATA_PROCESSING: RECALIBRATE loess on assigned fragments and MS1
MS$DATA_PROCESSING: REANALYZE Peaks with additional N2/O included
MS$DATA_PROCESSING: WHOLE RMassBank 3.11.2
PK$SPLASH: splash10-0a4i-9000000000-dfdaf26a93bbca0f9f11
PK$ANNOTATION: m/z tentative_formula formula_count mass error(ppm)
  59.9902 CH2NS+ 1 59.9902 -0.17
  61.0106 C2H5S+ 1 61.0106 -0.33
  63.9437 S2+ 1 63.9436 1.62
  76.9515 CHS2+ 1 76.9514 0.69
PK$NUM_PEAK: 4
PK$PEAK: m/z int. rel.int.
  59.9902 12499572 999
  61.0106 185168.1 14
  63.9437 750535.7 59
  76.9515 2406441.8 192
//
