ACCESSION: MSBNK-Eawag-EA070009
RECORD_TITLE: Pethoxamide; LC-ESI-ITFT; MS2; CE: 30%; R=15000; [M+H]+
DATE: 2014.01.14
AUTHORS: Stravs M, Schymanski E, Singer H, Department of Environmental Chemistry, Eawag
LICENSE: CC BY
COPYRIGHT: Copyright (C) 2012 Eawag, Duebendorf, Switzerland
COMMENT: CONFIDENCE standard compound
COMMENT: EAWAG_UCHEM_ID 700
CH$NAME: Pethoxamide
CH$NAME: 2-chloro-N-(2-ethoxyethyl)-N-(2-methyl-1-phenylprop-1-enyl)acetamide
CH$COMPOUND_CLASS: N/A; Environmental Standard
CH$FORMULA: C16H22ClNO2
CH$EXACT_MASS: 295.1334
CH$SMILES: ClCC(=O)N(CCOCC)\C(=C(\C)C)c1ccccc1
CH$IUPAC: InChI=1S/C16H22ClNO2/c1-4-20-11-10-18(15(19)12-17)16(13(2)3)14-8-6-5-7-9-14/h5-9H,4,10-12H2,1-3H3
CH$LINK: CAS 106700-29-2
CH$LINK: PUBCHEM CID:6450826
CH$LINK: INCHIKEY CSWIKHNSBZVWNQ-UHFFFAOYSA-N
CH$LINK: CHEMSPIDER 4953376
CH$LINK: COMPTOX DTXSID4057928
AC$INSTRUMENT: LTQ Orbitrap XL Thermo Scientific
AC$INSTRUMENT_TYPE: LC-ESI-ITFT
AC$MASS_SPECTROMETRY: MS_TYPE MS2
AC$MASS_SPECTROMETRY: ION_MODE POSITIVE
AC$MASS_SPECTROMETRY: IONIZATION ESI
AC$MASS_SPECTROMETRY: FRAGMENTATION_MODE HCD
AC$MASS_SPECTROMETRY: COLLISION_ENERGY 30 % (nominal)
AC$MASS_SPECTROMETRY: RESOLUTION 15000
AC$CHROMATOGRAPHY: COLUMN_NAME XBridge C18 3.5um, 2.1x50mm, Waters
AC$CHROMATOGRAPHY: FLOW_GRADIENT 90/10 at 0 min, 50/50 at 4 min, 5/95 at 17 min, 5/95 at 25 min, 90/10 at 25.1 min, 90/10 at 30 min
AC$CHROMATOGRAPHY: FLOW_RATE 200 ul/min
AC$CHROMATOGRAPHY: RETENTION_TIME 11.5 min
AC$CHROMATOGRAPHY: SOLVENT A water with 0.1% formic acid
AC$CHROMATOGRAPHY: SOLVENT B methanol with 0.1% formic acid
MS$FOCUSED_ION: BASE_PEAK 296.1418
MS$FOCUSED_ION: PRECURSOR_M/Z 296.1412
MS$FOCUSED_ION: PRECURSOR_TYPE [M+H]+
MS$DATA_PROCESSING: DEPROFILE Spline
MS$DATA_PROCESSING: RECALIBRATE loess on assigned fragments and MS1
MS$DATA_PROCESSING: REANALYZE Peaks with additional N2/O included
MS$DATA_PROCESSING: WHOLE RMassBank 1.3.1
PK$SPLASH: splash10-0f89-0690000000-b1d898d35c22d9e6fbec
PK$ANNOTATION: m/z tentative_formula formula_count mass error(ppm)
  73.0648 C4H9O+ 1 73.0648 0.26
  91.0542 C7H7+ 1 91.0542 -0.07
  103.0542 C8H7+ 1 103.0542 -0.26
  115.0541 C9H7+ 1 115.0542 -1.19
  116.062 C9H8+ 1 116.0621 -0.62
  120.0209 C4H7ClNO+ 2 120.0211 -1.07
  129.0699 C10H9+ 1 129.0699 0.18
  131.0856 C10H11+ 1 131.0855 0.33
  134.0369 C5H9ClNO+ 2 134.0367 1.36
  147.1041 C10H13N+ 1 147.1043 -0.96
  174.1274 C12H16N+ 1 174.1277 -1.76
  176.1071 C11H14NO+ 1 176.107 0.45
  219.1617 C14H21NO+ 1 219.1618 -0.16
  220.1695 C14H22NO+ 1 220.1696 -0.32
  250.0993 C14H17ClNO+ 1 250.0993 0.13
  296.1409 C16H23ClNO2+ 1 296.1412 -0.85
PK$NUM_PEAK: 16
PK$PEAK: m/z int. rel.int.
  73.0648 53914.6 41
  91.0542 107193.9 82
  103.0542 2775.4 2
  115.0541 10184.2 7
  116.062 9853.8 7
  120.0209 3237.7 2
  129.0699 59259.1 45
  131.0856 1299791.6 999
  134.0369 17917.7 13
  147.1041 3709.5 2
  174.1274 13549.7 10
  176.1071 22632.2 17
  219.1617 11732.5 9
  220.1695 93925.5 72
  250.0993 1267325.4 974
  296.1409 516853.6 397
//
