ACCESSION: MSBNK-Eawag-EQ01124001
RECORD_TITLE: Enoxastrobin; LC-ESI-QFT; MS2; CE: 15%; R=17500; [M+H]+
DATE: 2023.04.27
AUTHORS: B. Beck [dtc,com], J. Hollender [dtc]
LICENSE: CC BY-SA
COPYRIGHT: Copyright (C) Eawag 2023
COMMENT: CONFIDENCE standard compound
COMMENT: UCHEM_ID 11240
CH$NAME: Enoxastrobin
CH$NAME: methyl 2-[2-[[4-(4-chlorophenyl)but-3-en-2-ylideneamino]oxymethyl]phenyl]-3-methoxyprop-2-enoate
CH$COMPOUND_CLASS: N/A; Environmental Standard
CH$FORMULA: C22H22ClNO4
CH$EXACT_MASS: 399.1237
CH$SMILES: CC(=NOCC1=CC=CC=C1C(=COC)C(=O)OC)C=CC2=CC=C(C=C2)Cl
CH$IUPAC: InChI=1S/C22H22ClNO4/c1-16(8-9-17-10-12-19(23)13-11-17)24-28-14-18-6-4-5-7-20(18)21(15-26-2)22(25)27-3/h4-13,15H,14H2,1-3H3
CH$LINK: PUBCHEM CID:73770766
CH$LINK: INCHIKEY VMNULHCTRPXWFJ-UHFFFAOYSA-N
AC$INSTRUMENT: Exploris 240 Orbitrap Thermo Scientific
AC$INSTRUMENT_TYPE: LC-ESI-QFT
AC$MASS_SPECTROMETRY: MS_TYPE MS2
AC$MASS_SPECTROMETRY: ION_MODE POSITIVE
AC$MASS_SPECTROMETRY: IONIZATION ESI
AC$MASS_SPECTROMETRY: FRAGMENTATION_MODE HCD
AC$MASS_SPECTROMETRY: COLLISION_ENERGY 15 % (nominal)
AC$MASS_SPECTROMETRY: RESOLUTION 17500
AC$MASS_SPECTROMETRY: MASS_RANGE_M/Z 50-429
AC$CHROMATOGRAPHY: COLUMN_NAME XBridge C18 3.5um, 2.1x50mm, Waters
AC$CHROMATOGRAPHY: FLOW_GRADIENT 90/10 at 0 min, 50/50 at 4 min, 5/95 at 17 min, 5/95 at 25 min, 90/10 at 25.1 min, 90/10 at 30 min
AC$CHROMATOGRAPHY: FLOW_RATE 200 uL/min
AC$CHROMATOGRAPHY: RETENTION_TIME 13.142 min
MS$FOCUSED_ION: BASE_PEAK 400.1307
MS$FOCUSED_ION: PRECURSOR_M/Z 400.131
MS$FOCUSED_ION: PRECURSOR_TYPE [M+H]+
MS$DATA_PROCESSING: RECALIBRATE loess on assigned fragments and MS1
MS$DATA_PROCESSING: REANALYZE Peaks with additional N2/O included
MS$DATA_PROCESSING: WHOLE RMassBank 3.11.0.1
PK$SPLASH: splash10-004i-0910000000-65486097dfaad24dd1fa
PK$ANNOTATION: m/z tentative_formula formula_count mass error(ppm)
  137.0151 C8H6Cl+ 1 137.0153 -0.87
  145.0649 C10H9O+ 2 145.0648 0.49
  178.0417 C10H9ClN+ 2 178.0418 -0.35
  205.086 C12H13O3+ 2 205.0859 0.45
PK$NUM_PEAK: 4
PK$PEAK: m/z int. rel.int.
  137.0151 1192851.6 21
  145.0649 3036891 53
  178.0417 56632344 999
  205.086 11779814 207
//
