ACCESSION: MSBNK-Eawag-EA023602
RECORD_TITLE: 4-Acetamidoantipyrine; LC-ESI-ITFT; MS2; CE: 15%; R=7500; [M+H]+
DATE: 2014.01.14
AUTHORS: Stravs M, Schymanski E, Singer H, Department of Environmental Chemistry, Eawag
LICENSE: CC BY
COPYRIGHT: Copyright (C) 2012 Eawag, Duebendorf, Switzerland
COMMENT: CONFIDENCE standard compound
COMMENT: EAWAG_UCHEM_ID 236
CH$NAME: 4-Acetamidoantipyrine
CH$NAME: N-(1,5-dimethyl-3-oxidanylidene-2-phenyl-pyrazol-4-yl)ethanamide
CH$COMPOUND_CLASS: N/A; Environmental Standard
CH$FORMULA: C13H15N3O2
CH$EXACT_MASS: 245.1164
CH$SMILES: CC(=O)NC=2C(=O)N(c1ccccc1)N(C)C=2C
CH$IUPAC: InChI=1S/C13H15N3O2/c1-9-12(14-10(2)17)13(18)16(15(9)3)11-7-5-4-6-8-11/h4-8H,1-3H3,(H,14,17)
CH$LINK: CAS 83-15-8
CH$LINK: PUBCHEM CID:65743
CH$LINK: INCHIKEY OIAGWXKSCXPNNZ-UHFFFAOYSA-N
CH$LINK: CHEMSPIDER 59166
CH$LINK: COMPTOX DTXSID40232106
AC$INSTRUMENT: LTQ Orbitrap XL Thermo Scientific
AC$INSTRUMENT_TYPE: LC-ESI-ITFT
AC$MASS_SPECTROMETRY: MS_TYPE MS2
AC$MASS_SPECTROMETRY: ION_MODE POSITIVE
AC$MASS_SPECTROMETRY: IONIZATION ESI
AC$MASS_SPECTROMETRY: FRAGMENTATION_MODE HCD
AC$MASS_SPECTROMETRY: COLLISION_ENERGY 15 % (nominal)
AC$MASS_SPECTROMETRY: RESOLUTION 7500
AC$CHROMATOGRAPHY: COLUMN_NAME XBridge C18 3.5um, 2.1x50mm, Waters
AC$CHROMATOGRAPHY: FLOW_GRADIENT 90/10 at 0 min, 50/50 at 4 min, 5/95 at 17 min, 5/95 at 25 min, 90/10 at 25.1 min, 90/10 at 30 min
AC$CHROMATOGRAPHY: FLOW_RATE 200 ul/min
AC$CHROMATOGRAPHY: RETENTION_TIME 3.7 min
AC$CHROMATOGRAPHY: SOLVENT A water with 0.1% formic acid
AC$CHROMATOGRAPHY: SOLVENT B methanol with 0.1% formic acid
MS$FOCUSED_ION: BASE_PEAK 246.1244
MS$FOCUSED_ION: PRECURSOR_M/Z 246.1237
MS$FOCUSED_ION: PRECURSOR_TYPE [M+H]+
MS$DATA_PROCESSING: DEPROFILE Spline
MS$DATA_PROCESSING: RECALIBRATE loess on assigned fragments and MS1
MS$DATA_PROCESSING: REANALYZE Peaks with additional N2/O included
MS$DATA_PROCESSING: WHOLE RMassBank 1.3.1
PK$SPLASH: splash10-0002-0090000000-b03d3f442b6f1f82a645
PK$ANNOTATION: m/z tentative_formula formula_count mass error(ppm)
  83.0601 C4H7N2+ 1 83.0604 -3.55
  104.049 C7H6N+ 1 104.0495 -4.19
  204.1131 C11H14N3O+ 1 204.1131 -0.24
  228.1131 C13H14N3O+ 1 228.1131 -0.08
  246.124 C13H16N3O2+ 1 246.1237 1.25
PK$NUM_PEAK: 5
PK$PEAK: m/z int. rel.int.
  83.0601 28221.9 4
  104.049 16596.6 2
  204.1131 331832 52
  228.1131 1397689.1 220
  246.124 6343216.6 999
//
