ACCESSION: MSBNK-Eawag-EQ346003
RECORD_TITLE: N-Nitrosodibutylamine (NDBA); LC-ESI-QFT; MS2; CE: 45; R=70000; [M+H]+
DATE: 2015.08.25
AUTHORS: Beck B, Stravs M, Schymanski E, Singer H, Department of Environmental Chemistry, Eawag
LICENSE: CC BY
COPYRIGHT: Copyright (C) 2015 Eawag, Duebendorf, Switzerland
COMMENT: CONFIDENCE standard compound
COMMENT: EAWAG_UCHEM_ID 3460
CH$NAME: N-Nitrosodibutylamine (NDBA)
CH$NAME: N,N-dibutylnitrous amide
CH$COMPOUND_CLASS: N/A; Environmental Standard
CH$FORMULA: C8H18N2O
CH$EXACT_MASS: 158.14191
CH$SMILES: O=NN(CCCC)CCCC
CH$IUPAC: InChI=1S/C8H18N2O/c1-3-5-7-10(9-11)8-6-4-2/h3-8H2,1-2H3
CH$LINK: CAS 924-16-3
CH$LINK: KEGG C19277
CH$LINK: PUBCHEM CID:13542
CH$LINK: INCHIKEY YGJHZCLPZAZIHH-UHFFFAOYSA-N
CH$LINK: CHEMSPIDER 12954
CH$LINK: COMPTOX DTXSID2021026
AC$INSTRUMENT: Q Exactive Plus Orbitrap Thermo Scientific
AC$INSTRUMENT_TYPE: LC-ESI-QFT
AC$MASS_SPECTROMETRY: MS_TYPE MS2
AC$MASS_SPECTROMETRY: ION_MODE POSITIVE
AC$MASS_SPECTROMETRY: IONIZATION ESI
AC$MASS_SPECTROMETRY: FRAGMENTATION_MODE HCD
AC$MASS_SPECTROMETRY: COLLISION_ENERGY 45 (nominal)
AC$MASS_SPECTROMETRY: RESOLUTION 70000
AC$CHROMATOGRAPHY: COLUMN_NAME XBridge C18 3.5um, 2.1x50mm, Waters
AC$CHROMATOGRAPHY: FLOW_GRADIENT 90/10 at 0 min, 50/50 at 4 min, 5/95 at 17 min, 5/95 at 25 min, 90/10 at 25.1 min, 90/10 at 30 min
AC$CHROMATOGRAPHY: FLOW_RATE 200 ul/min
AC$CHROMATOGRAPHY: RETENTION_TIME 9.5 min
AC$CHROMATOGRAPHY: SOLVENT A water with 0.1% formic acid
AC$CHROMATOGRAPHY: SOLVENT B methanol with 0.1% formic acid
MS$FOCUSED_ION: BASE_PEAK 159.1492
MS$FOCUSED_ION: PRECURSOR_M/Z 159.1492
MS$FOCUSED_ION: PRECURSOR_TYPE [M+H]+
MS$DATA_PROCESSING: RECALIBRATE loess on assigned fragments and MS1
MS$DATA_PROCESSING: REANALYZE Peaks with additional N2/O included
MS$DATA_PROCESSING: WHOLE RMassBank 1.9.6
PK$SPLASH: splash10-0a4i-9300000000-45591f27b73f7f7985e8
PK$ANNOTATION: m/z tentative_formula formula_count mass error(ppm)
  53.0022 C3HO+ 1 53.0022 0.17
  53.9975 C2NO+ 1 53.9974 0.18
  55.0542 C4H7+ 1 55.0542 0.06
  57.0699 C4H9+ 1 57.0699 -0.12
  61.0396 CH5N2O+ 1 61.0396 -1.13
  67.9893 C3O2+ 1 67.9893 -0.01
  103.0866 C4H11N2O+ 1 103.0866 -0.09
  159.1493 C8H19N2O+ 1 159.1492 0.44
PK$NUM_PEAK: 8
PK$PEAK: m/z int. rel.int.
  53.0022 1542003.1 23
  53.9975 263287.8 4
  55.0542 319126.1 4
  57.0699 64286132 999
  61.0396 70511.7 1
  67.9893 280054 4
  103.0866 18791304 292
  159.1493 5262542.5 81
//
