ACCESSION: MSBNK-Eawag-EQ324805
RECORD_TITLE: MCLY; LC-ESI-QFT; MS2; CE: 75%; R=17500; [M+H]+
DATE: 2020.02.03
AUTHORS: E. Janssen [dtc], B. Lauper [com]
LICENSE: CC BY-SA
COPYRIGHT: Copyright (C) Eawag 2019
COMMENT: CONFIDENCE standard compound
COMMENT: UCHEM_ID 3248
COMMENT: NaToxAq - Natural Toxins and Drinking Water Quality - From Source to Tap (https://natoxaq.ku.dk)
COMMENT: EQ cyanopeptide spectra replaced with more comprehensive acquisition.
CH$NAME: MCLY
CH$NAME: Microcystin LY
CH$NAME: (5R,8S,11R,12S,15S,18S,19S,22R)-15-[(4-hydroxyphenyl)methyl]-18-[(1E,3E,5S,6S)-6-methoxy-3,5-dimethyl-7-phenylhepta-1,3-dienyl]-1,5,12,19-tetramethyl-2-methylidene-8-(2-methylpropyl)-3,6,9,13,16,20,25-heptaoxo-1,4,7,10,14,17,21-heptazacyclopentacosane-11,22-dicarboxylic acid
CH$COMPOUND_CLASS: NA
CH$FORMULA: C52H71N7O13
CH$EXACT_MASS: 1001.5110
CH$SMILES: COC(Cc1ccccc1)C(C)\C=C(C)\C=C/C2NC(=O)C(Cc3ccc(O)cc3)NC(=O)C(C)C(NC(=O)C(CC(C)C)NC(=O)C(C)NC(=O)C(=C)N(C)C(=O)CCC(NC(=O)C2C)C(O)=O)C(O)=O
CH$IUPAC: InChI=1S/C52H71N7O13/c1-28(2)24-40-50(67)58-44(52(70)71)32(6)46(63)56-41(26-36-17-19-37(60)20-18-36)49(66)54-38(21-16-29(3)25-30(4)42(72-10)27-35-14-12-11-13-15-35)31(5)45(62)55-39(51(68)69)22-23-43(61)59(9)34(8)48(65)53-33(7)47(64)57-40/h11-21,25,28,30-33,38-42,44,60H,8,22-24,26-27H2,1-7,9-10H3,(H,53,65)(H,54,66)(H,55,62)(H,56,63)(H,57,64)(H,58,67)(H,68,69)(H,70,71)/b21-16-,29-25+
CH$LINK: PUBCHEM CID:6440826
CH$LINK: INCHIKEY SIGQAYSWORHPPH-GFXLLRAPSA-N
CH$LINK: CHEMSPIDER 4945072
AC$INSTRUMENT: Q Exactive Plus Orbitrap Thermo Scientific
AC$INSTRUMENT_TYPE: LC-ESI-QFT
AC$MASS_SPECTROMETRY: MS_TYPE MS2
AC$MASS_SPECTROMETRY: ION_MODE POSITIVE
AC$MASS_SPECTROMETRY: IONIZATION ESI
AC$MASS_SPECTROMETRY: FRAGMENTATION_MODE HCD
AC$MASS_SPECTROMETRY: COLLISION_ENERGY 75 % (nominal)
AC$MASS_SPECTROMETRY: RESOLUTION 17500
AC$CHROMATOGRAPHY: COLUMN_NAME XBridge C18 3.5um, 2.1x50mm, Waters
AC$CHROMATOGRAPHY: FLOW_GRADIENT 90/10 at 0 min, 50/50 at 4 min, 5/95 at 17 min, 5/95 at 25 min, 90/10 at 25.1 min, 90/10 at 30 min
AC$CHROMATOGRAPHY: FLOW_RATE 200 uL/min
AC$CHROMATOGRAPHY: RETENTION_TIME 10.738 min
AC$CHROMATOGRAPHY: SOLVENT A water with 0.1% formic acid
AC$CHROMATOGRAPHY: SOLVENT B MeOH with 0.1% formic acid
MS$FOCUSED_ION: BASE_PEAK 164.9846
MS$FOCUSED_ION: PRECURSOR_M/Z 1002.5183
MS$FOCUSED_ION: PRECURSOR_TYPE [M+H]+
MS$DATA_PROCESSING: RECALIBRATE loess on assigned fragments and MS1
MS$DATA_PROCESSING: REANALYZE Peaks with additional N2/O included
MS$DATA_PROCESSING: WHOLE RMassBank 2.99.1
PK$SPLASH: splash10-0pdl-4900000000-812e232b570cbdbdf38b
PK$ANNOTATION: m/z tentative_formula formula_count mass error(ppm)
  74.0236 C2H4NO2+ 1 74.0237 -0.44
  77.0384 C6H5+ 1 77.0386 -1.92
  79.0542 C6H7+ 1 79.0542 -0.4
  80.0495 C5H6N+ 1 80.0495 -0.01
  81.0699 C6H9+ 1 81.0699 0.44
  82.0288 C4H4NO+ 1 82.0287 1.02
  82.0651 C5H8N+ 1 82.0651 -0.11
  84.0444 C4H6NO+ 1 84.0444 0.62
  85.0285 C4H5O2+ 1 85.0284 0.88
  86.0601 C4H8NO+ 1 86.06 0.72
  86.0964 C5H12N+ 1 86.0964 -0.17
  91.0543 C7H7+ 1 91.0542 0.43
  92.0622 C7H8+ 1 92.0621 1.44
  93.0699 C7H9+ 1 93.0699 0.62
  94.0652 C6H8N+ 1 94.0651 0.34
  95.0492 C6H7O+ 1 95.0491 0.1
  95.0855 C7H11+ 1 95.0855 -0.23
  96.0443 C5H6NO+ 1 96.0444 -1.26
  96.0806 C6H10N+ 1 96.0808 -2.06
  99.0917 C5H11N2+ 1 99.0917 0.19
  102.0465 C8H6+ 1 102.0464 1.24
  102.0547 C4H8NO2+ 1 102.055 -2.06
  103.0542 C8H7+ 1 103.0542 0.08
  105.0449 C6H5N2+ 1 105.0447 1.23
  105.0699 C8H9+ 1 105.0699 0.16
  106.0652 C7H8N+ 1 106.0651 0.65
  107.0491 C7H7O+ 1 107.0491 -0.13
  107.0855 C8H11+ 1 107.0855 0
  108.0682 C6H8N2+ 1 108.0682 0.29
  108.0807 C7H10N+ 1 108.0808 -0.3
  109.0648 C7H9O+ 1 109.0648 0.34
  110.0602 C6H8NO+ 1 110.06 1.08
  110.0965 C7H12N+ 1 110.0964 0.87
  113.0234 C5H5O3+ 1 113.0233 0.38
  113.0709 C5H9N2O+ 1 113.0709 -0.13
  115.0543 C9H7+ 1 115.0542 0.23
  116.0621 C9H8+ 1 116.0621 0.77
  117.0571 C8H7N+ 1 117.0573 -1.42
  117.0698 C9H9+ 1 117.0699 -0.34
  118.0653 C8H8N+ 1 118.0651 1.57
  119.0492 C8H7O+ 1 119.0491 0.2
  119.0603 C7H7N2+ 1 119.0604 -0.4
  119.0855 C9H11+ 1 119.0855 -0.2
  120.0573 C8H8O+ 1 120.057 2.8
  120.0807 C8H10N+ 1 120.0808 -0.49
  120.0934 C9H12+ 1 120.0934 0.25
  121.076 C7H9N2+ 1 121.076 -0.07
  121.1012 C9H13+ 1 121.1012 -0.05
  122.06 C7H8NO+ 1 122.06 -0.24
  122.0837 C7H10N2+ 1 122.0838 -1.54
  122.0964 C8H12N+ 1 122.0964 0
  123.0913 C7H11N2+ 1 123.0917 -2.79
  124.0757 C7H10NO+ 1 124.0757 -0.09
  124.1124 C8H14N+ 1 124.1121 2.8
  127.0866 C6H11N2O+ 1 127.0866 -0.1
  128.0619 C10H8+ 1 128.0621 -0.84
  128.0707 C6H10NO2+ 1 128.0706 0.53
  129.0698 C10H9+ 1 129.0699 -0.67
  130.0499 C5H8NO3+ 1 130.0499 0.08
  130.0652 C9H8N+ 1 130.0651 0.8
  130.0774 C10H10+ 1 130.0777 -2.04
  131.0855 C10H11+ 1 131.0855 -0.13
  132.0808 C9H10N+ 1 132.0808 0.37
  133.1009 C10H13+ 1 133.1012 -1.93
  134.0968 C9H12N+ 1 134.0964 2.78
  135.0688 C8H9NO+ NA 135.0679 6.68
  135.0804 C9H11O+ 1 135.0804 -0.46
  135.1167 C10H15+ 1 135.1168 -0.97
  136.0757 C8H10NO+ 1 136.0757 0.04
  138.055 C7H8NO2+ 1 138.055 0.24
  139.0869 C7H11N2O+ 1 139.0866 2.08
  141.07 C11H9+ 1 141.0699 1.11
  143.085 C11H11+ 1 143.0855 -3.45
  144.0814 C10H10N+ 1 144.0808 4.24
  145.0646 C10H9O+ 1 145.0648 -1.3
  145.1012 C11H13+ 1 145.1012 -0.09
  146.06 C9H8NO+ 1 146.06 -0.52
  146.0969 C10H12N+ 1 146.0964 3.08
  149.0711 C8H9N2O+ 1 149.0709 0.91
  151.0864 C8H11N2O+ 1 151.0866 -1.15
  153.0695 C12H9+ 1 153.0699 -2.77
  155.0818 C7H11N2O2+ 1 155.0815 2.03
  158.0967 C11H12N+ 1 158.0964 1.59
  159.0805 C11H11O+ 1 159.0804 0.41
  162.0553 C9H8NO2+ 1 162.055 2.31
  162.0914 C10H12NO+ 1 162.0913 0.09
  162.1276 C11H16N+ 1 162.1277 -0.9
  163.1118 C11H15O+ 1 163.1117 0.41
  165.0696 C13H9+ 1 165.0699 -1.4
  167.0816 C8H11N2O2+ 1 167.0815 0.72
  168.0653 C8H10NO3+ 1 168.0655 -1.1
  174.0917 C11H12NO+ 1 174.0913 1.8
  179.0858 H13N5O6+ 2 179.086 -1.14
  180.0934 C14H12+ 2 180.0934 0.31
  181.1013 C14H13+ 2 181.1012 0.87
  195.0773 C9H11N2O3+ 1 195.0764 4.4
  213.087 C9H13N2O4+ 1 213.087 0.31
PK$NUM_PEAK: 99
PK$PEAK: m/z int. rel.int.
  74.0236 30603.8 22
  77.0384 35212.6 25
  79.0542 356328.4 257
  80.0495 75306.8 54
  81.0699 23136.8 16
  82.0288 25882.3 18
  82.0651 221006.8 159
  84.0444 276642.7 199
  84.0808 13765.5 9
  85.0285 23824.5 17
  86.0601 26805.4 19
  86.0964 329815.7 237
  91.0543 1384893 999
  92.0622 9124.5 6
  93.0699 318406.8 229
  94.0652 77924.2 56
  95.0492 328425.1 236
  95.0855 30459.3 21
  96.0443 15682.1 11
  96.0806 27877.2 20
  99.0917 178138.5 128
  102.0465 24735.2 17
  102.0547 27453 19
  103.0542 1222152.9 881
  105.0449 101260.2 73
  105.0699 753297 543
  106.0652 8649.9 6
  107.0491 68523 49
  107.0855 1239574 894
  108.0682 19810.9 14
  108.0807 23375.6 16
  109.0648 112826.5 81
  110.0602 81541.8 58
  110.0965 14448.3 10
  113.0234 60368.1 43
  113.0709 14699.1 10
  115.0543 161314.2 116
  116.0621 15751.6 11
  117.0571 11415 8
  117.0698 202489 146
  118.0653 34401.9 24
  119.0492 247681.2 178
  119.0603 65425.4 47
  119.0855 86840.2 62
  120.0573 35664 25
  120.0807 28157.4 20
  120.0934 20565.7 14
  121.076 102191.6 73
  121.1012 14727.2 10
  122.06 17933.5 12
  122.0837 15794.1 11
  122.0964 22445.6 16
  123.0913 32243.4 23
  124.0757 15832.6 11
  124.1124 10786.8 7
  127.0866 836912.7 603
  128.0619 71859 51
  128.0707 12177 8
  129.0698 67343.1 48
  130.0499 22457.5 16
  130.0652 25461.5 18
  130.0774 28069.8 20
  131.0855 97187.8 70
  132.0808 12756.9 9
  133.1009 39190.6 28
  134.0968 16649.7 12
  135.0688 14361 10
  135.0804 218552 157
  135.106 10094.7 7
  135.1167 179471.2 129
  136.0757 538858.9 388
  138.055 48542.3 35
  139.0869 20119.4 14
  141.07 13012.1 9
  143.085 41412 29
  144.0814 12657.2 9
  145.0646 14360.3 10
  145.1012 42061.6 30
  146.06 61527.2 44
  146.0969 37801 27
  149.0711 99101.3 71
  151.0864 7795.1 5
  153.0695 9507.3 6
  155.0818 29785.1 21
  158.0967 10791.1 7
  159.0805 17041 12
  162.0553 13954.7 10
  162.0914 23700 17
  162.1276 9252.5 6
  163.1118 26962.6 19
  165.0696 45519.3 32
  167.0816 231817.6 167
  168.0653 25921.2 18
  174.0917 14267.4 10
  179.0858 32680.4 23
  180.0934 11426.9 8
  181.1013 17387.3 12
  195.0773 49924.7 36
  213.087 31866.8 22
//
