ACCESSION: MSBNK-Eawag-EA024008
RECORD_TITLE: Iomeprol; LC-ESI-ITFT; MS2; CE: 15%; R=15000; [M+H]+
DATE: 2014.01.14
AUTHORS: Stravs M, Schymanski E, Singer H, Department of Environmental Chemistry, Eawag
LICENSE: CC BY
COPYRIGHT: Copyright (C) 2012 Eawag, Duebendorf, Switzerland
COMMENT: CONFIDENCE standard compound
COMMENT: EAWAG_UCHEM_ID 240
CH$NAME: Iomeprol
CH$NAME: 1-N,3-N-bis(2,3-dihydroxypropyl)-5-[(2-hydroxyacetyl)-methylamino]-2,4,6-triiodobenzene-1,3-dicarboxamide
CH$COMPOUND_CLASS: N/A; Environmental Standard
CH$FORMULA: C17H22I3N3O8
CH$EXACT_MASS: 776.8541
CH$SMILES: Ic1c(c(I)c(c(I)c1N(C)C(=O)CO)C(=O)NCC(O)CO)C(=O)NCC(O)CO
CH$IUPAC: InChI=1S/C17H22I3N3O8/c1-23(9(29)6-26)15-13(19)10(16(30)21-2-7(27)4-24)12(18)11(14(15)20)17(31)22-3-8(28)5-25/h7-8,24-28H,2-6H2,1H3,(H,21,30)(H,22,31)
CH$LINK: CAS 78649-41-9
CH$LINK: KEGG D01719
CH$LINK: PUBCHEM CID:3731
CH$LINK: INCHIKEY NJKDOADNQSYQEV-UHFFFAOYSA-N
CH$LINK: CHEMSPIDER 3600
CH$LINK: COMPTOX DTXSID1049061
AC$INSTRUMENT: LTQ Orbitrap XL Thermo Scientific
AC$INSTRUMENT_TYPE: LC-ESI-ITFT
AC$MASS_SPECTROMETRY: MS_TYPE MS2
AC$MASS_SPECTROMETRY: ION_MODE POSITIVE
AC$MASS_SPECTROMETRY: IONIZATION ESI
AC$MASS_SPECTROMETRY: FRAGMENTATION_MODE HCD
AC$MASS_SPECTROMETRY: COLLISION_ENERGY 15 % (nominal)
AC$MASS_SPECTROMETRY: RESOLUTION 15000
AC$CHROMATOGRAPHY: COLUMN_NAME XBridge C18 3.5um, 2.1x50mm, Waters
AC$CHROMATOGRAPHY: FLOW_GRADIENT 90/10 at 0 min, 50/50 at 4 min, 5/95 at 17 min, 5/95 at 25 min, 90/10 at 25.1 min, 90/10 at 30 min
AC$CHROMATOGRAPHY: FLOW_RATE 200 ul/min
AC$CHROMATOGRAPHY: RETENTION_TIME 1.6 min
AC$CHROMATOGRAPHY: SOLVENT A water with 0.1% formic acid
AC$CHROMATOGRAPHY: SOLVENT B methanol with 0.1% formic acid
MS$FOCUSED_ION: BASE_PEAK 132.9578
MS$FOCUSED_ION: PRECURSOR_M/Z 777.8614
MS$FOCUSED_ION: PRECURSOR_TYPE [M+H]+
MS$DATA_PROCESSING: DEPROFILE Spline
MS$DATA_PROCESSING: RECALIBRATE loess on assigned fragments and MS1
MS$DATA_PROCESSING: REANALYZE Peaks with additional N2/O included
MS$DATA_PROCESSING: WHOLE RMassBank 1.3.1
PK$SPLASH: splash10-0550-1000098800-25479ede47fc75d0ac1c
PK$ANNOTATION: m/z tentative_formula formula_count mass error(ppm)
  74.06 C3H8NO+ 1 74.06 -0.54
  325.9395 C7H7IN2O5+ 1 325.9394 0.34
  531.899 C13H14I2N2O5+ 2 531.8987 0.57
  558.8857 C14H13I2N2O6+ 3 558.8858 -0.19
  563.8897 C13H14I2N2O7+ 3 563.8885 2.2
  686.798 C17H12I3N3O3+ 2 686.8007 -3.93
  759.8534 C17H21I3N3O7+ 1 759.8508 3.37
  777.8616 C17H23I3N3O8+ 1 777.8614 0.22
PK$NUM_PEAK: 8
PK$PEAK: m/z int. rel.int.
  74.06 4778.7 136
  325.9395 2044.4 58
  531.899 6418.6 183
  558.8857 27862.6 797
  563.8897 1621.1 46
  686.798 34896.8 999
  759.8534 3588.8 102
  777.8616 30514.8 873
//
