ACCESSION: MSBNK-Eawag-EQ284405
RECORD_TITLE: Rivastigmine; LC-ESI-QFT; MS2; CE: 75; R=35000; [M+H]+
DATE: 2015.08.25
AUTHORS: Beck B, Stravs M, Schymanski E, Singer H, Department of Environmental Chemistry, Eawag
LICENSE: CC BY
COPYRIGHT: Copyright (C) 2015 Eawag, Duebendorf, Switzerland
COMMENT: CONFIDENCE standard compound
COMMENT: EAWAG_UCHEM_ID 2844
CH$NAME: Rivastigmine
CH$NAME: N-ethyl-N-methyl-carbamic acid [3-[(1S)-1-(dimethylamino)ethyl]phenyl] ester
CH$COMPOUND_CLASS: N/A; Environmental Standard
CH$FORMULA: C14H22N2O2
CH$EXACT_MASS: 250.16813
CH$SMILES: O=C(Oc1cc(ccc1)[C@@H](N(C)C)C)N(CC)C
CH$IUPAC: InChI=1S/C14H22N2O2/c1-6-16(5)14(17)18-13-9-7-8-12(10-13)11(2)15(3)4/h7-11H,6H2,1-5H3/t11-/m0/s1
CH$LINK: CAS 123441-03-2
CH$LINK: KEGG C11766
CH$LINK: PUBCHEM CID:77991
CH$LINK: INCHIKEY XSVMFMHYUFZWBK-NSHDSACASA-N
CH$LINK: CHEMSPIDER 70377
CH$LINK: COMPTOX DTXSID7023564
AC$INSTRUMENT: Q Exactive Orbitrap Thermo Scientific
AC$INSTRUMENT_TYPE: LC-ESI-QFT
AC$MASS_SPECTROMETRY: MS_TYPE MS2
AC$MASS_SPECTROMETRY: ION_MODE POSITIVE
AC$MASS_SPECTROMETRY: IONIZATION ESI
AC$MASS_SPECTROMETRY: FRAGMENTATION_MODE HCD
AC$MASS_SPECTROMETRY: COLLISION_ENERGY 75 (nominal)
AC$MASS_SPECTROMETRY: RESOLUTION 35000
AC$CHROMATOGRAPHY: COLUMN_NAME XBridge C18 3.5um, 2.1x50mm, Waters
AC$CHROMATOGRAPHY: FLOW_GRADIENT 90/10 at 0 min, 50/50 at 4 min, 5/95 at 17 min, 5/95 at 25 min, 90/10 at 25.1 min, 90/10 at 30 min
AC$CHROMATOGRAPHY: FLOW_RATE 200 ul/min
AC$CHROMATOGRAPHY: RETENTION_TIME 5.0 min
AC$CHROMATOGRAPHY: SOLVENT A water with 0.1% formic acid
AC$CHROMATOGRAPHY: SOLVENT B methanol with 0.1% formic acid
MS$FOCUSED_ION: BASE_PEAK 251.1756
MS$FOCUSED_ION: PRECURSOR_M/Z 251.1754
MS$FOCUSED_ION: PRECURSOR_TYPE [M+H]+
MS$DATA_PROCESSING: DEPROFILE Spline
MS$DATA_PROCESSING: RECALIBRATE loess on assigned fragments and MS1
MS$DATA_PROCESSING: REANALYZE Peaks with additional N2/O included
MS$DATA_PROCESSING: WHOLE RMassBank 1.9.6
PK$SPLASH: splash10-052r-9000000000-42e62adc5ba35b92f991
PK$ANNOTATION: m/z tentative_formula formula_count mass error(ppm)
  58.0288 C2H4NO+ 1 58.0287 1.03
  77.0386 C6H5+ 1 77.0386 0.69
  79.0542 C6H7+ 1 79.0542 0.3
  86.0601 C4H8NO+ 1 86.06 0.23
  91.0542 C7H7+ 1 91.0542 -0.07
  93.0699 C7H9+ 1 93.0699 0.04
  95.0492 C6H7O+ 1 95.0491 0.41
  103.0543 C8H7+ 1 103.0542 0.52
  105.0699 C8H9+ 1 105.0699 0.22
  107.0857 C8H11+ 1 107.0855 1.43
  120.057 C8H8O+ 1 120.057 0.28
  121.0648 C8H9O+ 1 121.0648 -0.09
  121.1011 C9H13+ 1 121.1012 -0.63
  131.0859 C10H11+ 1 131.0855 2.92
  135.0805 C9H11O+ 1 135.0804 0.66
  206.1175 C12H16NO2+ 1 206.1176 -0.17
PK$NUM_PEAK: 16
PK$PEAK: m/z int. rel.int.
  58.0288 323397636.5 862
  77.0386 386279.2 1
  79.0542 8090309.4 21
  86.0601 374669120.1 999
  91.0542 4746605.9 12
  93.0699 10051487.3 26
  95.0492 3880877.9 10
  103.0543 6848030.3 18
  105.0699 11041570.6 29
  107.0857 482429.3 1
  120.057 497205.7 1
  121.0648 12375227.2 32
  121.1011 2175383.7 5
  131.0859 414390 1
  135.0805 1766151.1 4
  206.1175 7822855.7 20
//
