ACCESSION: MSBNK-Eawag-EQ360701
RECORD_TITLE: Norclozapine; LC-ESI-QFT; MS2; CE: 15; R=35000; [M+H]+
DATE: 2015.08.25
AUTHORS: Stravs M, Schymanski E, Singer H, Department of Environmental Chemistry, Eawag and Thomaidis N, University of Athens
LICENSE: CC BY
COPYRIGHT: Copyright (C) 2015 Eawag, Duebendorf, Switzerland
COMMENT: CONFIDENCE standard compound
COMMENT: EAWAG_UCHEM_ID 3607
CH$NAME: Norclozapine
CH$NAME: 3-chloro-6-piperazin-1-yl-5H-benzo[b][1,4]benzodiazepine
CH$COMPOUND_CLASS: N/A; Environmental Standard
CH$FORMULA: C17H17ClN4
CH$EXACT_MASS: 312.11417
CH$SMILES: C1CN(CCN1)C2=NC3=C(C=CC(=C3)Cl)NC4=CC=CC=C42
CH$IUPAC: InChI=1S/C17H17ClN4/c18-12-5-6-15-16(11-12)21-17(22-9-7-19-8-10-22)13-3-1-2-4-14(13)20-15/h1-6,11,19-20H,7-10H2
CH$LINK: CAS 6104-71-8
CH$LINK: CHEBI CHEBI:64050
CH$LINK: PUBCHEM CID:135409468
CH$LINK: INCHIKEY JNNOSTQEZICQQP-UHFFFAOYSA-N
CH$LINK: CHEMSPIDER 2718
AC$INSTRUMENT: Q Exactive Plus Orbitrap Thermo Scientific
AC$INSTRUMENT_TYPE: LC-ESI-QFT
AC$MASS_SPECTROMETRY: MS_TYPE MS2
AC$MASS_SPECTROMETRY: ION_MODE POSITIVE
AC$MASS_SPECTROMETRY: IONIZATION ESI
AC$MASS_SPECTROMETRY: FRAGMENTATION_MODE HCD
AC$MASS_SPECTROMETRY: COLLISION_ENERGY 15 (nominal)
AC$MASS_SPECTROMETRY: RESOLUTION 35000
AC$CHROMATOGRAPHY: COLUMN_NAME XBridge C18 3.5um, 2.1x50mm, Waters
AC$CHROMATOGRAPHY: FLOW_GRADIENT 90/10 at 0 min, 50/50 at 4 min, 5/95 at 17 min, 5/95 at 25 min, 90/10 at 25.1 min, 90/10 at 30 min
AC$CHROMATOGRAPHY: FLOW_RATE 200 ul/min
AC$CHROMATOGRAPHY: RETENTION_TIME 5.9 min
AC$CHROMATOGRAPHY: SOLVENT A water with 0.1% formic acid
AC$CHROMATOGRAPHY: SOLVENT B methanol with 0.1% formic acid
MS$FOCUSED_ION: BASE_PEAK 313.1204
MS$FOCUSED_ION: PRECURSOR_M/Z 313.1215
MS$FOCUSED_ION: PRECURSOR_TYPE [M+H]+
MS$DATA_PROCESSING: RECALIBRATE loess on assigned fragments and MS1
MS$DATA_PROCESSING: REANALYZE Peaks with additional N2/O included
MS$DATA_PROCESSING: WHOLE RMassBank 1.9.6
PK$SPLASH: splash10-03di-0009000000-f928c4ba1c90803420b6
PK$ANNOTATION: m/z tentative_formula formula_count mass error(ppm)
  192.0675 C13H8N2+ 1 192.0682 -3.64
  270.0786 C15H13ClN3+ 1 270.0793 -2.34
  313.1209 C17H18ClN4+ 1 313.1215 -1.89
PK$NUM_PEAK: 3
PK$PEAK: m/z int. rel.int.
  192.0675 1606271.5 3
  270.0786 940005.1 1
  313.1209 487606144 999
//
