ACCESSION: MSBNK-Eawag-EQ417954
RECORD_TITLE: Metolachlor-TP NOA413173; LC-ESI-QFT; MS2; CE: 60%; R=17500; [M-H]-
DATE: 2019.12.03
AUTHORS: K. Kiefer [dtc], J. Hollender [dtc], H. Singer [dtc], M. Stravs [com]
LICENSE: CC BY-SA
COPYRIGHT: Copyright (C) Eawag 2019
PUBLICATION: Kiefer, K.; Mueller, A.; Singer, H.; Hollender, J. New relevant pesticide transformation products in groundwater detected using target and suspect screening for agricultural and urban micropollutants with LC-HRMS. Water Research 2019, 165. DOI: https://doi.org/10.1016/j.watres.2019.114972
COMMENT: CONFIDENCE standard compound
COMMENT: UCHEM_ID 4179
CH$NAME: Metolachlor-TP NOA413173
CH$NAME: 2-(2-ethyl-6-methyl-N-(2-sulfoacetyl)anilino)propanoic acid
CH$COMPOUND_CLASS: N/A; Environmental Standard
CH$FORMULA: C14H19NO6S
CH$EXACT_MASS: 329.0933
CH$SMILES: CCC1=C(N(C(C)C(O)=O)C(=O)CS(O)(=O)=O)C(C)=CC=C1
CH$IUPAC: InChI=1S/C14H19NO6S/c1-4-11-7-5-6-9(2)13(11)15(10(3)14(17)18)12(16)8-22(19,20)21/h5-7,10H,4,8H2,1-3H3,(H,17,18)(H,19,20,21)
CH$LINK: PUBCHEM CID:124040761
CH$LINK: INCHIKEY WOXWIWNBIJDJHI-UHFFFAOYSA-N
CH$LINK: CHEMSPIDER 72389081
AC$INSTRUMENT: Q Exactive Orbitrap Thermo Scientific
AC$INSTRUMENT_TYPE: LC-ESI-QFT
AC$MASS_SPECTROMETRY: MS_TYPE MS2
AC$MASS_SPECTROMETRY: ION_MODE NEGATIVE
AC$MASS_SPECTROMETRY: IONIZATION ESI
AC$MASS_SPECTROMETRY: FRAGMENTATION_MODE HCD
AC$MASS_SPECTROMETRY: COLLISION_ENERGY 60 % (nominal)
AC$MASS_SPECTROMETRY: RESOLUTION 17500
AC$CHROMATOGRAPHY: COLUMN_NAME XBridge C18 3.5um, 2.1x50mm, Waters
AC$CHROMATOGRAPHY: FLOW_GRADIENT 90/10 at 0 min, 50/50 at 4 min, 5/95 at 17 min, 5/95 at 25 min, 90/10 at 25.1 min, 90/10 at 30 min
AC$CHROMATOGRAPHY: FLOW_RATE 200 uL/min
AC$CHROMATOGRAPHY: RETENTION_TIME 5.475 min
AC$CHROMATOGRAPHY: SOLVENT A water with 0.1% formic acid
AC$CHROMATOGRAPHY: SOLVENT B MeOH with 0.1% formic acid
MS$FOCUSED_ION: BASE_PEAK 328.0861
MS$FOCUSED_ION: PRECURSOR_M/Z 328.086
MS$FOCUSED_ION: PRECURSOR_TYPE [M-H]-
MS$DATA_PROCESSING: RECALIBRATE loess on assigned fragments and MS1
MS$DATA_PROCESSING: REANALYZE Peaks with additional N2/O included
MS$DATA_PROCESSING: WHOLE RMassBank 2.99.1
PK$SPLASH: splash10-004i-9200000000-482f8de0ebfef5ba59c6
PK$ANNOTATION: m/z tentative_formula formula_count mass error(ppm)
  63.9626 O2S- 1 63.9624 2.17
  64.9704 HO2S- 1 64.9703 1.79
  72.9932 C2HO3- 1 72.9931 1.33
  76.9704 CHO2S- 1 76.9703 1.02
  79.9574 O3S- 1 79.9574 1
  80.9652 HO3S- 1 80.9652 0.57
  93.9733 CH2O3S- 1 93.973 3.09
  94.9809 CH3O3S- 1 94.9808 0.59
  120.9602 C2HO4S- 1 120.9601 0.62
  134.0976 C9H12N- 2 134.0975 0.72
  135.0818 C9H11O- 1 135.0815 1.91
  144.082 C10H10N- 2 144.0819 0.87
  146.0976 C10H12N- 2 146.0975 0.27
  160.1137 C11H14N- 1 160.1132 3.39
  230.1191 C14H16NO2- 1 230.1187 1.81
  256.0649 C11H14NO4S- 1 256.0649 0.08
PK$NUM_PEAK: 16
PK$PEAK: m/z int. rel.int.
  63.9626 292622.7 8
  64.9704 301231.3 8
  72.9932 264435.8 7
  76.9704 16862576 480
  79.9574 35048220 999
  80.9652 4725857 134
  93.9733 290179.1 8
  94.9809 4532638 129
  120.9602 15033010 428
  134.0976 715587 20
  135.0818 1092916 31
  144.082 902591.4 25
  146.0976 357923.5 10
  160.1137 953586.1 27
  230.1191 764575.4 21
  256.0649 1808557.5 51
//
