ACCESSION: MSBNK-Eawag-EQ306455
RECORD_TITLE: Pencycuron; LC-ESI-QFT; MS2; CE: 75; R=35000; [M-H]-
DATE: 2015.08.25
AUTHORS: Beck B, Stravs M, Schymanski E, Singer H, Department of Environmental Chemistry, Eawag
LICENSE: CC BY
COPYRIGHT: Copyright (C) 2015 Eawag, Duebendorf, Switzerland
COMMENT: CONFIDENCE standard compound
COMMENT: EAWAG_UCHEM_ID 3064
CH$NAME: Pencycuron
CH$NAME: 1-(4-chlorobenzyl)-1-cyclopentyl-3-phenyl-urea
CH$COMPOUND_CLASS: N/A; Environmental Standard
CH$FORMULA: C19H21ClN2O
CH$EXACT_MASS: 328.13424
CH$SMILES: Clc1ccc(cc1)CN(C(=O)Nc2ccccc2)C3CCCC3
CH$IUPAC: InChI=1S/C19H21ClN2O/c20-16-12-10-15(11-13-16)14-22(18-8-4-5-9-18)19(23)21-17-6-2-1-3-7-17/h1-3,6-7,10-13,18H,4-5,8-9,14H2,(H,21,23)
CH$LINK: CAS 66063-05-6
CH$LINK: KEGG C11012
CH$LINK: PUBCHEM CID:91692
CH$LINK: INCHIKEY OGYFATSSENRIKG-UHFFFAOYSA-N
CH$LINK: CHEMSPIDER 82795
CH$LINK: COMPTOX DTXSID3042261
AC$INSTRUMENT: Q Exactive Orbitrap Thermo Scientific
AC$INSTRUMENT_TYPE: LC-ESI-QFT
AC$MASS_SPECTROMETRY: MS_TYPE MS2
AC$MASS_SPECTROMETRY: ION_MODE NEGATIVE
AC$MASS_SPECTROMETRY: IONIZATION ESI
AC$MASS_SPECTROMETRY: FRAGMENTATION_MODE HCD
AC$MASS_SPECTROMETRY: COLLISION_ENERGY 75 (nominal)
AC$MASS_SPECTROMETRY: RESOLUTION 35000
AC$CHROMATOGRAPHY: COLUMN_NAME XBridge C18 3.5um, 2.1x50mm, Waters
AC$CHROMATOGRAPHY: FLOW_GRADIENT 90/10 at 0 min, 50/50 at 4 min, 5/95 at 17 min, 5/95 at 25 min, 90/10 at 25.1 min, 90/10 at 30 min
AC$CHROMATOGRAPHY: FLOW_RATE 200 ul/min
AC$CHROMATOGRAPHY: RETENTION_TIME 13.8 min
AC$CHROMATOGRAPHY: SOLVENT A water with 0.1% formic acid
AC$CHROMATOGRAPHY: SOLVENT B methanol with 0.1% formic acid
MS$FOCUSED_ION: BASE_PEAK 327.1271
MS$FOCUSED_ION: PRECURSOR_M/Z 327.127
MS$FOCUSED_ION: PRECURSOR_TYPE [M-H]-
MS$DATA_PROCESSING: DEPROFILE Spline
MS$DATA_PROCESSING: RECALIBRATE loess on assigned fragments and MS1
MS$DATA_PROCESSING: REANALYZE Peaks with additional N2/O included
MS$DATA_PROCESSING: WHOLE RMassBank 1.9.6
PK$SPLASH: splash10-01ox-9500000000-03531bf3f5d105c4b6ce
PK$ANNOTATION: m/z tentative_formula formula_count mass error(ppm)
  81.0346 C5H5O- 1 81.0346 -0.23
  83.0503 C5H7O- 1 83.0502 0.86
  92.0506 C6H6N- 1 92.0506 0.08
  102.035 C7H4N- 1 102.0349 0.86
  111.0007 C6H4Cl- 1 111.0007 0.26
  126.0117 C6H5ClN- 2 126.0116 0.63
  151.991 C7H3ClNO- 1 151.9909 1.09
  154.9907 C7H4ClO2- 1 154.9905 0.96
PK$NUM_PEAK: 8
PK$PEAK: m/z int. rel.int.
  81.0346 3254.3 2
  83.0503 2109.8 1
  92.0506 1101827.3 999
  102.035 1943.6 1
  111.0007 628173.5 569
  126.0117 16570.8 15
  151.991 2110.9 1
  154.9907 26901.5 24
//
