ACCESSION: MSBNK-Eawag-EQ330405
RECORD_TITLE: Adenosine; LC-ESI-QFT; MS2; CE: 75; R=35000; [M+H]+
DATE: 2015.08.25
AUTHORS: Otto J, Stravs M, Schymanski E, Singer H, Department of Environmental Chemistry, Eawag
LICENSE: CC BY
COPYRIGHT: Copyright (C) 2015 Eawag, Duebendorf, Switzerland
COMMENT: CONFIDENCE standard compound
COMMENT: EAWAG_UCHEM_ID 3304
CH$NAME: Adenosine
CH$NAME: (2R,3R,4S,5R)-2-(6-aminopurin-9-yl)-5-(hydroxymethyl)oxolane-3,4-diol
CH$COMPOUND_CLASS: N/A; Environmental Standard
CH$FORMULA: C10H13N5O4
CH$EXACT_MASS: 267.09675
CH$SMILES: C1=NC(=C2C(=N1)N(C=N2)[C@H]3[C@@H]([C@@H]([C@H](O3)CO)O)O)N
CH$IUPAC: InChI=1S/C10H13N5O4/c11-8-5-9(13-2-12-8)15(3-14-5)10-7(18)6(17)4(1-16)19-10/h2-4,6-7,10,16-18H,1H2,(H2,11,12,13)/t4-,6-,7-,10-/m1/s1
CH$LINK: CAS 58-61-7
CH$LINK: KEGG C00212
CH$LINK: PUBCHEM CID:60961
CH$LINK: INCHIKEY OIRDTQYFTABQOQ-KQYNXXCUSA-N
CH$LINK: CHEMSPIDER 54923
CH$LINK: COMPTOX DTXSID1022558
AC$INSTRUMENT: Q Exactive Orbitrap Thermo Scientific
AC$INSTRUMENT_TYPE: LC-ESI-QFT
AC$MASS_SPECTROMETRY: MS_TYPE MS2
AC$MASS_SPECTROMETRY: ION_MODE POSITIVE
AC$MASS_SPECTROMETRY: IONIZATION ESI
AC$MASS_SPECTROMETRY: FRAGMENTATION_MODE HCD
AC$MASS_SPECTROMETRY: COLLISION_ENERGY 75 (nominal)
AC$MASS_SPECTROMETRY: RESOLUTION 35000
AC$CHROMATOGRAPHY: COLUMN_NAME XBridge C18 3.5um, 2.1x50mm, Waters
AC$CHROMATOGRAPHY: FLOW_GRADIENT 90/10 at 0 min, 50/50 at 4 min, 5/95 at 17 min, 5/95 at 25 min, 90/10 at 25.1 min, 90/10 at 30 min
AC$CHROMATOGRAPHY: FLOW_RATE 200 ul/min
AC$CHROMATOGRAPHY: RETENTION_TIME 1.1 min
AC$CHROMATOGRAPHY: SOLVENT A water with 0.1% formic acid
AC$CHROMATOGRAPHY: SOLVENT B methanol with 0.1% formic acid
MS$FOCUSED_ION: BASE_PEAK 268.1041
MS$FOCUSED_ION: PRECURSOR_M/Z 268.104
MS$FOCUSED_ION: PRECURSOR_TYPE [M+H]+
MS$DATA_PROCESSING: DEPROFILE vendor picking in Proteowizard
MS$DATA_PROCESSING: RECALIBRATE loess on assigned fragments and MS1
MS$DATA_PROCESSING: REANALYZE Peaks with additional N2/O included
MS$DATA_PROCESSING: WHOLE RMassBank 1.9.6
PK$SPLASH: splash10-000i-0900000000-bc944eede02f73a9f09c
PK$ANNOTATION: m/z tentative_formula formula_count mass error(ppm)
  57.0335 C3H5O+ 1 57.0335 0.33
  61.0284 C2H5O2+ 1 61.0284 0.56
  65.0134 C3HN2+ 1 65.0134 -0.99
  67.0289 C3H3N2+ 1 67.0291 -2.45
  69.0335 C4H5O+ 1 69.0335 -0.31
  71.0127 C3H3O2+ 1 71.0128 -0.36
  73.0284 C3H5O2+ 1 73.0284 -0.35
  85.0284 C4H5O2+ 1 85.0284 -0.19
  92.0243 C4H2N3+ 1 92.0243 -0.58
  94.0399 C4H4N3+ 1 94.04 -0.46
  97.0284 C5H5O2+ 1 97.0284 0.04
  109.0509 C4H5N4+ 1 109.0509 -0.02
  112.0506 C4H6N3O+ 1 112.0505 0.19
  119.0352 C5H3N4+ 1 119.0352 -0.19
  136.0618 C5H6N5+ 1 136.0618 0.43
  137.0456 C5H5N4O+ 1 137.0458 -1.22
PK$NUM_PEAK: 16
PK$PEAK: m/z int. rel.int.
  57.0335 1067663.5 7
  61.0284 410540.5 2
  65.0134 166448.1 1
  67.0289 416135.9 2
  69.0335 1000260.2 6
  71.0127 1102857 7
  73.0284 632773.7 4
  85.0284 737485.7 5
  92.0243 629969 4
  94.0399 4465075 31
  97.0284 155556.1 1
  109.0509 1089048.5 7
  112.0506 277356.8 1
  119.0352 12654533 87
  136.0618 143815616 999
  137.0456 6697735 46
//
