ACCESSION: MSBNK-Eawag-EQ01123207
RECORD_TITLE: Diniconazole; LC-ESI-QFT; MS2; CE: 120%; R=17500; [M+H]+
DATE: 2023.04.27
AUTHORS: B. Beck [dtc,com], J. Hollender [dtc]
LICENSE: CC BY-SA
COPYRIGHT: Copyright (C) Eawag 2023
COMMENT: CONFIDENCE standard compound
COMMENT: UCHEM_ID 11232
CH$NAME: Diniconazole
CH$NAME: 1-(2,4-dichlorophenyl)-4,4-dimethyl-2-(1,2,4-triazol-1-yl)pent-1-en-3-ol
CH$COMPOUND_CLASS: N/A; Environmental Standard
CH$FORMULA: C15H17Cl2N3O
CH$EXACT_MASS: 325.0749
CH$SMILES: CC(C)(C)C(C(=CC1=C(C=C(C=C1)Cl)Cl)N2C=NC=N2)O
CH$IUPAC: InChI=1S/C15H17Cl2N3O/c1-15(2,3)14(21)13(20-9-18-8-19-20)6-10-4-5-11(16)7-12(10)17/h4-9,14,21H,1-3H3
CH$LINK: CAS 83657-24-3
CH$LINK: PUBCHEM CID:91738
CH$LINK: INCHIKEY FBOUIAKEJMZPQG-UHFFFAOYSA-N
CH$LINK: CHEMSPIDER 82836
AC$INSTRUMENT: Exploris 240 Orbitrap Thermo Scientific
AC$INSTRUMENT_TYPE: LC-ESI-QFT
AC$MASS_SPECTROMETRY: MS_TYPE MS2
AC$MASS_SPECTROMETRY: ION_MODE POSITIVE
AC$MASS_SPECTROMETRY: IONIZATION ESI
AC$MASS_SPECTROMETRY: FRAGMENTATION_MODE HCD
AC$MASS_SPECTROMETRY: COLLISION_ENERGY 120 % (nominal)
AC$MASS_SPECTROMETRY: RESOLUTION 17500
AC$MASS_SPECTROMETRY: MASS_RANGE_M/Z 50-354
AC$CHROMATOGRAPHY: COLUMN_NAME XBridge C18 3.5um, 2.1x50mm, Waters
AC$CHROMATOGRAPHY: FLOW_GRADIENT 90/10 at 0 min, 50/50 at 4 min, 5/95 at 17 min, 5/95 at 25 min, 90/10 at 25.1 min, 90/10 at 30 min
AC$CHROMATOGRAPHY: FLOW_RATE 200 uL/min
AC$CHROMATOGRAPHY: RETENTION_TIME 12.153 min
MS$FOCUSED_ION: BASE_PEAK 326.0822
MS$FOCUSED_ION: PRECURSOR_M/Z 326.0821
MS$FOCUSED_ION: PRECURSOR_TYPE [M+H]+
MS$DATA_PROCESSING: RECALIBRATE loess on assigned fragments and MS1
MS$DATA_PROCESSING: REANALYZE Peaks with additional N2/O included
MS$DATA_PROCESSING: WHOLE RMassBank 3.11.0.1
PK$SPLASH: splash10-00di-9000000000-0d93e1fa9f084335fffa
PK$ANNOTATION: m/z tentative_formula formula_count mass error(ppm)
  57.0699 C4H9+ 1 57.0699 1.11
  70.04 C2H4N3+ 1 70.04 0.51
  89.0385 C7H5+ 1 89.0386 -1.21
  98.9997 C5H4Cl+ 1 98.9996 0.54
  102.0467 C8H6+ 1 102.0464 3.11
  115.0543 C9H7+ 1 115.0542 0.55
  122.9993 C7H4Cl+ 1 122.9996 -2.28
  141.07 C11H9+ 1 141.0699 0.82
  153.07 C12H9+ 1 153.0699 0.87
  154.0781 C12H10+ 1 154.0777 2.36
  158.9763 C7H5Cl2+ 1 158.9763 0.14
PK$NUM_PEAK: 11
PK$PEAK: m/z int. rel.int.
  57.0699 1316743.9 5
  70.04 225563136 999
  89.0385 4428091 19
  98.9997 1889307.8 8
  102.0467 2073845.1 9
  115.0543 2396160.8 10
  122.9993 5943983 26
  141.07 1678048.6 7
  153.07 2050141.1 9
  154.0781 1089262.8 4
  158.9763 6453735.5 28
//
