ACCESSION: MSBNK-Eawag-EA012801
RECORD_TITLE: Metsulfuron-methyl; LC-ESI-ITFT; MS2; CE: 35%; R=7500; [M+H]+
DATE: 2014.01.14
AUTHORS: Stravs M, Schymanski E, Singer H, Department of Environmental Chemistry, Eawag
LICENSE: CC BY
COPYRIGHT: Copyright (C) 2012 Eawag, Duebendorf, Switzerland
COMMENT: CONFIDENCE standard compound
COMMENT: EAWAG_UCHEM_ID 128
CH$NAME: Metsulfuron-methyl
CH$NAME: 2-[(4-methoxy-6-methyl-s-triazin-2-yl)carbamoylsulfamoyl]benzoic acid methyl ester
CH$COMPOUND_CLASS: N/A; Environmental Standard
CH$FORMULA: C14H15N5O6S
CH$EXACT_MASS: 381.0743
CH$SMILES: c1(c(cccc1)C(OC)=O)S(NC(Nc1nc(nc(n1)C)OC)=O)(=O)=O
CH$IUPAC: InChI=1S/C14H15N5O6S/c1-8-15-12(18-14(16-8)25-3)17-13(21)19-26(22,23)10-7-5-4-6-9(10)11(20)24-2/h4-7H,1-3H3,(H2,15,16,17,18,19,21)
CH$LINK: CAS 74223-64-6
CH$LINK: KEGG C10946
CH$LINK: PUBCHEM CID:52999
CH$LINK: INCHIKEY RSMUVYRMZCOLBH-UHFFFAOYSA-N
CH$LINK: CHEMSPIDER 47883
CH$LINK: COMPTOX DTXSID6023864
AC$INSTRUMENT: LTQ Orbitrap XL Thermo Scientific
AC$INSTRUMENT_TYPE: LC-ESI-ITFT
AC$MASS_SPECTROMETRY: MS_TYPE MS2
AC$MASS_SPECTROMETRY: ION_MODE POSITIVE
AC$MASS_SPECTROMETRY: IONIZATION ESI
AC$MASS_SPECTROMETRY: FRAGMENTATION_MODE CID
AC$MASS_SPECTROMETRY: COLLISION_ENERGY 35 % (nominal)
AC$MASS_SPECTROMETRY: RESOLUTION 7500
AC$CHROMATOGRAPHY: COLUMN_NAME XBridge C18 3.5um, 2.1x50mm, Waters
AC$CHROMATOGRAPHY: FLOW_GRADIENT 90/10 at 0 min, 50/50 at 4 min, 5/95 at 17 min, 5/95 at 25 min, 90/10 at 25.1 min, 90/10 at 30 min
AC$CHROMATOGRAPHY: FLOW_RATE 200 ul/min
AC$CHROMATOGRAPHY: RETENTION_TIME 7.1 min
AC$CHROMATOGRAPHY: SOLVENT A water with 0.1% formic acid
AC$CHROMATOGRAPHY: SOLVENT B methanol with 0.1% formic acid
MS$FOCUSED_ION: BASE_PEAK 382.0825
MS$FOCUSED_ION: PRECURSOR_M/Z 382.0816
MS$FOCUSED_ION: PRECURSOR_TYPE [M+H]+
MS$DATA_PROCESSING: DEPROFILE Spline
MS$DATA_PROCESSING: RECALIBRATE loess on assigned fragments and MS1
MS$DATA_PROCESSING: REANALYZE Peaks with additional N2/O included
MS$DATA_PROCESSING: WHOLE RMassBank 1.3.1
PK$SPLASH: splash10-014i-0900000000-b4b335d724e7cfdef232
PK$ANNOTATION: m/z tentative_formula formula_count mass error(ppm)
  141.0771 C5H9N4O+ 1 141.0771 0.09
  167.0564 C6H7N4O2+ 2 167.0564 0.29
  199.0058 C8H7O4S+ 2 199.006 -0.78
  350.0551 C13H12N5O5S+ 1 350.0554 -0.85
PK$NUM_PEAK: 4
PK$PEAK: m/z int. rel.int.
  141.0771 27968.1 12
  167.0564 2181398.4 999
  199.0058 50013.7 22
  350.0551 113774.6 52
//
