ACCESSION: MSBNK-Eawag-EA295253
RECORD_TITLE: Tebufenozide; LC-ESI-ITFT; MS2; CE: 30%; R=7500; [M-H]-
DATE: 2014.01.14
AUTHORS: Stravs M, Schymanski E, Singer H, Department of Environmental Chemistry, Eawag
LICENSE: CC BY
COPYRIGHT: Copyright (C) 2012 Eawag, Duebendorf, Switzerland
COMMENT: CONFIDENCE standard compound
COMMENT: EAWAG_UCHEM_ID 2952
CH$NAME: Tebufenozide
CH$NAME: N-tert-butyl-N'-(4-ethylbenzoyl)-3,5-dimethyl-benzohydrazide
CH$COMPOUND_CLASS: N/A; Environmental Standard
CH$FORMULA: C22H28N2O2
CH$EXACT_MASS: 352.2151
CH$SMILES: O=C(c1cc(cc(c1)C)C)N(NC(=O)c2ccc(cc2)CC)C(C)(C)C
CH$IUPAC: InChI=1S/C22H28N2O2/c1-7-17-8-10-18(11-9-17)20(25)23-24(22(4,5)6)21(26)19-13-15(2)12-16(3)14-19/h8-14H,7H2,1-6H3,(H,23,25)
CH$LINK: CAS 112410-23-8
CH$LINK: PUBCHEM CID:91773
CH$LINK: INCHIKEY QYPNKSZPJQQLRK-UHFFFAOYSA-N
CH$LINK: CHEMSPIDER 82870
CH$LINK: COMPTOX DTXSID4034948
AC$INSTRUMENT: LTQ Orbitrap XL Thermo Scientific
AC$INSTRUMENT_TYPE: LC-ESI-ITFT
AC$MASS_SPECTROMETRY: MS_TYPE MS2
AC$MASS_SPECTROMETRY: ION_MODE NEGATIVE
AC$MASS_SPECTROMETRY: IONIZATION ESI
AC$MASS_SPECTROMETRY: FRAGMENTATION_MODE HCD
AC$MASS_SPECTROMETRY: COLLISION_ENERGY 30 % (nominal)
AC$MASS_SPECTROMETRY: RESOLUTION 7500
AC$CHROMATOGRAPHY: COLUMN_NAME XBridge C18 3.5um, 2.1x50mm, Waters
AC$CHROMATOGRAPHY: FLOW_GRADIENT 90/10 at 0 min, 50/50 at 4 min, 5/95 at 17 min, 5/95 at 25 min, 90/10 at 25.1 min, 90/10 at 30 min
AC$CHROMATOGRAPHY: FLOW_RATE 200 ul/min
AC$CHROMATOGRAPHY: RETENTION_TIME 12.5 min
AC$CHROMATOGRAPHY: SOLVENT A water with 0.1% formic acid
AC$CHROMATOGRAPHY: SOLVENT B methanol with 0.1% formic acid
MS$FOCUSED_ION: BASE_PEAK 351.2072
MS$FOCUSED_ION: PRECURSOR_M/Z 351.2078
MS$FOCUSED_ION: PRECURSOR_TYPE [M-H]-
MS$DATA_PROCESSING: DEPROFILE Spline
MS$DATA_PROCESSING: RECALIBRATE loess on assigned fragments and MS1
MS$DATA_PROCESSING: REANALYZE Peaks with additional N2/O included
MS$DATA_PROCESSING: WHOLE RMassBank 1.3.1
PK$SPLASH: splash10-0002-0901000000-19e98e29e6f11e73c025
PK$ANNOTATION: m/z tentative_formula formula_count mass error(ppm)
  149.0604 C9H9O2- 1 149.0608 -2.84
  351.2085 C22H27N2O2- 1 351.2078 1.85
PK$NUM_PEAK: 2
PK$PEAK: m/z int. rel.int.
  149.0604 326993.5 999
  351.2085 58242.8 177
//
