ACCESSION: MSBNK-Eawag-EQ01136801
RECORD_TITLE: Fenson; LC-ESI-QFT; MS2; CE: 15%; R=17500; [M+H]+
DATE: 2023.04.27
AUTHORS: B. Beck [dtc,com], J. Hollender [dtc]
LICENSE: CC BY-SA
COPYRIGHT: Copyright (C) Eawag 2023
COMMENT: CONFIDENCE standard compound
COMMENT: UCHEM_ID 11368
CH$NAME: Fenson
CH$NAME: (4-chlorophenyl) benzenesulfonate
CH$COMPOUND_CLASS: N/A; Environmental Standard
CH$FORMULA: C12H9ClO3S
CH$EXACT_MASS: 267.9961
CH$SMILES: C1=CC=C(C=C1)S(=O)(=O)OC2=CC=C(C=C2)Cl
CH$IUPAC: InChI=1S/C12H9ClO3S/c13-10-6-8-11(9-7-10)16-17(14,15)12-4-2-1-3-5-12/h1-9H
CH$LINK: CAS 80-38-6
CH$LINK: CHEBI CHEBI:82160
CH$LINK: KEGG C19030
CH$LINK: PUBCHEM CID:6636
CH$LINK: INCHIKEY SPJOZZSIXXJYBT-UHFFFAOYSA-N
CH$LINK: CHEMSPIDER 6384
AC$INSTRUMENT: Exploris 240 Orbitrap Thermo Scientific
AC$INSTRUMENT_TYPE: LC-ESI-QFT
AC$MASS_SPECTROMETRY: MS_TYPE MS2
AC$MASS_SPECTROMETRY: ION_MODE POSITIVE
AC$MASS_SPECTROMETRY: IONIZATION ESI
AC$MASS_SPECTROMETRY: FRAGMENTATION_MODE HCD
AC$MASS_SPECTROMETRY: COLLISION_ENERGY 15 % (nominal)
AC$MASS_SPECTROMETRY: RESOLUTION 17500
AC$MASS_SPECTROMETRY: MASS_RANGE_M/Z 50-295
AC$CHROMATOGRAPHY: COLUMN_NAME XBridge C18 3.5um, 2.1x50mm, Waters
AC$CHROMATOGRAPHY: FLOW_GRADIENT 90/10 at 0 min, 50/50 at 4 min, 5/95 at 17 min, 5/95 at 25 min, 90/10 at 25.1 min, 90/10 at 30 min
AC$CHROMATOGRAPHY: FLOW_RATE 200 uL/min
AC$CHROMATOGRAPHY: RETENTION_TIME 9.705 min
MS$FOCUSED_ION: BASE_PEAK 170.0965
MS$FOCUSED_ION: PRECURSOR_M/Z 269.0034
MS$FOCUSED_ION: PRECURSOR_TYPE [M+H]+
MS$DATA_PROCESSING: RECALIBRATE loess on assigned fragments and MS1
MS$DATA_PROCESSING: REANALYZE Peaks with additional N2/O included
MS$DATA_PROCESSING: WHOLE RMassBank 3.11.0.1
PK$SPLASH: splash10-014l-0980000000-234b78809a9018e74590
PK$ANNOTATION: m/z tentative_formula formula_count mass error(ppm)
  53.0384 C4H5+ 1 53.0386 -2.81
  77.0388 C6H5+ 1 77.0386 2.36
  95.0489 C6H7O+ 1 95.0491 -2.08
  125.0056 C6H5OS+ 1 125.0056 0.37
  126.9946 C6H4ClO+ 1 126.9945 0.93
  128.0027 C6H5ClO+ 1 128.0023 2.61
  141.0005 C6H5O2S+ 1 141.0005 0.27
  142.9894 C6H4ClO2+ 1 142.9894 0
  143.9973 C6H5ClO2+ 1 143.9973 0.33
  269.0035 C12H10ClO3S+ 1 269.0034 0.66
PK$NUM_PEAK: 10
PK$PEAK: m/z int. rel.int.
  53.0384 7838.4 6
  77.0388 19702.8 17
  95.0489 13264.3 11
  125.0056 379841.2 337
  126.9946 38213.6 33
  128.0027 16949.8 15
  141.0005 766299.3 680
  142.9894 10041.3 8
  143.9973 28297.8 25
  269.0035 1124744.9 999
//
