ACCESSION: MSBNK-Eawag-EQ01055608
RECORD_TITLE: 5-methyl-1-phenyl-2(1H)-Pyridone; LC-ESI-QFT; MS2; CE: 150%; R=15000; [M+H]+
DATE: 2024.06.14
AUTHORS: F. Jud [dtc], K. Arturi [dtc], J. Hollender [dtc], A. Dax [com]
LICENSE: CC BY-SA
COPYRIGHT: Copyright (C) Eawag 2024
COMMENT: CONFIDENCE standard compound
COMMENT: UCHEM_ID 10556
CH$NAME: 5-methyl-1-phenyl-2(1H)-Pyridone
CH$NAME: Pirfenidone
CH$NAME: 5-methyl-1-phenylpyridin-2-one
CH$COMPOUND_CLASS: N/A
CH$FORMULA: C12H11NO
CH$EXACT_MASS: 185.084064
CH$SMILES: CC1=CN(C(=O)C=C1)C2=CC=CC=C2
CH$IUPAC: InChI=1S/C12H11NO/c1-10-7-8-12(14)13(9-10)11-5-3-2-4-6-11/h2-9H,1H3
CH$LINK: CAS 53179-13-8
CH$LINK: CHEBI CHEBI:32016
CH$LINK: KEGG D01583
CH$LINK: PUBCHEM CID:40632
CH$LINK: INCHIKEY ISWRGOKTTBVCFA-UHFFFAOYSA-N
CH$LINK: CHEMSPIDER 37115
AC$INSTRUMENT: Exploris 240 Thermo Scientific
AC$INSTRUMENT_TYPE: LC-ESI-QFT
AC$MASS_SPECTROMETRY: MS_TYPE MS2
AC$MASS_SPECTROMETRY: ION_MODE POSITIVE
AC$MASS_SPECTROMETRY: IONIZATION ESI
AC$MASS_SPECTROMETRY: FRAGMENTATION_MODE HCD
AC$MASS_SPECTROMETRY: COLLISION_ENERGY 150 % (nominal)
AC$MASS_SPECTROMETRY: RESOLUTION 15000
AC$MASS_SPECTROMETRY: MASS_RANGE_M/Z 42-211
AC$CHROMATOGRAPHY: COLUMN_NAME XBridge C18 3.5um, 2.1x50mm, Waters
AC$CHROMATOGRAPHY: FLOW_GRADIENT 90/10 at 0 min, 50/50 at 4 min, 5/95 at 17 min, 5/95 at 25 min, 90/10 at 25.1 min, 90/10 at 30 min
AC$CHROMATOGRAPHY: FLOW_RATE 200 uL/min
AC$CHROMATOGRAPHY: RETENTION_TIME 5.057 min
MS$FOCUSED_ION: BASE_PEAK 186.0908
MS$FOCUSED_ION: PRECURSOR_M/Z 186.0913
MS$FOCUSED_ION: PRECURSOR_TYPE [M+H]+
MS$DATA_PROCESSING: RECALIBRATE loess on assigned fragments and MS1
MS$DATA_PROCESSING: REANALYZE Peaks with additional N2/O included
MS$DATA_PROCESSING: WHOLE RMassBank 3.15.1.1
PK$SPLASH: splash10-0gb9-9000000000-ee0e527d3a66dec5e001
PK$ANNOTATION: m/z tentative_formula formula_count mass error(ppm)
  50.0151 C4H2+ 1 50.0151 0.09
  51.0228 C4H3+ 1 51.0229 -1.73
  53.0385 C4H5+ 1 53.0386 -1.06
  65.0385 C5H5+ 1 65.0386 -1.83
  66.0339 C4H4N+ 1 66.0338 1.27
  77.0385 C6H5+ 1 77.0386 -1.45
  80.0495 C5H6N+ 1 80.0495 -0.22
  91.0541 C7H7+ 1 91.0542 -0.92
  92.0494 C6H6N+ 1 92.0495 -1.28
  95.0489 C6H7O+ 1 95.0491 -2.24
  110.0597 C6H8NO+ 1 110.06 -3.03
  115.054 C9H7+ 1 115.0542 -2.2
  142.0653 C10H8N+ 1 142.0651 1.44
PK$NUM_PEAK: 13
PK$PEAK: m/z int. rel.int.
  50.0151 6118125 31
  51.0228 142714576 742
  53.0385 13782341 71
  65.0385 192070624 999
  66.0339 6867161.5 35
  77.0385 80285520 417
  80.0495 5439410.5 28
  91.0541 6699951.5 34
  92.0494 20232982 105
  95.0489 31121272 161
  110.0597 18600708 96
  115.054 23147986 120
  142.0653 3900683.2 20
//
