ACCESSION: MSBNK-Eawag-EQ01072754
RECORD_TITLE: Nitrofurantoin; LC-ESI-QFT; MS2; CE: 60%; R=15000; [M-H]-
DATE: 2024.06.14
AUTHORS: F. Jud [dtc], K. Arturi [dtc], J. Hollender [dtc], A. Dax [com]
LICENSE: CC BY-SA
COPYRIGHT: Copyright (C) Eawag 2024
COMMENT: CONFIDENCE standard compound
COMMENT: UCHEM_ID 10727
CH$NAME: Nitrofurantoin
CH$NAME: 1-[(5-Nitro-2-furanyl)methylideneamino]imidazolidine-2,4-dione
CH$NAME: 1-[(5-nitrofuran-2-yl)methylideneamino]imidazolidine-2,4-dione
CH$COMPOUND_CLASS: N/A
CH$FORMULA: C8H6N4O5
CH$EXACT_MASS: 238.0338193
CH$SMILES: [O-][N+](=O)C1=CC=C(O1)C=NN1CC(=O)NC1=O
CH$IUPAC: InChI=1S/C8H6N4O5/c13-6-4-11(8(14)10-6)9-3-5-1-2-7(17-5)12(15)16/h1-3H,4H2,(H,10,13,14)
CH$LINK: CAS 67-20-9
CH$LINK: PUBCHEM CID:4509
CH$LINK: INCHIKEY NXFQHRVNIOXGAQ-UHFFFAOYSA-N
CH$LINK: CHEMSPIDER 4353
AC$INSTRUMENT: Q Exactive Plus
AC$INSTRUMENT_TYPE: LC-ESI-QFT
AC$MASS_SPECTROMETRY: MS_TYPE MS2
AC$MASS_SPECTROMETRY: ION_MODE NEGATIVE
AC$MASS_SPECTROMETRY: IONIZATION ESI
AC$MASS_SPECTROMETRY: FRAGMENTATION_MODE HCD
AC$MASS_SPECTROMETRY: COLLISION_ENERGY 60 % (nominal)
AC$MASS_SPECTROMETRY: RESOLUTION 15000
AC$MASS_SPECTROMETRY: MASS_RANGE_M/Z 50-260
AC$CHROMATOGRAPHY: COLUMN_NAME XBridge C18 3.5um, 2.1x50mm, Waters
AC$CHROMATOGRAPHY: FLOW_GRADIENT 90/10 at 0 min, 50/50 at 4 min, 5/95 at 17 min, 5/95 at 25 min, 90/10 at 25.1 min, 90/10 at 30 min
AC$CHROMATOGRAPHY: FLOW_RATE 200 uL/min
AC$CHROMATOGRAPHY: RETENTION_TIME 3.239 min
MS$FOCUSED_ION: BASE_PEAK 237.0266
MS$FOCUSED_ION: PRECURSOR_M/Z 237.0265
MS$FOCUSED_ION: PRECURSOR_TYPE [M-H]-
MS$FOCUSED_ION: PRECURSOR_INTENSITY 17106369.99
MS$DATA_PROCESSING: RECALIBRATE loess on assigned fragments and MS1
MS$DATA_PROCESSING: REANALYZE Peaks with additional N2/O included
MS$DATA_PROCESSING: WHOLE RMassBank 3.15.1.1
PK$SPLASH: splash10-004i-9000000000-be231fbb4b02016adf29
PK$ANNOTATION: m/z tentative_formula formula_count mass error(ppm)
  64.0193 C4H2N- 1 64.0193 0.58
  65.0032 C4HO- 1 65.0033 -1.6
  77.0033 C5HO- 1 77.0033 0.13
  91.0303 C5H3N2- 1 91.0302 1.05
  97.0043 C3HN2O2- 1 97.0044 -0.49
  108.0091 C5H2NO2- 1 108.0091 -0.2
  119.025 C6H3N2O- 1 119.0251 -0.42
PK$NUM_PEAK: 7
PK$PEAK: m/z int. rel.int.
  64.0193 41841.4 113
  65.0032 14404.3 39
  77.0033 367004.4 999
  91.0303 7319 19
  97.0043 11904.6 32
  108.0091 15402.2 41
  119.025 20030.4 54
//
