ACCESSION: MSBNK-Eawag-EQ348754
RECORD_TITLE: Iodosulfuron-methyl; LC-ESI-QFT; MS2; CE: 60; R=35000; [M-H]-
DATE: 2015.08.26
AUTHORS: Stravs M, Schymanski E, Singer H, Department of Environmental Chemistry, Eawag and Thomaidis N, University of Athens
LICENSE: CC BY
COPYRIGHT: Copyright (C) 2015 Eawag, Duebendorf, Switzerland
COMMENT: CONFIDENCE standard compound
COMMENT: EAWAG_UCHEM_ID 3487
CH$NAME: Iodosulfuron-methyl
CH$NAME: Methyl 4-iodo-2-(N-(4-methoxy-6-methyl-1,3,5-triazin-2-ylcarbamoyl)sulfamoyl)benzoate
CH$NAME: Methyl 4-iodo-2-[(4-methoxy-6-methyl-1,3,5-triazin-2-yl)carbamoylsulfamoyl]benzoate
CH$COMPOUND_CLASS: N/A; Environmental Standard
CH$FORMULA: C14H14IN5O6S
CH$EXACT_MASS: 506.97095
CH$SMILES: Cc2nc(NC(=O)NS(=O)(=O)c1cc(I)ccc1C(=O)OC)nc(OC)n2
CH$IUPAC: InChI=1S/C14H14IN5O6S/c1-7-16-12(19-14(17-7)26-3)18-13(22)20-27(23,24)10-6-8(15)4-5-9(10)11(21)25-2/h4-6H,1-3H3,(H2,16,17,18,19,20,22)
CH$LINK: CAS 144550-36-7
CH$LINK: PUBCHEM CID:11027582
CH$LINK: INCHIKEY VWGAYSCWLXQJBQ-UHFFFAOYSA-N
CH$LINK: CHEMSPIDER 9202762
CH$LINK: COMPTOX DTXSID1043968
AC$INSTRUMENT: Q Exactive Plus Orbitrap Thermo Scientific
AC$INSTRUMENT_TYPE: LC-ESI-QFT
AC$MASS_SPECTROMETRY: MS_TYPE MS2
AC$MASS_SPECTROMETRY: ION_MODE NEGATIVE
AC$MASS_SPECTROMETRY: IONIZATION ESI
AC$MASS_SPECTROMETRY: FRAGMENTATION_MODE HCD
AC$MASS_SPECTROMETRY: COLLISION_ENERGY 60 (nominal)
AC$MASS_SPECTROMETRY: RESOLUTION 35000
AC$CHROMATOGRAPHY: COLUMN_NAME XBridge C18 3.5um, 2.1x50mm, Waters
AC$CHROMATOGRAPHY: FLOW_GRADIENT 90/10 at 0 min, 50/50 at 4 min, 5/95 at 17 min, 5/95 at 25 min, 90/10 at 25.1 min, 90/10 at 30 min
AC$CHROMATOGRAPHY: FLOW_RATE 200 ul/min
AC$CHROMATOGRAPHY: RETENTION_TIME 9.2 min
AC$CHROMATOGRAPHY: SOLVENT A water with 0.1% formic acid
AC$CHROMATOGRAPHY: SOLVENT B methanol with 0.1% formic acid
MS$FOCUSED_ION: BASE_PEAK 505.9636
MS$FOCUSED_ION: PRECURSOR_M/Z 505.9637
MS$FOCUSED_ION: PRECURSOR_TYPE [M-H]-
MS$DATA_PROCESSING: RECALIBRATE loess on assigned fragments and MS1
MS$DATA_PROCESSING: REANALYZE Peaks with additional N2/O included
MS$DATA_PROCESSING: WHOLE RMassBank 1.9.6
PK$SPLASH: splash10-000i-1900000000-ff9f6485bc0ca7b3276b
PK$ANNOTATION: m/z tentative_formula formula_count mass error(ppm)
  55.0302 C2H3N2- 1 55.0302 0.7
  61.9707 NOS- 1 61.9706 1.32
  65.0146 C3HN2- 1 65.0145 1.36
  66.0099 C2N3- 1 66.0098 1.35
  81.0333 C3H3N3- 1 81.0332 0.55
  82.0412 C3H4N3- 1 82.0411 1.21
  96.0568 C4H6N3- 1 96.0567 1.35
  97.0408 C4H5N2O- 1 97.0407 0.76
  98.0361 C3H4N3O- 1 98.036 0.76
  105.9605 CNO3S- 1 105.9604 0.31
  107.0365 C4H3N4- 1 107.0363 1.4
  109.0521 C4H5N4- 1 109.052 0.92
  120.0093 C6H2NO2- 1 120.0091 1.98
  124.0392 C4H4N4O- 1 124.0391 0.97
  125.047 C4H5N4O- 1 125.0469 0.92
  126.9052 I- 1 126.905 1.56
  139.0627 C5H7N4O- 1 139.0625 1.12
  180.9842 C7H3NO3S- 1 180.9839 1.48
  307.8889 C7H3INO3S- 1 307.8884 1.57
PK$NUM_PEAK: 19
PK$PEAK: m/z int. rel.int.
  55.0302 4898996 57
  61.9707 254010.5 2
  65.0146 2809434.2 32
  66.0099 5539306 64
  81.0333 520993 6
  82.0412 8164531.5 95
  96.0568 392809.9 4
  97.0408 151110.4 1
  98.0361 535826.4 6
  105.9605 134617.1 1
  107.0365 17956564 210
  109.0521 3323258.8 38
  120.0093 272919.7 3
  124.0392 2929983.5 34
  125.047 1049217.4 12
  126.9052 848827.6 9
  139.0627 85349608 999
  180.9842 2734241.8 32
  307.8889 3754466 43
//
