ACCESSION: MSBNK-Eawag-EQ366252
RECORD_TITLE: Cefadroxil; LC-ESI-QFT; MS2; CE: 30; R=35000; [M-H]-
DATE: 2015.08.26
AUTHORS: Stravs M, Schymanski E, Singer H, Department of Environmental Chemistry, Eawag and Thomaidis N, University of Athens
LICENSE: CC BY
COPYRIGHT: Copyright (C) 2015 Eawag, Duebendorf, Switzerland
COMMENT: CONFIDENCE standard compound
COMMENT: EAWAG_UCHEM_ID 3662
CH$NAME: Cefadroxil
CH$NAME: 7-[[2-azaniumyl-2-(4-hydroxyphenyl)acetyl]amino]-3-methyl-8-oxo-5-thia-1-azabicyclo[4.2.0]oct-2-ene-2-carboxylate
CH$COMPOUND_CLASS: N/A; Environmental Standard
CH$FORMULA: C16H17N3O5S
CH$EXACT_MASS: 363.08889
CH$SMILES: CC1=C(N2C(C(C2=O)NC(=O)C(C3=CC=C(C=C3)O)N)SC1)C(=O)O
CH$IUPAC: InChI=1S/C16H17N3O5S/c1-7-6-25-15-11(14(22)19(15)12(7)16(23)24)18-13(21)10(17)8-2-4-9(20)5-3-8/h2-5,10-11,15,20H,6,17H2,1H3,(H,18,21)(H,23,24)
CH$LINK: CAS 50370-12-2
CH$LINK: KEGG C06878
CH$LINK: PUBCHEM CID:2610
CH$LINK: INCHIKEY BOEGTKLJZSQCCD-UHFFFAOYSA-N
CH$LINK: CHEMSPIDER 2511
AC$INSTRUMENT: Q Exactive Plus Orbitrap Thermo Scientific
AC$INSTRUMENT_TYPE: LC-ESI-QFT
AC$MASS_SPECTROMETRY: MS_TYPE MS2
AC$MASS_SPECTROMETRY: ION_MODE NEGATIVE
AC$MASS_SPECTROMETRY: IONIZATION ESI
AC$MASS_SPECTROMETRY: FRAGMENTATION_MODE HCD
AC$MASS_SPECTROMETRY: COLLISION_ENERGY 30 (nominal)
AC$MASS_SPECTROMETRY: RESOLUTION 35000
AC$CHROMATOGRAPHY: COLUMN_NAME XBridge C18 3.5um, 2.1x50mm, Waters
AC$CHROMATOGRAPHY: FLOW_GRADIENT 90/10 at 0 min, 50/50 at 4 min, 5/95 at 17 min, 5/95 at 25 min, 90/10 at 25.1 min, 90/10 at 30 min
AC$CHROMATOGRAPHY: FLOW_RATE 200 ul/min
AC$CHROMATOGRAPHY: RETENTION_TIME 2.3 min
AC$CHROMATOGRAPHY: SOLVENT A water with 0.1% formic acid
AC$CHROMATOGRAPHY: SOLVENT B methanol with 0.1% formic acid
MS$FOCUSED_ION: BASE_PEAK 362.0818
MS$FOCUSED_ION: PRECURSOR_M/Z 362.0816
MS$FOCUSED_ION: PRECURSOR_TYPE [M-H]-
MS$DATA_PROCESSING: RECALIBRATE loess on assigned fragments and MS1
MS$DATA_PROCESSING: REANALYZE Peaks with additional N2/O included
MS$DATA_PROCESSING: WHOLE RMassBank 1.9.6
PK$SPLASH: splash10-0abi-1950000000-97dc3d3e863b86cff046
PK$ANNOTATION: m/z tentative_formula formula_count mass error(ppm)
  57.9758 CNS- 1 57.9757 1.84
  60.9755 CHOS- 1 60.9754 1.98
  66.035 C4H4N- 1 66.0349 1.32
  67.0303 C3H3N2- 1 67.0302 1.62
  72.0093 C2H2NO2- 1 72.0091 2.75
  73.0119 C3H5S- 1 73.0117 1.99
  83.025 C3H3N2O- 1 83.0251 -0.44
  84.0092 C3H2NO2- 1 84.0091 0.81
  86.0071 C3H4NS- 1 86.007 0.65
  87.9862 C2H2NOS- 1 87.9863 -0.32
  92.0507 C6H6N- 1 92.0506 1.38
  93.0347 C6H5O- 1 93.0346 0.88
  95.0252 C4H3N2O- 1 95.0251 0.78
  96.0457 C5H6NO- 1 96.0455 1.9
  96.9993 C4H3NS- 1 96.9992 0.84
  99.9863 C3H2NOS- 1 99.9863 0.22
  100.0228 C4H6NS- 1 100.0226 1.36
  100.0405 C4H6NO2- 1 100.0404 0.58
  102.0019 C3H4NOS- 1 102.0019 -0.08
  105.046 C6H5N2- 1 105.0458 1.6
  107.0616 C6H7N2- 1 107.0615 1.29
  108.0457 C6H6NO- 1 108.0455 2.25
  109.041 C5H5N2O- 1 109.0407 2.05
  109.0772 C6H9N2- 1 109.0771 0.81
  111.0024 C4H3N2S- 1 111.0022 1.33
  111.0202 C4H3N2O2- 1 111.02 1.43
  112.0228 C5H6NS- 1 112.0226 1.75
  112.0406 C5H6NO2- 1 112.0404 1.41
  117.0347 C8H5O- 1 117.0346 0.87
  117.046 C7H5N2- 2 117.0458 1.78
  118.0301 C7H4NO- 1 118.0298 1.97
  119.0504 C8H7O- 1 119.0502 1.44
  119.0616 C7H7N2- 1 119.0615 1.24
  120.0457 C7H6NO- 1 120.0455 1.44
  121.0299 C7H5O2- 1 121.0295 3.03
  123.0453 C7H7O2- 1 123.0452 1.36
  123.0564 C6H7N2O- 1 123.0564 0.35
  124.0228 C6H6NS- 1 124.0226 1.34
  124.0404 C6H6NO2- 1 124.0404 -0.18
  126.0197 C5H4NO3- 1 126.0197 0.42
  126.0384 C6H8NS- 1 126.0383 1.16
  126.997 C4H3N2OS- 1 126.9972 -1.4
  127.9813 C4H2NO2S- 1 127.9812 0.99
  128.0044 C4H4N2OS- 1 128.005 -4.55
  129.013 C4H5N2OS- 1 129.0128 1.8
  131.0377 C8H5NO- 2 131.0377 0.67
  132.0219 C8H4O2- 1 132.0217 1.53
  132.0456 C8H6NO- 1 132.0455 1.16
  132.0569 C7H6N3- 2 132.0567 1.13
  133.0297 C8H5O2- 1 133.0295 1.33
  134.0613 C8H8NO- 1 134.0611 0.84
  134.0726 C7H8N3- 2 134.0724 1.41
  135.0566 C7H7N2O- 1 135.0564 1.51
  136.0401 C7H6NO2- 1 136.0404 -1.93
  137.0068 C7H5OS- 1 137.0067 0.73
  137.0721 C7H9N2O- 1 137.072 0.68
  138.0311 C5H4N3O2- 1 138.0309 1.38
  139.0277 C6H5NO3- 1 139.0275 1.43
  140.0177 C6H6NOS- 1 140.0176 1.23
  140.0354 C6H6NO3- 1 140.0353 0.81
  142.0333 C6H8NOS- 1 142.0332 0.86
  144.0457 C9H6NO- 2 144.0455 1.34
  145.0411 C8H5N2O- 2 145.0407 2.37
  146.025 C8H4NO2- 2 146.0248 1.56
  146.0614 C9H8NO- 1 146.0611 2.07
  146.0727 C8H8N3- 2 146.0724 1.91
  147.0458 C9H7O2- 1 147.0452 4.26
  147.0566 C8H7N2O- 2 147.0564 1.66
  148.0407 C8H6NO2- 1 148.0404 2.08
  150.0562 C8H8NO2- 1 150.0561 0.99
  150.0675 C7H8N3O- 2 150.0673 1.16
  151.0226 C8H7OS- 1 151.0223 2.19
  151.0515 C7H7N2O2- 1 151.0513 1.05
  152.0178 C7H6NOS- 1 152.0176 1.59
  154.9924 C5H3N2O2S- 1 154.9921 1.86
  156.0128 C6H6NO2S- 1 156.0125 1.9
  158.0487 C9H6N2O- 2 158.0486 1.13
  159.0567 C9H7N2O- 2 159.0564 2.03
  160.0404 C9H6NO2- 3 160.0404 0.3
  160.0766 C10H10NO- 2 160.0768 -1.17
  162.0147 C9H6OS- 1 162.0145 1.64
  162.0439 C2H12NO5S- 2 162.0442 -1.71
  162.0566 C9H8NO2- 1 162.0561 3.2
  162.0677 C2H14N2O4S- 2 162.068 -1.64
  163.0516 C8H7N2O2- 2 163.0513 1.71
  164.0832 C8H10N3O- 2 164.0829 1.55
  165.0671 C8H9N2O2- 1 165.067 1.08
  167.0288 C7H7N2OS- 1 167.0285 2.11
  168.0365 C7H8N2OS- 1 168.0363 1.12
  169.0443 C7H9N2OS- 1 169.0441 1.08
  170.0283 C7H8NO2S- 1 170.0281 1.33
  171.0567 C10H7N2O- 2 171.0564 1.66
  172.0406 C10H6NO2- 2 172.0404 1.27
  172.0644 C10H8N2O- 2 172.0642 1.15
  174.0436 C9H6N2O2- 2 174.0435 0.83
  175.0516 C9H7N2O2- 2 175.0513 1.94
  178.0625 C8H8N3O2- 2 178.0622 1.57
  181.0446 C8H9N2OS- 1 181.0441 2.5
  182.0282 C8H8NO2S- 1 182.0281 0.64
  185.0597 C10H7N3O- 2 185.0595 1.24
  187.0515 C10H7N2O2- 2 187.0513 1.33
  188.018 C10H6NOS- 1 188.0176 2.51
  188.0356 C10H6NO3- 1 188.0353 1.72
  189.0436 C10H7NO3- 1 189.0431 2.37
  189.0672 C10H9N2O2- 2 189.067 1.48
  190.0625 C9H8N3O2- 2 190.0622 1.79
  191.0468 C9H7N2O3- 1 191.0462 3.06
  191.0705 C9H9N3O2- 3 191.07 2.43
  196.0077 C8H6NO3S- 1 196.0074 1.64
  196.0319 C8H8N2O2S- 2 196.0312 3.79
  196.0551 C8H10N3OS- 1 196.055 0.58
  197.0393 C8H9N2O2S- 2 197.039 1.41
  197.0595 C11H7N3O- 2 197.0595 0.25
  198.0927 C13H12NO- 2 198.0924 1.12
  203.0464 C10H7N2O3- 1 203.0462 1.1
  204.0127 C10H6NO2S- 1 204.0125 1.11
  205.0621 C10H9N2O3- 1 205.0619 1.29
  206.0284 C10H8NO2S- 1 206.0281 1.34
  211.0879 C13H11N2O- 1 211.0877 1.01
  213.1037 C13H13N2O- 1 213.1033 1.52
  214.0879 C13H12NO2- 1 214.0874 2.75
  215.0465 C11H7N2O3- 1 215.0462 1.51
  216.054 C11H8N2O3- 1 216.054 -0.1
  217.0624 C11H9N2O3- 1 217.0619 2.51
  221.04 C10H9N2O2S- 1 221.039 4.29
  223.055 C10H11N2O2S- 1 223.0547 1.65
  223.088 C14H11N2O- 1 223.0877 1.54
  224.0503 C9H10N3O2S- 2 224.0499 1.74
  224.0959 C14H12N2O- 1 224.0955 1.64
  227.0827 C13H11N2O2- 1 227.0826 0.61
  229.0983 C13H13N2O2- 1 229.0983 0.39
  232.0077 C11H6NO3S- 1 232.0074 1.35
  232.0731 C11H10N3O3- 2 232.0728 1.49
  239.083 C14H11N2O2- 1 239.0826 1.58
  240.1146 C14H14N3O- 2 240.1142 1.6
  241.0987 C14H13N2O2- 1 241.0983 1.9
  242.0826 C14H12NO3- 2 242.0823 1.25
  249.0343 C11H9N2O3S- 1 249.0339 1.3
  255.0776 C14H11N2O3- 1 255.0775 0.33
  256.1097 C14H14N3O2- 2 256.1092 2.3
  257.0937 C14H13N2O3- 1 257.0932 2
  258.0598 C14H12NO2S- 1 258.0594 1.27
  266.0948 C15H12N3O2- 1 266.0935 4.85
  267.0778 C15H11N2O3- 1 267.0775 1.14
  268.0857 C15H12N2O3- 1 268.0853 1.3
  272.1041 C14H14N3O3- 2 272.1041 0.24
  274.0546 C14H12NO3S- 1 274.0543 1.07
  275.0864 C14H15N2O2S- 1 275.086 1.66
  284.1045 C15H14N3O3- 1 284.1041 1.5
  291.0813 C14H15N2O3S- 1 291.0809 1.59
  301.0656 C15H13N2O3S- 1 301.0652 1.31
  318.0916 C15H16N3O3S- 1 318.0918 -0.49
PK$NUM_PEAK: 152
PK$PEAK: m/z int. rel.int.
  57.9758 23634.8 30
  60.9755 14616.3 18
  66.035 1693.3 2
  67.0303 17359.5 22
  72.0093 21424.6 27
  73.0119 5834.1 7
  83.025 12201.8 15
  84.0092 283359.9 366
  86.0071 2027.9 2
  87.9862 2904.3 3
  92.0507 8867.9 11
  93.0347 158124.4 204
  95.0252 17172.1 22
  96.0457 5696.3 7
  96.9993 27195.2 35
  99.9863 18567.9 24
  100.0228 8326.1 10
  100.0405 2441 3
  102.0019 6613.3 8
  105.046 9299.4 12
  107.0616 100937.5 130
  108.0457 1971.4 2
  109.041 2486.3 3
  109.0772 30388.6 39
  111.0024 8635.8 11
  111.0202 95510.1 123
  112.0228 180817.9 233
  112.0406 10732.5 13
  117.0347 12752.9 16
  117.046 61496.1 79
  118.0301 98109.6 126
  119.0504 88649.3 114
  119.0616 207474.4 268
  120.0457 510300.3 659
  121.0299 1988 2
  123.0453 6874.4 8
  123.0564 2269.2 2
  124.0228 21477 27
  124.0404 2648.6 3
  126.0197 9885.8 12
  126.0384 13404.9 17
  126.997 3510.8 4
  127.9813 7886.3 10
  128.0044 2041.1 2
  129.013 176412.2 228
  131.0377 19091.3 24
  132.0219 2802.5 3
  132.0456 40549.9 52
  132.0569 19358.3 25
  133.0297 38819.3 50
  134.0613 9722.4 12
  134.0726 16615.3 21
  135.0566 332506.4 429
  136.0401 1857.6 2
  137.0068 23155.9 29
  137.0721 9748.5 12
  138.0311 41423.8 53
  139.0277 6166.1 7
  140.0177 2838.9 3
  140.0354 9723.4 12
  142.0333 31980.6 41
  144.0457 36263.6 46
  145.0411 2800.3 3
  146.025 2445.1 3
  146.0614 25721.9 33
  146.0727 6418.2 8
  147.0458 3240.7 4
  147.0566 15794.1 20
  148.0407 43631.1 56
  150.0562 12885.4 16
  150.0675 24058.3 31
  151.0226 2894.1 3
  151.0515 30532.4 39
  152.0178 17719.3 22
  154.9924 102349.4 132
  156.0128 49519 64
  158.0487 10997.8 14
  159.0567 6064.2 7
  160.0404 2006.2 2
  160.0766 1591.8 2
  162.0147 16075 20
  162.0439 11938.5 15
  162.0566 2160.9 2
  162.0677 15869.8 20
  163.0516 140058.6 181
  164.0832 6862.2 8
  165.0671 17840.3 23
  167.0288 7978.4 10
  168.0365 5973 7
  169.0443 56140.6 72
  170.0283 2617.6 3
  171.0567 34258.4 44
  172.0406 19958.1 25
  172.0644 2282.6 2
  174.0436 1623.8 2
  175.0516 23126.2 29
  178.0625 16899 21
  181.0446 11990.6 15
  182.0282 26939.4 34
  185.0597 33053.8 42
  187.0515 9704.9 12
  188.018 21706.6 28
  188.0356 105195.8 136
  189.0436 47961.9 62
  189.0672 244878 316
  190.0625 32479.5 41
  191.0468 1604.7 2
  191.0705 3389 4
  196.0077 7356.4 9
  196.0319 2313.1 2
  196.0551 2893.8 3
  197.0393 57555.9 74
  197.0595 23651 30
  198.0927 13283.7 17
  203.0464 8589.7 11
  204.0127 6619 8
  205.0621 772687.2 999
  206.0284 195173.9 252
  211.0879 3143.7 4
  213.1037 42175.9 54
  214.0879 8270.9 10
  215.0465 92755.4 119
  216.054 14986.8 19
  217.0624 14457.8 18
  221.04 5450.8 7
  223.055 70127.9 90
  223.088 60132.7 77
  224.0503 59356.5 76
  224.0959 23298.4 30
  227.0827 20050.2 25
  229.0983 6279.3 8
  232.0077 60679.1 78
  232.0731 58739 75
  239.083 29676.8 38
  240.1146 123302.7 159
  241.0987 41355.8 53
  242.0826 9825.2 12
  249.0343 161431.1 208
  255.0776 14506.4 18
  256.1097 15372.1 19
  257.0937 7318.8 9
  258.0598 38101.7 49
  266.0948 2275.1 2
  267.0778 17797.3 23
  268.0857 137623.8 177
  272.1041 7892.2 10
  274.0546 48695.4 62
  275.0864 1925.1 2
  284.1045 88478.7 114
  291.0813 38445.5 49
  301.0656 16542.3 21
  318.0916 2071 2
//
