ACCESSION: MSBNK-Eawag-EA028956
RECORD_TITLE: Diuron-desdimethyl; LC-ESI-ITFT; MS2; CE: 75%; R=7500; [M-H]-
DATE: 2014.01.14
AUTHORS: Stravs M, Schymanski E, Singer H, Department of Environmental Chemistry, Eawag
LICENSE: CC BY
COPYRIGHT: Copyright (C) 2012 Eawag, Duebendorf, Switzerland
COMMENT: CONFIDENCE standard compound
COMMENT: EAWAG_UCHEM_ID 289
CH$NAME: Diuron-desdimethyl
CH$NAME: Urea, (3,4-dichlorophenyl)-
CH$NAME: (3,4-dichlorophenyl)urea
CH$COMPOUND_CLASS: N/A; Environmental Standard
CH$FORMULA: C7H6Cl2N2O
CH$EXACT_MASS: 203.9857
CH$SMILES: c1(cc(c(Cl)cc1)Cl)NC(N)=O
CH$IUPAC: InChI=1S/C7H6Cl2N2O/c8-5-2-1-4(3-6(5)9)11-7(10)12/h1-3H,(H3,10,11,12)
CH$LINK: CAS 2327-02-8
CH$LINK: PUBCHEM CID:16854
CH$LINK: INCHIKEY CYESCLHCWJKRKM-UHFFFAOYSA-N
CH$LINK: CHEMSPIDER 15972
CH$LINK: COMPTOX DTXSID2041468
AC$INSTRUMENT: LTQ Orbitrap XL Thermo Scientific
AC$INSTRUMENT_TYPE: LC-ESI-ITFT
AC$MASS_SPECTROMETRY: MS_TYPE MS2
AC$MASS_SPECTROMETRY: ION_MODE NEGATIVE
AC$MASS_SPECTROMETRY: IONIZATION ESI
AC$MASS_SPECTROMETRY: FRAGMENTATION_MODE HCD
AC$MASS_SPECTROMETRY: COLLISION_ENERGY 75 % (nominal)
AC$MASS_SPECTROMETRY: RESOLUTION 7500
AC$CHROMATOGRAPHY: COLUMN_NAME XBridge C18 3.5um, 2.1x50mm, Waters
AC$CHROMATOGRAPHY: FLOW_GRADIENT 90/10 at 0 min, 50/50 at 4 min, 5/95 at 17 min, 5/95 at 25 min, 90/10 at 25.1 min, 90/10 at 30 min
AC$CHROMATOGRAPHY: FLOW_RATE 200 ul/min
AC$CHROMATOGRAPHY: RETENTION_TIME 8.5 min
AC$CHROMATOGRAPHY: SOLVENT A water with 0.1% formic acid
AC$CHROMATOGRAPHY: SOLVENT B methanol with 0.1% formic acid
MS$FOCUSED_ION: BASE_PEAK 202.9793
MS$FOCUSED_ION: PRECURSOR_M/Z 202.9784
MS$FOCUSED_ION: PRECURSOR_TYPE [M-H]-
MS$DATA_PROCESSING: DEPROFILE Spline
MS$DATA_PROCESSING: RECALIBRATE loess on assigned fragments and MS1
MS$DATA_PROCESSING: REANALYZE Peaks with additional N2/O included
MS$DATA_PROCESSING: WHOLE RMassBank 1.3.1
PK$SPLASH: splash10-0pb9-0970000000-8be609b31d7a0485b7d1
PK$ANNOTATION: m/z tentative_formula formula_count mass error(ppm)
  159.9724 C6H4Cl2N- 1 159.9726 -1.68
  202.9791 C7H5Cl2N2O- 1 202.9784 3.29
PK$NUM_PEAK: 2
PK$PEAK: m/z int. rel.int.
  159.9724 11496.7 999
  202.9791 9161.6 796
//
