ACCESSION: MSBNK-Eawag-EQ421107
RECORD_TITLE: Nicosulfuron-TP AUSN; LC-ESI-QFT; MS2; CE: 120%; R=17500; [M+H]+
DATE: 2019.12.03
AUTHORS: K. Kiefer [dtc], J. Hollender [dtc], H. Singer [dtc], M. Stravs [com]
LICENSE: CC BY-SA
COPYRIGHT: Copyright (C) Eawag 2019
PUBLICATION: Kiefer, K.; Mueller, A.; Singer, H.; Hollender, J. New relevant pesticide transformation products in groundwater detected using target and suspect screening for agricultural and urban micropollutants with LC-HRMS. Water Research 2019, 165. DOI: https://doi.org/10.1016/j.watres.2019.114972
COMMENT: CONFIDENCE standard compound
COMMENT: UCHEM_ID 4211
CH$NAME: Nicosulfuron-TP AUSN
CH$NAME: 2-(diaminomethylidenecarbamoylsulfamoyl)-N,N-dimethylpyridine-3-carboxamide
CH$COMPOUND_CLASS: N/A; Environmental Standard
CH$FORMULA: C10H14N6O4S
CH$EXACT_MASS: 314.0797
CH$SMILES: CN(C)C(=O)C1=CC=CN=C1S(=O)(=O)NC(=O)NC(N)=N
CH$IUPAC: InChI=1S/C10H14N6O4S/c1-16(2)8(17)6-4-3-5-13-7(6)21(19,20)15-10(18)14-9(11)12/h3-5H,1-2H3,(H5,11,12,14,15,18)
CH$LINK: PUBCHEM CID:132990948
CH$LINK: INCHIKEY JIZXOFJDALMBAQ-UHFFFAOYSA-N
CH$LINK: CHEMSPIDER 28295028
AC$INSTRUMENT: Q Exactive Plus Orbitrap Thermo Scientific
AC$INSTRUMENT_TYPE: LC-ESI-QFT
AC$MASS_SPECTROMETRY: MS_TYPE MS2
AC$MASS_SPECTROMETRY: ION_MODE POSITIVE
AC$MASS_SPECTROMETRY: IONIZATION ESI
AC$MASS_SPECTROMETRY: FRAGMENTATION_MODE HCD
AC$MASS_SPECTROMETRY: COLLISION_ENERGY 120 % (nominal)
AC$MASS_SPECTROMETRY: RESOLUTION 17500
AC$CHROMATOGRAPHY: COLUMN_NAME XBridge C18 3.5um, 2.1x50mm, Waters
AC$CHROMATOGRAPHY: FLOW_GRADIENT 90/10 at 0 min, 50/50 at 4 min, 5/95 at 17 min, 5/95 at 25 min, 90/10 at 25.1 min, 90/10 at 30 min
AC$CHROMATOGRAPHY: FLOW_RATE 200 uL/min
AC$CHROMATOGRAPHY: RETENTION_TIME 1.371 min
AC$CHROMATOGRAPHY: SOLVENT A water with 0.1% formic acid
AC$CHROMATOGRAPHY: SOLVENT B MeOH with 0.1% formic acid
MS$FOCUSED_ION: BASE_PEAK 315.087
MS$FOCUSED_ION: PRECURSOR_M/Z 315.087
MS$FOCUSED_ION: PRECURSOR_TYPE [M+H]+
MS$DATA_PROCESSING: RECALIBRATE loess on assigned fragments and MS1
MS$DATA_PROCESSING: REANALYZE Peaks with additional N2/O included
MS$DATA_PROCESSING: WHOLE RMassBank 2.99.1
PK$SPLASH: splash10-00or-9000000000-50f593a93fd887807385
PK$ANNOTATION: m/z tentative_formula formula_count mass error(ppm)
  50.0151 C4H2+ 1 50.0151 0.31
  51.023 C4H3+ 1 51.0229 0.6
  60.0556 CH6N3+ 1 60.0556 0.42
  64.0182 C4H2N+ 1 64.0182 0.89
  65.0386 C5H5+ 1 65.0386 0.1
  69.0083 C2HN2O+ 1 69.0083 -0.01
  78.0338 C5H4N+ 1 78.0338 -0.14
  81.0447 C4H5N2+ 1 81.0447 -0.15
  82.0287 C4H4NO+ 1 82.0287 0.02
  86.0349 C2H4N3O+ 1 86.0349 -0.41
  96.0444 C5H6NO+ 1 96.0444 -0.11
  106.0289 C6H4NO+ 1 106.0287 1.17
  110.0597 C6H8NO+ 1 110.06 -2.93
PK$NUM_PEAK: 13
PK$PEAK: m/z int. rel.int.
  50.0151 1403482.8 65
  51.023 5847277.5 274
  60.0556 914660.5 42
  64.0182 417924.6 19
  65.0386 451022.2 21
  69.0083 17045620 801
  78.0338 21258806 999
  81.0447 260436.4 12
  82.0287 378753.2 17
  86.0349 2872051.5 134
  96.0444 2028955.8 95
  106.0289 767105.9 36
  110.0597 77454.5 3
//
