ACCESSION: MSBNK-Eawag-EQ360158
RECORD_TITLE: Forchlorfenuron; LC-ESI-QFT; MS2; CE: 150; R=35000; [M-H]-
DATE: 2015.08.26
AUTHORS: Stravs M, Schymanski E, Singer H, Department of Environmental Chemistry, Eawag and Thomaidis N, University of Athens
LICENSE: CC BY
COPYRIGHT: Copyright (C) 2015 Eawag, Duebendorf, Switzerland
COMMENT: CONFIDENCE standard compound
COMMENT: EAWAG_UCHEM_ID 3601
CH$NAME: Forchlorfenuron
CH$NAME: N-(2-chloro-4-pyridyl)-N`-phenylurea
CH$NAME: 1-(2-chloropyridin-4-yl)-3-phenylurea
CH$COMPOUND_CLASS: N/A; Environmental Standard
CH$FORMULA: C12H10ClN3O
CH$EXACT_MASS: 247.05124
CH$SMILES: C1=CC=C(C=C1)NC(=O)NC2=CC(=NC=C2)Cl
CH$IUPAC: InChI=1S/C12H10ClN3O/c13-11-8-10(6-7-14-11)16-12(17)15-9-4-2-1-3-5-9/h1-8H,(H2,14,15,16,17)
CH$LINK: CAS 68157-60-8
CH$LINK: CHEBI CHEBI:81861
CH$LINK: KEGG C18604
CH$LINK: PUBCHEM CID:93379
CH$LINK: INCHIKEY GPXLRLUVLMHHIK-UHFFFAOYSA-N
CH$LINK: CHEMSPIDER 84301
CH$LINK: COMPTOX DTXSID1034634
AC$INSTRUMENT: Q Exactive Plus Orbitrap Thermo Scientific
AC$INSTRUMENT_TYPE: LC-ESI-QFT
AC$MASS_SPECTROMETRY: MS_TYPE MS2
AC$MASS_SPECTROMETRY: ION_MODE NEGATIVE
AC$MASS_SPECTROMETRY: IONIZATION ESI
AC$MASS_SPECTROMETRY: FRAGMENTATION_MODE HCD
AC$MASS_SPECTROMETRY: COLLISION_ENERGY 150 (nominal)
AC$MASS_SPECTROMETRY: RESOLUTION 35000
AC$CHROMATOGRAPHY: COLUMN_NAME XBridge C18 3.5um, 2.1x50mm, Waters
AC$CHROMATOGRAPHY: FLOW_GRADIENT 90/10 at 0 min, 50/50 at 4 min, 5/95 at 17 min, 5/95 at 25 min, 90/10 at 25.1 min, 90/10 at 30 min
AC$CHROMATOGRAPHY: FLOW_RATE 200 ul/min
AC$CHROMATOGRAPHY: RETENTION_TIME 8.8 min
AC$CHROMATOGRAPHY: SOLVENT A water with 0.1% formic acid
AC$CHROMATOGRAPHY: SOLVENT B methanol with 0.1% formic acid
MS$FOCUSED_ION: BASE_PEAK 246.0435
MS$FOCUSED_ION: PRECURSOR_M/Z 246.044
MS$FOCUSED_ION: PRECURSOR_TYPE [M-H]-
MS$DATA_PROCESSING: RECALIBRATE loess on assigned fragments and MS1
MS$DATA_PROCESSING: REANALYZE Peaks with additional N2/O included
MS$DATA_PROCESSING: WHOLE RMassBank 1.9.6
PK$SPLASH: splash10-0f6x-9000000000-3071fb92a132d47e7f1f
PK$ANNOTATION: m/z tentative_formula formula_count mass error(ppm)
  50.0035 C3N- 1 50.0036 -1.45
  64.0193 C4H2N- 1 64.0193 -0.2
  65.0145 C3HN2- 1 65.0145 -0.18
  65.0397 C5H5- 1 65.0397 -0.21
  65.9985 C3NO- 1 65.9985 -1.32
  66.0349 C4H4N- 1 66.0349 -0.5
  75.024 C6H3- 1 75.024 -0.45
  90.0347 C6H4N- 1 90.0349 -2.03
  91.0302 C5H3N2- 1 91.0302 -0.24
  92.0506 C6H6N- 1 92.0506 -0.14
PK$NUM_PEAK: 10
PK$PEAK: m/z int. rel.int.
  50.0035 1331950 585
  64.0193 222841.6 97
  65.0145 101584.6 44
  65.0397 467165.8 205
  65.9985 13349.8 5
  66.0349 25622.2 11
  75.024 19218.1 8
  90.0347 40421.9 17
  91.0302 301158.2 132
  92.0506 2272167.5 999
//
