ACCESSION: MSBNK-Eawag-EA295014
RECORD_TITLE: Chlorpyrifos; LC-ESI-ITFT; MS2; CE: 35%; R=15000; [M+H]+
DATE: 2014.01.14
AUTHORS: Stravs M, Schymanski E, Singer H, Department of Environmental Chemistry, Eawag
LICENSE: CC BY
COPYRIGHT: Copyright (C) 2012 Eawag, Duebendorf, Switzerland
COMMENT: CONFIDENCE standard compound
COMMENT: EAWAG_UCHEM_ID 2950
CH$NAME: Chlorpyrifos
CH$NAME: diethoxy-sulfanylidene-(3,5,6-trichloropyridin-2-yl)oxy-{5}-phosphane
CH$COMPOUND_CLASS: N/A; Environmental Standard
CH$FORMULA: C9H11Cl3NO3PS
CH$EXACT_MASS: 348.9263
CH$SMILES: Clc1c(OP(=S)(OCC)OCC)nc(Cl)c(Cl)c1
CH$IUPAC: InChI=1S/C9H11Cl3NO3PS/c1-3-14-17(18,15-4-2)16-9-7(11)5-6(10)8(12)13-9/h5H,3-4H2,1-2H3
CH$LINK: CAS 2921-88-2
CH$LINK: CHEBI CHEBI:34631
CH$LINK: KEGG D07688
CH$LINK: PUBCHEM CID:2730
CH$LINK: INCHIKEY SBPBAQFWLVIOKP-UHFFFAOYSA-N
CH$LINK: CHEMSPIDER 2629
CH$LINK: COMPTOX DTXSID4020458
AC$INSTRUMENT: LTQ Orbitrap XL Thermo Scientific
AC$INSTRUMENT_TYPE: LC-ESI-ITFT
AC$MASS_SPECTROMETRY: MS_TYPE MS2
AC$MASS_SPECTROMETRY: ION_MODE POSITIVE
AC$MASS_SPECTROMETRY: IONIZATION ESI
AC$MASS_SPECTROMETRY: FRAGMENTATION_MODE CID
AC$MASS_SPECTROMETRY: COLLISION_ENERGY 35 % (nominal)
AC$MASS_SPECTROMETRY: RESOLUTION 15000
AC$CHROMATOGRAPHY: COLUMN_NAME XBridge C18 3.5um, 2.1x50mm, Waters
AC$CHROMATOGRAPHY: FLOW_GRADIENT 90/10 at 0 min, 50/50 at 4 min, 5/95 at 17 min, 5/95 at 25 min, 90/10 at 25.1 min, 90/10 at 30 min
AC$CHROMATOGRAPHY: FLOW_RATE 200 ul/min
AC$CHROMATOGRAPHY: RETENTION_TIME 16.0 min
AC$CHROMATOGRAPHY: SOLVENT A water with 0.1% formic acid
AC$CHROMATOGRAPHY: SOLVENT B methanol with 0.1% formic acid
MS$FOCUSED_ION: BASE_PEAK 349.9337
MS$FOCUSED_ION: PRECURSOR_M/Z 349.9336
MS$FOCUSED_ION: PRECURSOR_TYPE [M+H]+
MS$DATA_PROCESSING: DEPROFILE Spline
MS$DATA_PROCESSING: RECALIBRATE loess on assigned fragments and MS1
MS$DATA_PROCESSING: REANALYZE Peaks with additional N2/O included
MS$DATA_PROCESSING: WHOLE RMassBank 1.3.1
PK$SPLASH: splash10-00di-0119000000-ba99c1365306cb006059
PK$ANNOTATION: m/z tentative_formula formula_count mass error(ppm)
  96.9508 H2O2PS+ 2 96.9508 0.17
  114.9612 H4O3PS+ 2 114.9613 -1.11
  124.9821 C2H6O2PS+ 2 124.9821 0.05
  153.0133 C4H10O2PS+ 2 153.0134 -0.61
  171.024 C4H12O3PS+ 2 171.0239 0.36
  197.9275 C5H3Cl3NO+ 4 197.9275 -0.07
  213.9042 C8Cl2OS+ 4 213.9041 0.08
  225.9593 C7H7Cl3NO+ 2 225.9588 2.42
  272.9821 C9H7ClN2O4P+ 3 272.9826 -2.15
  275.8603 C5H2Cl3NO2PS+ 1 275.8604 -0.49
  293.8709 C5H4Cl3NO3PS+ 2 293.871 -0.2
  303.8917 C7H6Cl3NO2PS+ 1 303.8917 0.01
  321.9021 C7H8Cl3NO3PS+ 1 321.9023 -0.37
PK$NUM_PEAK: 13
PK$PEAK: m/z int. rel.int.
  96.9508 13453.3 3
  114.9612 6741.3 1
  124.9821 28442.3 7
  153.0133 27543.4 6
  171.024 6428.8 1
  197.9275 456558.4 113
  213.9042 21638.5 5
  225.9593 5479.7 1
  272.9821 47332.2 11
  275.8603 35278.8 8
  293.8709 701376.8 173
  303.8917 147156 36
  321.9021 4036188 999
//
