ACCESSION: MSBNK-Eawag-EQ360908
RECORD_TITLE: Oxolinic acid; LC-ESI-QFT; MS2; CE: 150; R=35000; [M+H]+
DATE: 2015.08.25
AUTHORS: Stravs M, Schymanski E, Singer H, Department of Environmental Chemistry, Eawag and Thomaidis N, University of Athens
LICENSE: CC BY
COPYRIGHT: Copyright (C) 2015 Eawag, Duebendorf, Switzerland
COMMENT: CONFIDENCE standard compound
COMMENT: EAWAG_UCHEM_ID 3609
CH$NAME: Oxolinic acid
CH$NAME: 5-ethyl-8-oxo-[1,3]dioxolo[4,5-g]quinoline-7-carboxylic acid
CH$COMPOUND_CLASS: N/A; Environmental Standard
CH$FORMULA: C13H11NO5
CH$EXACT_MASS: 261.06372
CH$SMILES: CCN1C=C(C(=O)C2=CC3=C(C=C21)OCO3)C(=O)O
CH$IUPAC: InChI=1S/C13H11NO5/c1-2-14-5-8(13(16)17)12(15)7-3-10-11(4-9(7)14)19-6-18-10/h3-5H,2,6H2,1H3,(H,16,17)
CH$LINK: CAS 14698-29-4
CH$LINK: CHEBI CHEBI:138856
CH$LINK: KEGG C11342
CH$LINK: PUBCHEM CID:4628
CH$LINK: INCHIKEY KYGZCKSPAKDVKC-UHFFFAOYSA-N
CH$LINK: CHEMSPIDER 4467
CH$LINK: COMPTOX DTXSID1021089
AC$INSTRUMENT: Q Exactive Plus Orbitrap Thermo Scientific
AC$INSTRUMENT_TYPE: LC-ESI-QFT
AC$MASS_SPECTROMETRY: MS_TYPE MS2
AC$MASS_SPECTROMETRY: ION_MODE POSITIVE
AC$MASS_SPECTROMETRY: IONIZATION ESI
AC$MASS_SPECTROMETRY: FRAGMENTATION_MODE HCD
AC$MASS_SPECTROMETRY: COLLISION_ENERGY 150 (nominal)
AC$MASS_SPECTROMETRY: RESOLUTION 35000
AC$CHROMATOGRAPHY: COLUMN_NAME XBridge C18 3.5um, 2.1x50mm, Waters
AC$CHROMATOGRAPHY: FLOW_GRADIENT 90/10 at 0 min, 50/50 at 4 min, 5/95 at 17 min, 5/95 at 25 min, 90/10 at 25.1 min, 90/10 at 30 min
AC$CHROMATOGRAPHY: FLOW_RATE 200 ul/min
AC$CHROMATOGRAPHY: RETENTION_TIME 0.9 min
AC$CHROMATOGRAPHY: SOLVENT A water with 0.1% formic acid
AC$CHROMATOGRAPHY: SOLVENT B methanol with 0.1% formic acid
MS$FOCUSED_ION: BASE_PEAK 262.0705
MS$FOCUSED_ION: PRECURSOR_M/Z 262.071
MS$FOCUSED_ION: PRECURSOR_TYPE [M+H]+
MS$DATA_PROCESSING: RECALIBRATE loess on assigned fragments and MS1
MS$DATA_PROCESSING: REANALYZE Peaks with additional N2/O included
MS$DATA_PROCESSING: WHOLE RMassBank 1.9.6
PK$SPLASH: splash10-02di-9500000000-bccf49f73f4aeba1dfa3
PK$ANNOTATION: m/z tentative_formula formula_count mass error(ppm)
  50.0151 C4H2+ 1 50.0151 0.37
  51.023 C4H3+ 1 51.0229 0.46
  52.0182 C3H2N+ 1 52.0182 0.47
  53.0022 C3HO+ 1 53.0022 0.36
  53.0386 C4H5+ 1 53.0386 0.44
  53.9975 C2NO+ 1 53.9974 0.93
  54.0338 C3H4N+ 1 54.0338 -0.1
  55.0179 C3H3O+ 1 55.0178 0.34
  56.0495 C3H6N+ 1 56.0495 0.44
  61.0073 C5H+ 1 61.0073 -0.27
  62.0151 C5H2+ 1 62.0151 -0.02
  63.0229 C5H3+ 1 63.0229 0.06
  64.0181 C4H2N+ 1 64.0182 -0.55
  64.0308 C5H4+ 1 64.0308 0.44
  65.0386 C5H5+ 1 65.0386 0.05
  66.01 C4H2O+ 1 66.01 -0.4
  66.0339 C4H4N+ 1 66.0338 0.52
  66.0464 C5H6+ 1 66.0464 -0.18
  67.0179 C4H3O+ 1 67.0178 1.48
  67.0417 C4H5N+ 1 67.0417 -0.01
  67.0542 C5H7+ 1 67.0542 0.05
  68.0131 C3H2NO+ 1 68.0131 -0.15
  68.9971 C3HO2+ 1 68.9971 -0.37
  74.0151 C6H2+ 1 74.0151 -0.43
  75.0103 C5HN+ 1 75.0104 -0.41
  75.0229 C6H3+ 1 75.0229 -0.62
  76.0181 C5H2N+ 1 76.0182 -0.73
  76.0307 C6H4+ 1 76.0308 -0.81
  77.0022 C5HO+ 1 77.0022 -0.53
  77.0385 C6H5+ 1 77.0386 -0.73
  78.0338 C5H4N+ 1 78.0338 -0.46
  78.0464 C6H6+ 1 78.0464 0.24
  79.0178 C5H3O+ 1 79.0178 -0.9
  79.0417 C5H5N+ 1 79.0417 1
  79.0543 C6H7+ 1 79.0542 0.67
  80.0131 C4H2NO+ 1 80.0131 0
  80.0494 C5H6N+ 1 80.0495 -1.07
  81.0335 C5H5O+ 1 81.0335 -0.14
  86.0151 C7H2+ 1 86.0151 -0.37
  87.0229 C7H3+ 1 87.0229 0.27
  88.0182 C6H2N+ 1 88.0182 0.16
  88.0307 C7H4+ 1 88.0308 -0.36
  89.0386 C7H5+ 1 89.0386 -0.07
  90.0339 C6H4N+ 1 90.0338 0.49
  90.0464 C7H6+ 1 90.0464 0.32
  91.0179 C6H3O+ 1 91.0178 0.65
  91.0416 C6H5N+ 1 91.0417 -0.34
  91.0542 C7H7+ 1 91.0542 0.26
  92.0256 C6H4O+ 1 92.0257 -0.61
  92.0495 C6H6N+ 1 92.0495 0.48
  93.0336 C6H5O+ 1 93.0335 1.17
  94.0414 C6H6O+ 1 94.0413 0.89
  95.0492 C6H7O+ 1 95.0491 0.2
  96.0444 C5H6NO+ 1 96.0444 -0.11
  99.0102 C7HN+ 1 99.0104 -1.12
  100.0182 C7H2N+ 1 100.0182 -0.15
  101.026 C7H3N+ 1 101.026 0.39
  102.0338 C7H4N+ 1 102.0338 0.14
  102.0464 C8H6+ 1 102.0464 -0.02
  103.0178 C7H3O+ 1 103.0178 -0.11
  103.0417 C7H5N+ 1 103.0417 -0.01
  103.0542 C8H7+ 1 103.0542 -0.16
  104.013 C6H2NO+ 1 104.0131 -0.67
  104.0495 C7H6N+ 1 104.0495 -0.05
  105.0335 C7H5O+ 1 105.0335 0.08
  105.0447 C6H5N2+ 1 105.0447 0.15
  106.0288 C6H4NO+ 1 106.0287 0.28
  106.0417 C7H6O+ 1 106.0413 3.81
  108.0443 C6H6NO+ 1 108.0444 -1.21
  113.0385 C9H5+ 1 113.0386 -0.85
  114.0339 C8H4N+ 1 114.0338 0.3
  115.0417 C8H5N+ 1 115.0417 0.17
  115.0542 C9H7+ 1 115.0542 0.12
  116.0495 C8H6N+ 1 116.0495 0.04
  117.0573 C8H7N+ 1 117.0573 -0.09
  118.0287 C7H4NO+ 1 118.0287 -0.17
  118.0651 C8H8N+ 1 118.0651 0.12
  119.0128 C7H3O2+ 1 119.0128 0.29
  119.0366 C7H5NO+ 1 119.0366 0.29
  119.0495 C8H7O+ 1 119.0491 2.76
  120.0206 C7H4O2+ 1 120.0206 0.08
  120.0444 C7H6NO+ 1 120.0444 -0.09
  121.0285 C7H5O2+ 1 121.0284 0.37
  121.0398 C6H5N2O+ 1 121.0396 1.33
  127.0416 C9H5N+ 1 127.0417 -0.79
  128.0131 C8H2NO+ 1 128.0131 0.23
  128.0495 C9H6N+ 1 128.0495 0.03
  129.0209 C8H3NO+ 1 129.0209 -0.35
  129.0448 C8H5N2+ 1 129.0447 0.51
  129.0573 C9H7N+ 1 129.0573 0.3
  130.0288 C8H4NO+ 1 130.0287 0.61
  130.04 C7H4N3+ 1 130.04 0.05
  130.0651 C9H8N+ 1 130.0651 0.19
  131.0367 C8H5NO+ 1 131.0366 0.65
  131.0729 C9H9N+ 1 131.073 -0.01
  132.0206 C8H4O2+ 1 132.0206 0.52
  132.0444 C8H6NO+ 1 132.0444 0.07
  133.0284 C8H5O2+ 1 133.0284 0.11
  134.0601 C8H8NO+ 1 134.06 0.67
  135.0314 C7H5NO2+ 1 135.0315 -0.29
  136.0394 C7H6NO2+ 1 136.0393 0.77
  139.0389 C7H7O3+ 1 139.039 -0.65
  140.0495 C10H6N+ 1 140.0495 0.32
  141.0573 C10H7N+ 1 141.0573 0.07
  142.0288 C9H4NO+ 1 142.0287 0.14
  142.0653 C10H8N+ 1 142.0651 1.23
  143.0366 C9H5NO+ 1 143.0366 0.45
  144.0444 C9H6NO+ 1 144.0444 0.21
  145.0284 C9H5O2+ 1 145.0284 -0.11
  146.0364 C9H6O2+ 1 146.0362 1.43
  146.0602 C9H8NO+ 1 146.06 1.23
  148.0394 C8H6NO2+ 1 148.0393 0.3
  149.0346 C7H5N2O2+ 1 149.0346 0.38
  151.0265 C7H5NO3+ 1 151.0264 0.57
  156.0082 C9H2NO2+ 1 156.008 1.12
  157.0157 C9H3NO2+ 1 157.0158 -1.08
  158.0237 C9H4NO2+ 1 158.0237 0.35
  158.0602 C10H8NO+ 1 158.06 1.07
  159.0317 C9H5NO2+ 1 159.0315 1.13
  160.0393 C9H6NO2+ 1 160.0393 0.22
  161.0473 C9H7NO2+ 1 161.0471 1.06
  164.0105 C8H4O4+ 1 164.0104 0.37
  170.035 C9H4N3O+ 1 170.0349 0.78
  172.0393 C10H6NO2+ 1 172.0393 -0.2
  173.0471 C10H7NO2+ 1 173.0471 -0.35
  176.0337 C9H6NO3+ 1 176.0342 -2.89
  186.0186 C10H4NO3+ 1 186.0186 0.27
  200.0345 C11H6NO3+ 1 200.0342 1.2
  214.0136 C11H4NO4+ 1 214.0135 0.31
  232.0238 C11H6NO5+ 1 232.024 -1.16
PK$NUM_PEAK: 130
PK$PEAK: m/z int. rel.int.
  50.0151 339408.1 176
  51.023 221117.5 115
  52.0182 448430 233
  53.0022 194844.1 101
  53.0386 175023.8 91
  53.9975 4494.7 2
  54.0338 25092 13
  55.0179 43447.1 22
  56.0495 12317.1 6
  61.0073 34124.3 17
  62.0151 134661.3 70
  63.0229 537783.1 280
  64.0181 35734.2 18
  64.0308 26066.8 13
  65.0386 1231684.8 642
  66.01 11795.1 6
  66.0339 15459 8
  66.0464 68656.7 35
  67.0179 5718.8 2
  67.0417 4958.6 2
  67.0542 4936.7 2
  68.0131 161377.9 84
  68.9971 40865.3 21
  74.0151 420205.1 219
  75.0103 241609 125
  75.0229 1916017.9 999
  76.0181 253312.1 132
  76.0307 292402.9 152
  77.0022 45098.8 23
  77.0385 511940.9 266
  78.0338 155244.6 80
  78.0464 35862.7 18
  79.0178 20387.3 10
  79.0417 5461.5 2
  79.0543 12031.6 6
  80.0131 33675.3 17
  80.0494 6421.7 3
  81.0335 45487.6 23
  86.0151 24833.9 12
  87.0229 384505.1 200
  88.0182 184449.7 96
  88.0307 72582.7 37
  89.0386 474195.2 247
  90.0339 38957.2 20
  90.0464 86545.2 45
  91.0179 17394 9
  91.0416 45147.1 23
  91.0542 253802.4 132
  92.0256 14120.6 7
  92.0495 19539.3 10
  93.0336 2961.5 1
  94.0414 28250.3 14
  95.0492 626074.2 326
  96.0444 239341.4 124
  99.0102 10363.4 5
  100.0182 42703.8 22
  101.026 423857.7 220
  102.0338 677499.8 353
  102.0464 128633.9 67
  103.0178 104177 54
  103.0417 94498.7 49
  103.0542 335679.2 175
  104.013 12187.4 6
  104.0495 219021.4 114
  105.0335 134687.3 70
  105.0447 445358.6 232
  106.0288 15268.1 7
  106.0417 4019.4 2
  108.0443 2612 1
  113.0385 20661.6 10
  114.0339 783906.8 408
  115.0417 63883.9 33
  115.0542 80435.9 41
  116.0495 128658.9 67
  117.0573 217537.8 113
  118.0287 32165.4 16
  118.0651 60827.9 31
  119.0128 160208.7 83
  119.0366 57797.4 30
  119.0495 11073.2 5
  120.0206 122357.7 63
  120.0444 44854.4 23
  121.0285 22143.2 11
  121.0398 2879 1
  127.0416 3936.6 2
  128.0131 13392.8 6
  128.0495 72381.6 37
  129.0209 13576.1 7
  129.0448 52237.3 27
  129.0573 16759.9 8
  130.0288 220930.7 115
  130.04 175177.6 91
  130.0651 180440 94
  131.0367 11818.1 6
  131.0729 12420.2 6
  132.0206 55047.4 28
  132.0444 180054.1 93
  133.0284 416739.4 217
  134.0601 13786.2 7
  135.0314 10560.2 5
  136.0394 3506.8 1
  139.0389 4165.9 2
  140.0495 10603.1 5
  141.0573 14549.7 7
  142.0288 55049.1 28
  142.0653 12637.1 6
  143.0366 5176.6 2
  144.0444 25040.6 13
  145.0284 3430.1 1
  146.0364 12137.6 6
  146.0602 21232.5 11
  148.0394 5923.8 3
  149.0346 24489.2 12
  151.0265 12593.2 6
  156.0082 6170.3 3
  157.0157 11694.6 6
  158.0237 45080.1 23
  158.0602 6393.9 3
  159.0317 6449.7 3
  160.0393 66331.7 34
  161.0473 4083 2
  164.0105 26208.9 13
  170.035 29724.5 15
  172.0393 271174.1 141
  173.0471 4439.5 2
  176.0337 3296.5 1
  186.0186 185298.2 96
  200.0345 2905.1 1
  214.0136 47230.9 24
  232.0238 3658.9 1
//
