ACCESSION: MSBNK-Eawag-EQ326001
RECORD_TITLE: 2-Chlorobenzenesulfonamide; LC-ESI-QFT; MS2; CE: 15; R=35000; [M+H]+
DATE: 2015.08.25
AUTHORS: Vogler B, Stravs M, Schymanski E, Singer H, Department of Environmental Chemistry, Eawag
LICENSE: CC BY
COPYRIGHT: Copyright (C) 2015 Eawag, Duebendorf, Switzerland
COMMENT: CONFIDENCE standard compound
COMMENT: EAWAG_UCHEM_ID 3260
CH$NAME: 2-Chlorobenzenesulfonamide
CH$NAME: 2-chlorobenzenesulfonamide
CH$COMPOUND_CLASS: N/A; Environmental Standard
CH$FORMULA: C6H6ClNO2S
CH$EXACT_MASS: 190.98078
CH$SMILES: C1=CC=C(C(=C1)S(=O)(=O)N)Cl
CH$IUPAC: InChI=1S/C6H6ClNO2S/c7-5-3-1-2-4-6(5)11(8,9)10/h1-4H,(H2,8,9,10)
CH$LINK: CAS 6961-82-6
CH$LINK: PUBCHEM CID:81410
CH$LINK: INCHIKEY JCCBZCMSYUSCFM-UHFFFAOYSA-N
CH$LINK: CHEMSPIDER 73458
CH$LINK: COMPTOX DTXSID2044979
AC$INSTRUMENT: Q Exactive Orbitrap Thermo Scientific
AC$INSTRUMENT_TYPE: LC-ESI-QFT
AC$MASS_SPECTROMETRY: MS_TYPE MS2
AC$MASS_SPECTROMETRY: ION_MODE POSITIVE
AC$MASS_SPECTROMETRY: IONIZATION ESI
AC$MASS_SPECTROMETRY: FRAGMENTATION_MODE HCD
AC$MASS_SPECTROMETRY: COLLISION_ENERGY 15 (nominal)
AC$MASS_SPECTROMETRY: RESOLUTION 35000
AC$CHROMATOGRAPHY: COLUMN_NAME XBridge C18 3.5um, 2.1x50mm, Waters
AC$CHROMATOGRAPHY: FLOW_GRADIENT 90/10 at 0 min, 50/50 at 4 min, 5/95 at 17 min, 5/95 at 25 min, 90/10 at 25.1 min, 90/10 at 30 min
AC$CHROMATOGRAPHY: FLOW_RATE 200 ul/min
AC$CHROMATOGRAPHY: RETENTION_TIME 4.4 min
AC$CHROMATOGRAPHY: SOLVENT A water with 0.1% formic acid
AC$CHROMATOGRAPHY: SOLVENT B methanol with 0.1% formic acid
MS$FOCUSED_ION: BASE_PEAK 191.988
MS$FOCUSED_ION: PRECURSOR_M/Z 191.9881
MS$FOCUSED_ION: PRECURSOR_TYPE [M+H]+
MS$DATA_PROCESSING: DEPROFILE Spline
MS$DATA_PROCESSING: RECALIBRATE loess on assigned fragments and MS1
MS$DATA_PROCESSING: REANALYZE Peaks with additional N2/O included
MS$DATA_PROCESSING: WHOLE RMassBank 1.9.6
PK$SPLASH: splash10-00di-0900000000-1c3e86e5777e56dddd5e
PK$ANNOTATION: m/z tentative_formula formula_count mass error(ppm)
  65.0384 C5H5+ 1 65.0386 -2.1
  74.015 C6H2+ 1 74.0151 -1.37
  86.9995 C4H4Cl+ 1 86.9996 -1.43
  93.0334 C6H5O+ 1 93.0335 -1.2
  94.0412 C6H6O+ 1 94.0413 -1.34
  99.0439 C5H7O2+ 1 99.0441 -1.07
  101.0152 C5H6Cl+ 1 101.0153 -0.54
  111.0439 C6H7O2+ 1 111.0441 -1.31
  121.0395 C6H5N2O+ 1 121.0396 -1.32
  126.9944 C6H4ClO+ 1 126.9945 -0.94
  129.01 C6H6ClO+ 1 129.0102 -1.54
  130.9716 C5H4ClS+ 1 130.9717 -0.88
  139.0056 C6H4ClN2+ 1 139.0058 -1.1
  145.9666 CH5ClNO3S+ 1 145.9673 -4.92
  174.9613 C6H4ClO2S+ 1 174.9615 -1
  191.9878 C6H7ClNO2S+ 1 191.9881 -1.58
PK$NUM_PEAK: 17
PK$PEAK: m/z int. rel.int.
  65.0384 15300.1 1
  74.015 10527 1
  86.9995 61240.8 7
  93.0334 135777.3 16
  94.0412 191649.6 23
  99.0439 16149.9 1
  101.0152 17208.6 2
  110.999 180253.234 21
  111.0439 591722.2 71
  121.0395 152387.2 18
  126.9944 46509.4 5
  129.01 353156.8 42
  130.9716 38393 4
  139.0056 2463342.9 296
  145.9666 20095.3 2
  174.9613 8293804.3 999
  191.9878 288541.8 34
//
