ACCESSION: MSBNK-Eawag-EQ310104
RECORD_TITLE: Phosmet; LC-ESI-QFT; MS2; CE: 60; R=35000; [M+H]+
DATE: 2015.08.25
AUTHORS: Beck B, Stravs M, Schymanski E, Singer H, Department of Environmental Chemistry, Eawag
LICENSE: CC BY
COPYRIGHT: Copyright (C) 2015 Eawag, Duebendorf, Switzerland
COMMENT: CONFIDENCE standard compound
COMMENT: EAWAG_UCHEM_ID 3101
CH$NAME: Phosmet
CH$NAME: Fosmet
CH$NAME: 2-(dimethoxyphosphinothioylsulfanylmethyl)isoindole-1,3-dione
CH$COMPOUND_CLASS: N/A; Environmental Standard
CH$FORMULA: C11H12NO4PS2
CH$EXACT_MASS: 316.99454
CH$SMILES: COP(=S)(OC)SCN1C(=O)C2=CC=CC=C2C1=O
CH$IUPAC: InChI=1S/C11H12NO4PS2/c1-15-17(18,16-2)19-7-12-10(13)8-5-3-4-6-9(8)11(12)14/h3-6H,7H2,1-2H3
CH$LINK: CAS 5104-30-3
CH$LINK: PUBCHEM CID:12901
CH$LINK: INCHIKEY LMNZTLDVJIUSHT-UHFFFAOYSA-N
CH$LINK: CHEMSPIDER 12367
CH$LINK: COMPTOX DTXSID5024261
AC$INSTRUMENT: Q Exactive Orbitrap Thermo Scientific
AC$INSTRUMENT_TYPE: LC-ESI-QFT
AC$MASS_SPECTROMETRY: MS_TYPE MS2
AC$MASS_SPECTROMETRY: ION_MODE POSITIVE
AC$MASS_SPECTROMETRY: IONIZATION ESI
AC$MASS_SPECTROMETRY: FRAGMENTATION_MODE HCD
AC$MASS_SPECTROMETRY: COLLISION_ENERGY 60 (nominal)
AC$MASS_SPECTROMETRY: RESOLUTION 35000
AC$CHROMATOGRAPHY: COLUMN_NAME XBridge C18 3.5um, 2.1x50mm, Waters
AC$CHROMATOGRAPHY: FLOW_GRADIENT 90/10 at 0 min, 50/50 at 4 min, 5/95 at 17 min, 5/95 at 25 min, 90/10 at 25.1 min, 90/10 at 30 min
AC$CHROMATOGRAPHY: FLOW_RATE 200 ul/min
AC$CHROMATOGRAPHY: RETENTION_TIME 9.5 min
AC$CHROMATOGRAPHY: SOLVENT A water with 0.1% formic acid
AC$CHROMATOGRAPHY: SOLVENT B methanol with 0.1% formic acid
MS$FOCUSED_ION: BASE_PEAK 149.0234
MS$FOCUSED_ION: PRECURSOR_M/Z 318.0018
MS$FOCUSED_ION: PRECURSOR_TYPE [M+H]+
MS$DATA_PROCESSING: DEPROFILE Spline
MS$DATA_PROCESSING: RECALIBRATE loess on assigned fragments and MS1
MS$DATA_PROCESSING: REANALYZE Peaks with additional N2/O included
MS$DATA_PROCESSING: WHOLE RMassBank 1.9.6
PK$SPLASH: splash10-03di-0900000000-3a5634a2d3df7c5b6729
PK$ANNOTATION: m/z tentative_formula formula_count mass error(ppm)
  53.0386 C4H5+ 1 53.0386 0.44
  67.0541 C5H7+ 1 67.0542 -1.29
  76.0306 C6H4+ 1 76.0308 -1.99
  77.0386 C6H5+ 2 77.0386 0.3
  95.0491 C6H7O+ 2 95.0491 -0.43
  104.0495 C7H6N+ 1 104.0495 0.62
  105.0336 C7H5O+ 2 105.0335 0.85
  105.0447 C6H5N2+ 2 105.0447 -0.14
  130.0289 C8H4NO+ 2 130.0287 0.84
  130.0402 C7H4N3+ 2 130.04 1.66
  132.0445 C8H6NO+ 1 132.0444 0.45
  133.0284 C8H5O2+ 2 133.0284 0.33
  142.9925 C2H8O3PS+ 2 142.9926 -0.55
  160.0393 C9H6NO2+ 1 160.0393 0.03
  178.0496 C9H8NO3+ 1 178.0499 -1.35
PK$NUM_PEAK: 15
PK$PEAK: m/z int. rel.int.
  53.0386 571.1 1
  67.0541 857.5 1
  76.0306 768 1
  77.0386 2544 4
  95.0491 11675 20
  104.0495 4334.2 7
  105.0336 22656.5 40
  105.0447 1331 2
  130.0289 12889.9 22
  130.0402 816.3 1
  132.0445 6074.5 10
  133.0284 109160.5 194
  142.9925 2871.8 5
  160.0393 561708.7 999
  178.0496 4671.8 8
//
