ACCESSION: MSBNK-Eawag-EA029408
RECORD_TITLE: Diuron-desmethyl; LC-ESI-ITFT; MS2; CE: 15%; R=15000; [M+H]+
DATE: 2014.01.14
AUTHORS: Stravs M, Schymanski E, Singer H, Department of Environmental Chemistry, Eawag
LICENSE: CC BY
COPYRIGHT: Copyright (C) 2012 Eawag, Duebendorf, Switzerland
COMMENT: CONFIDENCE standard compound
COMMENT: EAWAG_UCHEM_ID 294
CH$NAME: Diuron-desmethyl
CH$NAME: DCPMU
CH$NAME: 1-(3,4-dichlorophenyl)-3-methyl-urea
CH$COMPOUND_CLASS: N/A; Environmental Standard
CH$FORMULA: C8H8Cl2N2O
CH$EXACT_MASS: 218.0014
CH$SMILES: c1(cc(c(Cl)cc1)Cl)NC(NC)=O
CH$IUPAC: InChI=1S/C8H8Cl2N2O/c1-11-8(13)12-5-2-3-6(9)7(10)4-5/h2-4H,1H3,(H2,11,12,13)
CH$LINK: CAS 3567-62-2
CH$LINK: PUBCHEM CID:19113
CH$LINK: INCHIKEY IDQHRQQSSQDLTR-UHFFFAOYSA-N
CH$LINK: CHEMSPIDER 18040
CH$LINK: COMPTOX DTXSID3042180
AC$INSTRUMENT: LTQ Orbitrap XL Thermo Scientific
AC$INSTRUMENT_TYPE: LC-ESI-ITFT
AC$MASS_SPECTROMETRY: MS_TYPE MS2
AC$MASS_SPECTROMETRY: ION_MODE POSITIVE
AC$MASS_SPECTROMETRY: IONIZATION ESI
AC$MASS_SPECTROMETRY: FRAGMENTATION_MODE HCD
AC$MASS_SPECTROMETRY: COLLISION_ENERGY 15 % (nominal)
AC$MASS_SPECTROMETRY: RESOLUTION 15000
AC$CHROMATOGRAPHY: COLUMN_NAME XBridge C18 3.5um, 2.1x50mm, Waters
AC$CHROMATOGRAPHY: FLOW_GRADIENT 90/10 at 0 min, 50/50 at 4 min, 5/95 at 17 min, 5/95 at 25 min, 90/10 at 25.1 min, 90/10 at 30 min
AC$CHROMATOGRAPHY: FLOW_RATE 200 ul/min
AC$CHROMATOGRAPHY: RETENTION_TIME 8.5 min
AC$CHROMATOGRAPHY: SOLVENT A water with 0.1% formic acid
AC$CHROMATOGRAPHY: SOLVENT B methanol with 0.1% formic acid
MS$FOCUSED_ION: BASE_PEAK 245.0789
MS$FOCUSED_ION: PRECURSOR_M/Z 219.0086
MS$FOCUSED_ION: PRECURSOR_TYPE [M+H]+
MS$DATA_PROCESSING: DEPROFILE Spline
MS$DATA_PROCESSING: RECALIBRATE loess on assigned fragments and MS1
MS$DATA_PROCESSING: REANALYZE Peaks with additional N2/O included
MS$DATA_PROCESSING: WHOLE RMassBank 1.3.1
PK$SPLASH: splash10-014i-0090000000-1c8a48d46452fff974d5
PK$ANNOTATION: m/z tentative_formula formula_count mass error(ppm)
  127.0179 C6H6ClN+ 1 127.0183 -3.14
  161.9872 C6H6Cl2N+ 1 161.9872 -0.01
  219.0088 C8H9Cl2N2O+ 1 219.0086 0.53
PK$NUM_PEAK: 3
PK$PEAK: m/z int. rel.int.
  127.0179 6905.4 3
  161.9872 135593.3 65
  219.0088 2076343.4 999
//
