ACCESSION: MSBNK-Eawag-EA277251
RECORD_TITLE: Cetirizine; LC-ESI-ITFT; MS2; CE: 35%; R=7500; [M-H]-
DATE: 2014.01.14
AUTHORS: Stravs M, Schymanski E, Singer H, Department of Environmental Chemistry, Eawag
LICENSE: CC BY
COPYRIGHT: Copyright (C) 2012 Eawag, Duebendorf, Switzerland
COMMENT: CONFIDENCE standard compound
COMMENT: EAWAG_UCHEM_ID 2772
CH$NAME: Cetirizine
CH$NAME: 2-[2-[4-[(4-chlorophenyl)-phenyl-methyl]piperazin-1-yl]ethoxy]ethanoic acid
CH$COMPOUND_CLASS: N/A; Environmental Standard
CH$FORMULA: C21H25ClN2O3
CH$EXACT_MASS: 388.1554
CH$SMILES: C1CN(CCN1CCOCC(=O)O)C(C2=CC=CC=C2)C3=CC=C(C=C3)Cl
CH$IUPAC: InChI=1S/C21H25ClN2O3/c22-19-8-6-18(7-9-19)21(17-4-2-1-3-5-17)24-12-10-23(11-13-24)14-15-27-16-20(25)26/h1-9,21H,10-16H2,(H,25,26)
CH$LINK: CAS 83881-51-0
CH$LINK: CHEBI CHEBI:3561
CH$LINK: KEGG D07402
CH$LINK: PUBCHEM CID:2678
CH$LINK: INCHIKEY ZKLPARSLTMPFCP-UHFFFAOYSA-N
CH$LINK: CHEMSPIDER 2577
CH$LINK: COMPTOX DTXSID4022787
AC$INSTRUMENT: LTQ Orbitrap XL Thermo Scientific
AC$INSTRUMENT_TYPE: LC-ESI-ITFT
AC$MASS_SPECTROMETRY: MS_TYPE MS2
AC$MASS_SPECTROMETRY: ION_MODE NEGATIVE
AC$MASS_SPECTROMETRY: IONIZATION ESI
AC$MASS_SPECTROMETRY: FRAGMENTATION_MODE CID
AC$MASS_SPECTROMETRY: COLLISION_ENERGY 35 % (nominal)
AC$MASS_SPECTROMETRY: RESOLUTION 7500
AC$CHROMATOGRAPHY: COLUMN_NAME XBridge C18 3.5um, 2.1x50mm, Waters
AC$CHROMATOGRAPHY: FLOW_GRADIENT 90/10 at 0 min, 50/50 at 4 min, 5/95 at 17 min, 5/95 at 25 min, 90/10 at 25.1 min, 90/10 at 30 min
AC$CHROMATOGRAPHY: FLOW_RATE 200 ul/min
AC$CHROMATOGRAPHY: RETENTION_TIME 9.2 min
AC$CHROMATOGRAPHY: SOLVENT A water with 0.1% formic acid
AC$CHROMATOGRAPHY: SOLVENT B methanol with 0.1% formic acid
MS$FOCUSED_ION: BASE_PEAK 387.1469
MS$FOCUSED_ION: PRECURSOR_M/Z 387.1481
MS$FOCUSED_ION: PRECURSOR_TYPE [M-H]-
MS$DATA_PROCESSING: DEPROFILE Spline
MS$DATA_PROCESSING: RECALIBRATE loess on assigned fragments and MS1
MS$DATA_PROCESSING: REANALYZE Peaks with additional N2/O included
MS$DATA_PROCESSING: WHOLE RMassBank 1.3.1
PK$SPLASH: splash10-000j-0900000000-9801bb859e79fa9922aa
PK$ANNOTATION: m/z tentative_formula formula_count mass error(ppm)
  185.0934 C8H13N2O3- 1 185.0932 1.21
  199.0318 C13H8Cl- 1 199.032 -1.06
PK$NUM_PEAK: 2
PK$PEAK: m/z int. rel.int.
  185.0934 10560.5 999
  199.0318 7396.3 699
//
