ACCESSION: MSBNK-Eawag-EA256101
RECORD_TITLE: Gabapentin; LC-ESI-ITFT; MS2; CE: 35%; R=7500; [M+H]+
DATE: 2014.01.14
AUTHORS: Stravs M, Schymanski E, Singer H, Department of Environmental Chemistry, Eawag
LICENSE: CC BY
COPYRIGHT: Copyright (C) 2012 Eawag, Duebendorf, Switzerland
COMMENT: CONFIDENCE standard compound
COMMENT: EAWAG_UCHEM_ID 2561
CH$NAME: Gabapentin
CH$NAME: 1-(Aminomethyl)cyclohexaneacetic acid
CH$NAME: 2-[1-(aminomethyl)cyclohexyl]acetic acid
CH$COMPOUND_CLASS: N/A; Environmental Standard
CH$FORMULA: C9H17NO2
CH$EXACT_MASS: 171.1259
CH$SMILES: NCC1(CC(O)=O)CCCCC1
CH$IUPAC: InChI=1S/C9H17NO2/c10-7-9(6-8(11)12)4-2-1-3-5-9/h1-7,10H2,(H,11,12)
CH$LINK: CAS 60142-96-3
CH$LINK: HMDB HMDB05015
CH$LINK: KEGG D00332
CH$LINK: PUBCHEM CID:3446
CH$LINK: INCHIKEY UGJMXCAKCUNAIE-UHFFFAOYSA-N
CH$LINK: CHEMSPIDER 3328
CH$LINK: COMPTOX DTXSID0020074
AC$INSTRUMENT: LTQ Orbitrap XL Thermo Scientific
AC$INSTRUMENT_TYPE: LC-ESI-ITFT
AC$MASS_SPECTROMETRY: MS_TYPE MS2
AC$MASS_SPECTROMETRY: ION_MODE POSITIVE
AC$MASS_SPECTROMETRY: IONIZATION ESI
AC$MASS_SPECTROMETRY: FRAGMENTATION_MODE CID
AC$MASS_SPECTROMETRY: COLLISION_ENERGY 35 % (nominal)
AC$MASS_SPECTROMETRY: RESOLUTION 7500
AC$CHROMATOGRAPHY: COLUMN_NAME XBridge C18 3.5um, 2.1x50mm, Waters
AC$CHROMATOGRAPHY: FLOW_GRADIENT 90/10 at 0 min, 50/50 at 4 min, 5/95 at 17 min, 5/95 at 25 min, 90/10 at 25.1 min, 90/10 at 30 min
AC$CHROMATOGRAPHY: FLOW_RATE 200 ul/min
AC$CHROMATOGRAPHY: RETENTION_TIME 3.6 min
AC$CHROMATOGRAPHY: SOLVENT A water with 0.1% formic acid
AC$CHROMATOGRAPHY: SOLVENT B methanol with 0.1% formic acid
MS$FOCUSED_ION: BASE_PEAK 172.1336
MS$FOCUSED_ION: PRECURSOR_M/Z 172.1332
MS$FOCUSED_ION: PRECURSOR_TYPE [M+H]+
MS$DATA_PROCESSING: DEPROFILE Spline
MS$DATA_PROCESSING: RECALIBRATE loess on assigned fragments and MS1
MS$DATA_PROCESSING: REANALYZE Peaks with additional N2/O included
MS$DATA_PROCESSING: WHOLE RMassBank 1.3.1
PK$SPLASH: splash10-0udi-0900000000-006ecd4a58af763b087f
PK$ANNOTATION: m/z tentative_formula formula_count mass error(ppm)
  93.0698 C7H9+ 1 93.0699 -0.82
  95.0855 C7H11+ 1 95.0855 -0.39
  119.0853 C9H11+ 1 119.0855 -1.74
  137.0961 C9H13O+ 1 137.0961 0.28
  154.1227 C9H16NO+ 1 154.1226 0.71
  155.1066 C9H15O2+ 1 155.1067 -0.43
  172.1335 C9H18NO2+ 1 172.1332 1.6
PK$NUM_PEAK: 7
PK$PEAK: m/z int. rel.int.
  93.0698 16750.7 1
  95.0855 109341.7 7
  119.0853 85156.1 6
  137.0961 429429.3 31
  154.1227 13658831.8 999
  155.1066 919257 67
  172.1335 749845.7 54
//
