ACCESSION: MSBNK-Eawag-EQ01072152
RECORD_TITLE: Nifedipine; LC-ESI-QFT; MS2; CE: 30%; R=15000; [M-H]-
DATE: 2024.06.14
AUTHORS: F. Jud [dtc], K. Arturi [dtc], J. Hollender [dtc], A. Dax [com]
LICENSE: CC BY-SA
COPYRIGHT: Copyright (C) Eawag 2024
COMMENT: CONFIDENCE standard compound
COMMENT: UCHEM_ID 10721
CH$NAME: Nifedipine
CH$NAME: dimethyl 2,6-dimethyl-4-(2-nitrophenyl)-1,4-dihydropyridine-3,5-dicarboxylate
CH$COMPOUND_CLASS: N/A
CH$FORMULA: C17H18N2O6
CH$EXACT_MASS: 346.1164863
CH$SMILES: CC1=C(C(C(=C(N1)C)C(=O)OC)C2=CC=CC=C2[N+](=O)[O-])C(=O)OC
CH$IUPAC: InChI=1S/C17H18N2O6/c1-9-13(16(20)24-3)15(14(10(2)18-9)17(21)25-4)11-7-5-6-8-12(11)19(22)23/h5-8,15,18H,1-4H3
CH$LINK: CAS 21829-25-4
CH$LINK: CHEBI CHEBI:7565
CH$LINK: KEGG C07266
CH$LINK: PUBCHEM CID:4485
CH$LINK: INCHIKEY HYIMSNHJOBLJNT-UHFFFAOYSA-N
CH$LINK: CHEMSPIDER 4330
AC$INSTRUMENT: Exploris 240 Thermo Scientific
AC$INSTRUMENT_TYPE: LC-ESI-QFT
AC$MASS_SPECTROMETRY: MS_TYPE MS2
AC$MASS_SPECTROMETRY: ION_MODE NEGATIVE
AC$MASS_SPECTROMETRY: IONIZATION ESI
AC$MASS_SPECTROMETRY: FRAGMENTATION_MODE HCD
AC$MASS_SPECTROMETRY: COLLISION_ENERGY 30 % (nominal)
AC$MASS_SPECTROMETRY: RESOLUTION 15000
AC$MASS_SPECTROMETRY: MASS_RANGE_M/Z 50-373
AC$CHROMATOGRAPHY: COLUMN_NAME XBridge C18 3.5um, 2.1x50mm, Waters
AC$CHROMATOGRAPHY: FLOW_GRADIENT 90/10 at 0 min, 50/50 at 4 min, 5/95 at 17 min, 5/95 at 25 min, 90/10 at 25.1 min, 90/10 at 30 min
AC$CHROMATOGRAPHY: FLOW_RATE 200 uL/min
AC$CHROMATOGRAPHY: RETENTION_TIME 7.572 min
MS$FOCUSED_ION: BASE_PEAK 345.1089
MS$FOCUSED_ION: PRECURSOR_M/Z 345.1092
MS$FOCUSED_ION: PRECURSOR_TYPE [M-H]-
MS$DATA_PROCESSING: RECALIBRATE loess on assigned fragments and MS1
MS$DATA_PROCESSING: REANALYZE Peaks with additional N2/O included
MS$DATA_PROCESSING: WHOLE RMassBank 3.15.1.1
PK$SPLASH: splash10-00dl-9730000000-bf13adc9a2e8b1355da6
PK$ANNOTATION: m/z tentative_formula formula_count mass error(ppm)
  92.0267 C6H4O- 1 92.0268 -1.02
  122.0246 C6H4NO2- 1 122.0248 -1.2
  222.077 C11H12NO4- 1 222.0772 -0.79
PK$NUM_PEAK: 3
PK$PEAK: m/z int. rel.int.
  92.0267 17127978 999
  122.0246 13811992 805
  222.077 7025519.5 409
//
