ACCESSION: MSBNK-Eawag-EQ320451
RECORD_TITLE: Metoxuron; LC-ESI-QFT; MS2; CE: 15; R=35000; [M-H]-
DATE: 2015.08.26
AUTHORS: Beck B, Stravs M, Schymanski E, Singer H, Department of Environmental Chemistry, Eawag
LICENSE: CC BY
COPYRIGHT: Copyright (C) 2015 Eawag, Duebendorf, Switzerland
COMMENT: CONFIDENCE standard compound
COMMENT: EAWAG_UCHEM_ID 3204
CH$NAME: Metoxuron
CH$NAME: 3-(3-chloro-4-methoxyphenyl)-1,1-dimethylurea
CH$COMPOUND_CLASS: N/A; Environmental Standard
CH$FORMULA: C10H13ClN2O2
CH$EXACT_MASS: 228.06656
CH$SMILES: Clc1cc(ccc1OC)NC(=O)N(C)C
CH$IUPAC: InChI=1S/C10H13ClN2O2/c1-13(2)10(14)12-7-4-5-9(15-3)8(11)6-7/h4-6H,1-3H3,(H,12,14)
CH$LINK: CAS 19937-59-8
CH$LINK: CHEBI CHEBI:6907
CH$LINK: KEGG C11011
CH$LINK: PUBCHEM CID:29863
CH$LINK: INCHIKEY DSRNRYQBBJQVCW-UHFFFAOYSA-N
CH$LINK: CHEMSPIDER 27749
CH$LINK: COMPTOX DTXSID1042158
AC$INSTRUMENT: Q Exactive Plus Orbitrap Thermo Scientific
AC$INSTRUMENT_TYPE: LC-ESI-QFT
AC$MASS_SPECTROMETRY: MS_TYPE MS2
AC$MASS_SPECTROMETRY: ION_MODE NEGATIVE
AC$MASS_SPECTROMETRY: IONIZATION ESI
AC$MASS_SPECTROMETRY: FRAGMENTATION_MODE HCD
AC$MASS_SPECTROMETRY: COLLISION_ENERGY 15 (nominal)
AC$MASS_SPECTROMETRY: RESOLUTION 35000
AC$CHROMATOGRAPHY: COLUMN_NAME XBridge C18 3.5um, 2.1x50mm, Waters
AC$CHROMATOGRAPHY: FLOW_GRADIENT 90/10 at 0 min, 50/50 at 4 min, 5/95 at 17 min, 5/95 at 25 min, 90/10 at 25.1 min, 90/10 at 30 min
AC$CHROMATOGRAPHY: FLOW_RATE 200 ul/min
AC$CHROMATOGRAPHY: RETENTION_TIME 6.0 min
AC$CHROMATOGRAPHY: SOLVENT A water with 0.1% formic acid
AC$CHROMATOGRAPHY: SOLVENT B methanol with 0.1% formic acid
MS$FOCUSED_ION: BASE_PEAK 182.9883
MS$FOCUSED_ION: PRECURSOR_M/Z 227.0593
MS$FOCUSED_ION: PRECURSOR_TYPE [M-H]-
MS$DATA_PROCESSING: RECALIBRATE loess on assigned fragments and MS1
MS$DATA_PROCESSING: REANALYZE Peaks with additional N2/O included
MS$DATA_PROCESSING: WHOLE RMassBank 1.9.6
PK$SPLASH: splash10-03di-0090000000-993d22bc4bcb80b80b1e
PK$ANNOTATION: m/z tentative_formula formula_count mass error(ppm)
  154.0064 C7H5ClNO- 2 154.0065 -0.81
  167.9856 C7H3ClNO2- 1 167.9858 -1.07
  168.0221 C8H7ClNO- 1 168.0222 -0.45
  169.0299 C8H8ClNO- 1 169.03 -0.71
  197.0123 C8H6ClN2O2- 1 197.0123 -0.3
  212.0357 C9H9ClN2O2- 1 212.0358 -0.44
  227.0593 C10H12ClN2O2- 1 227.0593 0.09
PK$NUM_PEAK: 7
PK$PEAK: m/z int. rel.int.
  154.0064 13380.4 4
  167.9856 46524.7 16
  168.0221 64399.9 22
  169.0299 5930.3 2
  197.0123 223617.8 77
  212.0357 2865409.2 999
  227.0593 933281.7 325
//
