ACCESSION: MSBNK-Eawag-EA294308
RECORD_TITLE: Flonicamid; LC-ESI-ITFT; MS2; CE: 15%; R=15000; [M+H]+
DATE: 2014.01.14
AUTHORS: Stravs M, Schymanski E, Singer H, Department of Environmental Chemistry, Eawag
LICENSE: CC BY
COPYRIGHT: Copyright (C) 2012 Eawag, Duebendorf, Switzerland
COMMENT: CONFIDENCE standard compound
COMMENT: EAWAG_UCHEM_ID 2943
CH$NAME: Flonicamid
CH$NAME: N-(cyanomethyl)-4-(trifluoromethyl)-3-pyridinecarboxamide
CH$COMPOUND_CLASS: N/A; Environmental Standard
CH$FORMULA: C9H6F3N3O
CH$EXACT_MASS: 229.0463
CH$SMILES: O=C(NCC#N)c1cnccc1C(F)(F)F
CH$IUPAC: InChI=1S/C9H6F3N3O/c10-9(11,12)7-1-3-14-5-6(7)8(16)15-4-2-13/h1,3,5H,4H2,(H,15,16)
CH$LINK: CAS 158062-67-0
CH$LINK: CHEBI CHEBI:39291
CH$LINK: PUBCHEM CID:9834513
CH$LINK: INCHIKEY RLQJEEJISHYWON-UHFFFAOYSA-N
CH$LINK: CHEMSPIDER 8010234
CH$LINK: COMPTOX DTXSID8034611
AC$INSTRUMENT: LTQ Orbitrap XL Thermo Scientific
AC$INSTRUMENT_TYPE: LC-ESI-ITFT
AC$MASS_SPECTROMETRY: MS_TYPE MS2
AC$MASS_SPECTROMETRY: ION_MODE POSITIVE
AC$MASS_SPECTROMETRY: IONIZATION ESI
AC$MASS_SPECTROMETRY: FRAGMENTATION_MODE HCD
AC$MASS_SPECTROMETRY: COLLISION_ENERGY 15 % (nominal)
AC$MASS_SPECTROMETRY: RESOLUTION 15000
AC$CHROMATOGRAPHY: COLUMN_NAME XBridge C18 3.5um, 2.1x50mm, Waters
AC$CHROMATOGRAPHY: FLOW_GRADIENT 90/10 at 0 min, 50/50 at 4 min, 5/95 at 17 min, 5/95 at 25 min, 90/10 at 25.1 min, 90/10 at 30 min
AC$CHROMATOGRAPHY: FLOW_RATE 200 ul/min
AC$CHROMATOGRAPHY: RETENTION_TIME 3.9 min
AC$CHROMATOGRAPHY: SOLVENT A water with 0.1% formic acid
AC$CHROMATOGRAPHY: SOLVENT B methanol with 0.1% formic acid
MS$FOCUSED_ION: BASE_PEAK 230.0537
MS$FOCUSED_ION: PRECURSOR_M/Z 230.0536
MS$FOCUSED_ION: PRECURSOR_TYPE [M+H]+
MS$DATA_PROCESSING: DEPROFILE Spline
MS$DATA_PROCESSING: RECALIBRATE loess on assigned fragments and MS1
MS$DATA_PROCESSING: REANALYZE Peaks with additional N2/O included
MS$DATA_PROCESSING: WHOLE RMassBank 1.3.1
PK$SPLASH: splash10-001i-0090000000-db3056f69af2a5be649a
PK$ANNOTATION: m/z tentative_formula formula_count mass error(ppm)
  174.0165 C7H3F3NO+ 1 174.0161 2.04
  203.0425 C8H6F3N2O+ 1 203.0427 -0.71
  230.0535 C9H7F3N3O+ 1 230.0536 -0.45
PK$NUM_PEAK: 3
PK$PEAK: m/z int. rel.int.
  174.0165 235541.1 3
  203.0425 490959.3 8
  230.0535 60598238.2 999
//
