ACCESSION: MSBNK-Eawag-EQ01154751
RECORD_TITLE: 6-O-Desmethyl-mycophenolic acid; LC-ESI-QFT; MS2; CE: 15%; R=17500; [M-H]-
DATE: 2024.05.08
AUTHORS: C. Meyer [dtc], B. Beck [dtc,com], J. Hollender [dtc]
LICENSE: CC BY-SA
COPYRIGHT: Copyright (C) Eawag 2023
PUBLICATION: Meyer, C., Stravs, M., Hollender, J.. How Wastewater Reflects Human Metabolism - Suspect Screening of Pharmaceutical Metabolites in Wastewater Influent. doi:10.1021/acs.est.4c00968
COMMENT: CONFIDENCE standard compound
COMMENT: UCHEM_ID 11547
CH$NAME: 6-O-Desmethyl-mycophenolic acid
CH$NAME: 6-(4,6-dihydroxy-7-methyl-3-oxo-1H-2-benzofuran-5-yl)-4-methylhex-4-enoic acid
CH$COMPOUND_CLASS: N/A; Environmental Standard
CH$FORMULA: C16H18O6
CH$EXACT_MASS: 306.1103383
CH$SMILES: CC1=C2COC(=O)C2=C(C(=C1O)CC=C(C)CCC(=O)O)O
CH$IUPAC: InChI=1S/C16H18O6/c1-8(4-6-12(17)18)3-5-10-14(19)9(2)11-7-22-16(21)13(11)15(10)20/h3,19-20H,4-7H2,1-2H3,(H,17,18)
CH$LINK: PUBCHEM CID:57369640
CH$LINK: INCHIKEY MHSRNZSBNXFMLF-UHFFFAOYSA-N
CH$LINK: CHEMSPIDER 35031787
AC$INSTRUMENT: Exploris 240 Orbitrap Thermo Scientific
AC$INSTRUMENT_TYPE: LC-ESI-QFT
AC$MASS_SPECTROMETRY: MS_TYPE MS2
AC$MASS_SPECTROMETRY: ION_MODE NEGATIVE
AC$MASS_SPECTROMETRY: IONIZATION ESI
AC$MASS_SPECTROMETRY: FRAGMENTATION_MODE HCD
AC$MASS_SPECTROMETRY: COLLISION_ENERGY 15 % (nominal)
AC$MASS_SPECTROMETRY: RESOLUTION 17500
AC$MASS_SPECTROMETRY: MASS_RANGE_M/Z 50-332
AC$CHROMATOGRAPHY: COLUMN_NAME XBridge C18 3.5um, 2.1x50mm, Waters
AC$CHROMATOGRAPHY: FLOW_GRADIENT 90/10 at 0 min, 50/50 at 4 min, 5/95 at 17 min, 5/95 at 25 min, 90/10 at 25.1 min, 90/10 at 30 min
AC$CHROMATOGRAPHY: FLOW_RATE 200 uL/min
AC$CHROMATOGRAPHY: RETENTION_TIME 6.307 min
MS$FOCUSED_ION: BASE_PEAK 305.1029
MS$FOCUSED_ION: PRECURSOR_M/Z 305.1031
MS$FOCUSED_ION: PRECURSOR_TYPE [M-H]-
MS$DATA_PROCESSING: RECALIBRATE loess on assigned fragments and MS1
MS$DATA_PROCESSING: REANALYZE Peaks with additional N2/O included
MS$DATA_PROCESSING: WHOLE RMassBank 3.15.1
PK$SPLASH: splash10-0a4i-0009000000-3ea9f287276666969783
PK$ANNOTATION: m/z tentative_formula formula_count mass error(ppm)
  261.1131 C15H17O4- 1 261.1132 -0.35
  287.0925 C16H15O5- 1 287.0925 0.05
  305.103 C16H17O6- 1 305.1031 -0.23
PK$NUM_PEAK: 3
PK$PEAK: m/z int. rel.int.
  261.1131 4703677 41
  287.0925 235302.2 2
  305.103 113016056 999
//
