ACCESSION: MSBNK-Eawag-EQ361752
RECORD_TITLE: Chlordiazepoxide; LC-ESI-QFT; MS2; CE: 30; R=35000; [M-H]-
DATE: 2015.08.26
AUTHORS: Stravs M, Schymanski E, Singer H, Department of Environmental Chemistry, Eawag and Thomaidis N, University of Athens
LICENSE: CC BY
COPYRIGHT: Copyright (C) 2015 Eawag, Duebendorf, Switzerland
COMMENT: CONFIDENCE standard compound
COMMENT: EAWAG_UCHEM_ID 3617
CH$NAME: Chlordiazepoxide
CH$NAME: Zetran
CH$NAME: 7-chloro-4-hydroxy-N-methyl-5-phenyl-3H-1,4-benzodiazepin-2-imine
CH$COMPOUND_CLASS: N/A; Environmental Standard
CH$FORMULA: C16H14ClN3O
CH$EXACT_MASS: 299.08254
CH$SMILES: CN=C1CN(C(=C2C=C(C=CC2=N1)Cl)C3=CC=CC=C3)O
CH$IUPAC: InChI=1S/C16H14ClN3O/c1-18-15-10-20(21)16(11-5-3-2-4-6-11)13-9-12(17)7-8-14(13)19-15/h2-9,21H,10H2,1H3
CH$LINK: CAS 58-25-3
CH$LINK: CHEBI CHEBI:3611
CH$LINK: PUBCHEM CID:2712
CH$LINK: INCHIKEY BUCORZSTKDOEKQ-UHFFFAOYSA-N
CH$LINK: CHEMSPIDER 2611
AC$INSTRUMENT: Q Exactive Plus Orbitrap Thermo Scientific
AC$INSTRUMENT_TYPE: LC-ESI-QFT
AC$MASS_SPECTROMETRY: MS_TYPE MS2
AC$MASS_SPECTROMETRY: ION_MODE NEGATIVE
AC$MASS_SPECTROMETRY: IONIZATION ESI
AC$MASS_SPECTROMETRY: FRAGMENTATION_MODE HCD
AC$MASS_SPECTROMETRY: COLLISION_ENERGY 30 (nominal)
AC$MASS_SPECTROMETRY: RESOLUTION 35000
AC$CHROMATOGRAPHY: COLUMN_NAME XBridge C18 3.5um, 2.1x50mm, Waters
AC$CHROMATOGRAPHY: FLOW_GRADIENT 90/10 at 0 min, 50/50 at 4 min, 5/95 at 17 min, 5/95 at 25 min, 90/10 at 25.1 min, 90/10 at 30 min
AC$CHROMATOGRAPHY: FLOW_RATE 200 ul/min
AC$CHROMATOGRAPHY: RETENTION_TIME 6.2 min
AC$CHROMATOGRAPHY: SOLVENT A water with 0.1% formic acid
AC$CHROMATOGRAPHY: SOLVENT B methanol with 0.1% formic acid
MS$FOCUSED_ION: BASE_PEAK 298.0748
MS$FOCUSED_ION: PRECURSOR_M/Z 298.0753
MS$FOCUSED_ION: PRECURSOR_TYPE [M-H]-
MS$DATA_PROCESSING: RECALIBRATE loess on assigned fragments and MS1
MS$DATA_PROCESSING: REANALYZE Peaks with additional N2/O included
MS$DATA_PROCESSING: WHOLE RMassBank 1.9.6
PK$SPLASH: splash10-0udi-0090000000-1740a6c8ef7d5aef2dfc
PK$ANNOTATION: m/z tentative_formula formula_count mass error(ppm)
  55.0301 C2H3N2- 1 55.0302 -1.85
  135.9958 C7H3ClN- 2 135.996 -1.18
  151.9907 C7H3ClNO- 1 151.9909 -0.76
  165.0223 C8H6ClN2- 2 165.0225 -1.39
  192.0336 C9H7ClN3- 2 192.0334 0.95
  193.017 C9H6ClN2O- 1 193.0174 -2.15
  221.0722 C14H9N2O- 2 221.072 0.65
  241.0301 C14H8ClNO- 1 241.03 0.29
  253.0536 C15H10ClN2- 1 253.0538 -0.63
  254.0614 C15H11ClN2- 1 254.0616 -0.73
  255.0327 C14H8ClN2O- 1 255.0331 -1.39
  255.0694 C15H12ClN2- 1 255.0694 -0.27
  270.0557 C15H11ClN2O- 1 270.0565 -2.92
  298.075 C16H13ClN3O- 1 298.0753 -0.78
PK$NUM_PEAK: 14
PK$PEAK: m/z int. rel.int.
  55.0301 4555.5 1
  135.9958 15930.3 5
  151.9907 13100.9 4
  165.0223 2967.3 1
  192.0336 8148.9 2
  193.017 4868.8 1
  221.0722 10193.9 3
  241.0301 11897.9 4
  253.0536 183489.2 66
  254.0614 2770653 999
  255.0327 10402 3
  255.0694 8356.8 3
  270.0557 3671 1
  298.075 248471.2 89
//
