ACCESSION: MSBNK-Eawag-EQ369701
RECORD_TITLE: Olanzapine; LC-ESI-QFT; MS2; CE: 15; R=35000; [M+H]+
DATE: 2015.08.25
AUTHORS: Stravs M, Schymanski E, Singer H, Department of Environmental Chemistry, Eawag and Thomaidis N, University of Athens
LICENSE: CC BY
COPYRIGHT: Copyright (C) 2015 Eawag, Duebendorf, Switzerland
COMMENT: CONFIDENCE standard compound
COMMENT: EAWAG_UCHEM_ID 3697
CH$NAME: Olanzapine
CH$NAME: 2-methyl-4-(4-methylpiperazin-1-yl)-5H-thieno[3,2-c][1,5]benzodiazepine
CH$COMPOUND_CLASS: N/A; Environmental Standard
CH$FORMULA: C17H20N4S
CH$EXACT_MASS: 312.14087
CH$SMILES: CC1=CC2=C(NC3=CC=CC=C3N=C2S1)N4CCN(CC4)C
CH$IUPAC: InChI=1S/C17H20N4S/c1-12-11-13-16(21-9-7-20(2)8-10-21)18-14-5-3-4-6-15(14)19-17(13)22-12/h3-6,11,18H,7-10H2,1-2H3
CH$LINK: CAS 132539-06-1
CH$LINK: CHEBI CHEBI:7735
CH$LINK: PUBCHEM CID:4585
CH$LINK: INCHIKEY WXPNDRBBWZMPQG-UHFFFAOYSA-N
CH$LINK: CHEMSPIDER 4424
AC$INSTRUMENT: Q Exactive Plus Orbitrap Thermo Scientific
AC$INSTRUMENT_TYPE: LC-ESI-QFT
AC$MASS_SPECTROMETRY: MS_TYPE MS2
AC$MASS_SPECTROMETRY: ION_MODE POSITIVE
AC$MASS_SPECTROMETRY: IONIZATION ESI
AC$MASS_SPECTROMETRY: FRAGMENTATION_MODE HCD
AC$MASS_SPECTROMETRY: COLLISION_ENERGY 15 (nominal)
AC$MASS_SPECTROMETRY: RESOLUTION 35000
AC$CHROMATOGRAPHY: COLUMN_NAME XBridge C18 3.5um, 2.1x50mm, Waters
AC$CHROMATOGRAPHY: FLOW_GRADIENT 90/10 at 0 min, 50/50 at 4 min, 5/95 at 17 min, 5/95 at 25 min, 90/10 at 25.1 min, 90/10 at 30 min
AC$CHROMATOGRAPHY: FLOW_RATE 200 ul/min
AC$CHROMATOGRAPHY: RETENTION_TIME 3.1 min
AC$CHROMATOGRAPHY: SOLVENT A water with 0.1% formic acid
AC$CHROMATOGRAPHY: SOLVENT B methanol with 0.1% formic acid
MS$FOCUSED_ION: BASE_PEAK 313.1474
MS$FOCUSED_ION: PRECURSOR_M/Z 313.1481
MS$FOCUSED_ION: PRECURSOR_TYPE [M+H]+
MS$DATA_PROCESSING: RECALIBRATE loess on assigned fragments and MS1
MS$DATA_PROCESSING: REANALYZE Peaks with additional N2/O included
MS$DATA_PROCESSING: WHOLE RMassBank 1.9.6
PK$SPLASH: splash10-03di-0009000000-e919a4392717cddf3965
PK$ANNOTATION: m/z tentative_formula formula_count mass error(ppm)
  84.0807 C5H10N+ 1 84.0808 -0.9
  230.0757 C12H12N3S+ 1 230.0746 4.46
  256.09 C14H14N3S+ 1 256.0903 -1.19
  313.148 C17H21N4S+ 1 313.1481 -0.59
PK$NUM_PEAK: 4
PK$PEAK: m/z int. rel.int.
  84.0807 1395531.9 3
  230.0757 443498.6 1
  256.09 5214573 13
  313.148 395317024 999
//
