ACCESSION: MSBNK-Eawag-EA295410
RECORD_TITLE: Thiacloprid; LC-ESI-ITFT; MS2; CE: 45%; R=15000; [M+H]+
DATE: 2014.01.14
AUTHORS: Stravs M, Schymanski E, Singer H, Department of Environmental Chemistry, Eawag
LICENSE: CC BY
COPYRIGHT: Copyright (C) 2012 Eawag, Duebendorf, Switzerland
COMMENT: CONFIDENCE standard compound
COMMENT: EAWAG_UCHEM_ID 2954
CH$NAME: Thiacloprid
CH$NAME: (Z)-[3-[(6-Chloro-3-pyridinyl)methyl]-2-thiazolidinylidene]cyanamide
CH$NAME: Calypso
CH$COMPOUND_CLASS: N/A; Environmental Standard
CH$FORMULA: C10H9ClN4S
CH$EXACT_MASS: 252.0236
CH$SMILES: C1CSC(=NC#N)N1CC2=CN=C(C=C2)Cl
CH$IUPAC: InChI=1S/C10H9ClN4S/c11-9-2-1-8(5-13-9)6-15-3-4-16-10(15)14-7-12/h1-2,5H,3-4,6H2
CH$LINK: CAS 111988-49-9
CH$LINK: PUBCHEM CID:115224
CH$LINK: INCHIKEY HOKKPVIRMVDYPB-UHFFFAOYSA-N
CH$LINK: CHEMSPIDER 21865404
AC$INSTRUMENT: LTQ Orbitrap XL Thermo Scientific
AC$INSTRUMENT_TYPE: LC-ESI-ITFT
AC$MASS_SPECTROMETRY: MS_TYPE MS2
AC$MASS_SPECTROMETRY: ION_MODE POSITIVE
AC$MASS_SPECTROMETRY: IONIZATION ESI
AC$MASS_SPECTROMETRY: FRAGMENTATION_MODE HCD
AC$MASS_SPECTROMETRY: COLLISION_ENERGY 45 % (nominal)
AC$MASS_SPECTROMETRY: RESOLUTION 15000
AC$CHROMATOGRAPHY: COLUMN_NAME XBridge C18 3.5um, 2.1x50mm, Waters
AC$CHROMATOGRAPHY: FLOW_GRADIENT 90/10 at 0 min, 50/50 at 4 min, 5/95 at 17 min, 5/95 at 25 min, 90/10 at 25.1 min, 90/10 at 30 min
AC$CHROMATOGRAPHY: FLOW_RATE 200 ul/min
AC$CHROMATOGRAPHY: RETENTION_TIME 5.8 min
AC$CHROMATOGRAPHY: SOLVENT A water with 0.1% formic acid
AC$CHROMATOGRAPHY: SOLVENT B methanol with 0.1% formic acid
MS$FOCUSED_ION: BASE_PEAK 253.0312
MS$FOCUSED_ION: PRECURSOR_M/Z 253.0309
MS$FOCUSED_ION: PRECURSOR_TYPE [M+H]+
MS$DATA_PROCESSING: DEPROFILE Spline
MS$DATA_PROCESSING: RECALIBRATE loess on assigned fragments and MS1
MS$DATA_PROCESSING: REANALYZE Peaks with additional N2/O included
MS$DATA_PROCESSING: WHOLE RMassBank 1.3.1
PK$SPLASH: splash10-004i-0900000000-f351869df258d1b5fa22
PK$ANNOTATION: m/z tentative_formula formula_count mass error(ppm)
  90.0338 C6H4N+ 1 90.0338 -0.17
  98.9996 C5H4Cl+ 1 98.9996 0.06
  126.0105 C6H5ClN+ 1 126.0105 0.05
  144.0211 C6H7ClNO+ 2 144.0211 -0.12
  151.0058 C7H4ClN2+ 1 151.0058 0.32
  186.0137 C8H9ClNS+ 1 186.0139 -0.72
  190.0429 C9H8N3S+ 1 190.0433 -2.34
  211.0092 C9H8ClN2S+ 1 211.0091 0.13
  217.0543 C10H9N4S+ 1 217.0542 0.26
  226.0202 C9H9ClN3S+ 1 226.02 0.7
  236.0043 C10H7ClN3S+ 1 236.0044 -0.14
  253.0308 C10H10ClN4S+ 1 253.0309 -0.32
PK$NUM_PEAK: 12
PK$PEAK: m/z int. rel.int.
  90.0338 214733.6 4
  98.9996 55975.2 1
  126.0105 48404278.7 999
  144.0211 75946.9 1
  151.0058 255371.5 5
  186.0137 643951.3 13
  190.0429 75314 1
  211.0092 205710.1 4
  217.0543 153727.2 3
  226.0202 184812.8 3
  236.0043 101944.1 2
  253.0308 2912842.7 60
//
