ACCESSION: MSBNK-Eawag-EA013510
RECORD_TITLE: Metalaxyl; LC-ESI-ITFT; MS2; CE: 45%; R=15000; [M+H]+
DATE: 2014.01.14
AUTHORS: Stravs M, Schymanski E, Singer H, Department of Environmental Chemistry, Eawag
LICENSE: CC BY
COPYRIGHT: Copyright (C) 2012 Eawag, Duebendorf, Switzerland
COMMENT: CONFIDENCE standard compound
COMMENT: EAWAG_UCHEM_ID 135
CH$NAME: Metalaxyl
CH$NAME: 2-(N-(2-methoxy-1-oxoethyl)-2,6-dimethylanilino)propanoic acid methyl ester
CH$COMPOUND_CLASS: N/A; Environmental Standard
CH$FORMULA: C15H21NO4
CH$EXACT_MASS: 279.1465
CH$SMILES: CC1=C(C(=CC=C1)C)N(C(C)C(=O)OC)C(=O)COC
CH$IUPAC: InChI=1S/C15H21NO4/c1-10-7-6-8-11(2)14(10)16(13(17)9-19-4)12(3)15(18)20-5/h6-8,12H,9H2,1-5H3
CH$LINK: CAS 57837-19-1
CH$LINK: KEGG C10947
CH$LINK: PUBCHEM CID:42856
CH$LINK: INCHIKEY ZQEIXNIJLIKNTD-UHFFFAOYSA-N
CH$LINK: CHEMSPIDER 38839
CH$LINK: COMPTOX DTXSID6024175
AC$INSTRUMENT: LTQ Orbitrap XL Thermo Scientific
AC$INSTRUMENT_TYPE: LC-ESI-ITFT
AC$MASS_SPECTROMETRY: MS_TYPE MS2
AC$MASS_SPECTROMETRY: ION_MODE POSITIVE
AC$MASS_SPECTROMETRY: IONIZATION ESI
AC$MASS_SPECTROMETRY: FRAGMENTATION_MODE HCD
AC$MASS_SPECTROMETRY: COLLISION_ENERGY 45 % (nominal)
AC$MASS_SPECTROMETRY: RESOLUTION 15000
AC$CHROMATOGRAPHY: COLUMN_NAME XBridge C18 3.5um, 2.1x50mm, Waters
AC$CHROMATOGRAPHY: FLOW_GRADIENT 90/10 at 0 min, 50/50 at 4 min, 5/95 at 17 min, 5/95 at 25 min, 90/10 at 25.1 min, 90/10 at 30 min
AC$CHROMATOGRAPHY: FLOW_RATE 200 ul/min
AC$CHROMATOGRAPHY: RETENTION_TIME 8.7 min
AC$CHROMATOGRAPHY: SOLVENT A water with 0.1% formic acid
AC$CHROMATOGRAPHY: SOLVENT B methanol with 0.1% formic acid
MS$FOCUSED_ION: BASE_PEAK 302.1365
MS$FOCUSED_ION: PRECURSOR_M/Z 280.1543
MS$FOCUSED_ION: PRECURSOR_TYPE [M+H]+
MS$DATA_PROCESSING: DEPROFILE Spline
MS$DATA_PROCESSING: RECALIBRATE loess on assigned fragments and MS1
MS$DATA_PROCESSING: REANALYZE Peaks with additional N2/O included
MS$DATA_PROCESSING: WHOLE RMassBank 1.3.1
PK$SPLASH: splash10-01ox-0910000000-0830c1f0a544a6ba9de5
PK$ANNOTATION: m/z tentative_formula formula_count mass error(ppm)
  121.0887 C8H11N+ 1 121.0886 0.65
  132.0808 C9H10N+ 1 132.0808 0.26
  133.0885 C9H11N+ 1 133.0886 -0.46
  134.0963 C9H12N+ 1 134.0964 -0.71
  145.0884 C10H11N+ 1 145.0886 -1.66
  146.0963 C10H12N+ 1 146.0964 -0.72
  148.112 C10H14N+ 1 148.1121 -0.44
  150.0911 C9H12NO+ 1 150.0913 -1.67
  160.1121 C11H14N+ 1 160.1121 -0.04
  162.1276 C11H16N+ 1 162.1277 -0.47
  164.1069 C10H14NO+ 1 164.107 -0.49
  165.1147 C10H15NO+ 1 165.1148 -0.76
  188.107 C12H14NO+ 1 188.107 0
  192.1383 C12H18NO+ 1 192.1383 0.1
  208.1336 C12H18NO2+ 1 208.1332 1.8
  220.133 C13H18NO2+ 1 220.1332 -0.89
  248.1292 C14H18NO3+ 1 248.1281 4.43
PK$NUM_PEAK: 17
PK$PEAK: m/z int. rel.int.
  121.0887 11924 4
  132.0808 15924 5
  133.0885 90786.7 31
  134.0963 144377.2 49
  145.0884 39550.3 13
  146.0963 127558 43
  148.112 442101.6 152
  150.0911 16957.7 5
  160.1121 2081886.4 717
  162.1276 310211.4 106
  164.1069 7791 2
  165.1147 122230 42
  188.107 27486.8 9
  192.1383 2899877.3 999
  208.1336 7660.4 2
  220.133 736932.1 253
  248.1292 24332.8 8
//
