ACCESSION: MSBNK-Eawag-EQ00070904
RECORD_TITLE: Flufenacet; LC-ESI-QFT; MS2; CE: 60%; R=15000; [M+H]+
DATE: 2024.06.14
AUTHORS: F. Jud [dtc], K. Arturi [dtc], J. Hollender [dtc], A. Dax [com]
LICENSE: CC BY-SA
COPYRIGHT: Copyright (C) Eawag 2024
COMMENT: CONFIDENCE standard compound
COMMENT: UCHEM_ID 709
CH$NAME: Flufenacet
CH$NAME: N-(4-fluorophenyl)-N-propan-2-yl-2-[[5-(trifluoromethyl)-1,3,4-thiadiazol-2-yl]oxy]acetamide
CH$COMPOUND_CLASS: N/A
CH$FORMULA: C14H13F4N3O2S
CH$EXACT_MASS: 363.0664605
CH$SMILES: CC(C)N(C(=O)COC1=NN=C(S1)C(F)(F)F)C1=CC=C(F)C=C1
CH$IUPAC: InChI=1S/C14H13F4N3O2S/c1-8(2)21(10-5-3-9(15)4-6-10)11(22)7-23-13-20-19-12(24-13)14(16,17)18/h3-6,8H,7H2,1-2H3
CH$LINK: CAS 142459-58-3
CH$LINK: CHEBI CHEBI:81920
CH$LINK: KEGG C18731
CH$LINK: PUBCHEM CID:86429
CH$LINK: INCHIKEY IANUJLZYFUDJIH-UHFFFAOYSA-N
CH$LINK: CHEMSPIDER 77944
AC$INSTRUMENT: Q Exactive Plus
AC$INSTRUMENT_TYPE: LC-ESI-QFT
AC$MASS_SPECTROMETRY: MS_TYPE MS2
AC$MASS_SPECTROMETRY: ION_MODE POSITIVE
AC$MASS_SPECTROMETRY: IONIZATION ESI
AC$MASS_SPECTROMETRY: FRAGMENTATION_MODE HCD
AC$MASS_SPECTROMETRY: COLLISION_ENERGY 60 % (nominal)
AC$MASS_SPECTROMETRY: RESOLUTION 15000
AC$MASS_SPECTROMETRY: MASS_RANGE_M/Z 50-390
AC$CHROMATOGRAPHY: COLUMN_NAME XBridge C18 3.5um, 2.1x50mm, Waters
AC$CHROMATOGRAPHY: FLOW_GRADIENT 90/10 at 0 min, 50/50 at 4 min, 5/95 at 17 min, 5/95 at 25 min, 90/10 at 25.1 min, 90/10 at 30 min
AC$CHROMATOGRAPHY: FLOW_RATE 200 uL/min
AC$CHROMATOGRAPHY: RETENTION_TIME 10.445 min
MS$FOCUSED_ION: BASE_PEAK 364.0739
MS$FOCUSED_ION: PRECURSOR_M/Z 364.0737
MS$FOCUSED_ION: PRECURSOR_TYPE [M+H]+
MS$FOCUSED_ION: PRECURSOR_INTENSITY 508954947.53
MS$DATA_PROCESSING: RECALIBRATE loess on assigned fragments and MS1
MS$DATA_PROCESSING: REANALYZE Peaks with additional N2/O included
MS$DATA_PROCESSING: WHOLE RMassBank 3.15.1.1
PK$SPLASH: splash10-00di-0900000000-80e6a97a6030b0d50f9b
PK$ANNOTATION: m/z tentative_formula formula_count mass error(ppm)
  97.0449 C6H6F+ 2 97.0448 0.68
  104.0496 C7H6N+ 1 104.0495 1.51
  109.0449 C7H6F+ 2 109.0448 0.74
  110.0402 C6H5FN+ 1 110.0401 1.3
  112.0557 C6H7FN+ 2 112.0557 0.35
  123.0241 C7H4FO+ 2 123.0241 0.3
  124.0558 C7H7FN+ 2 124.0557 0.78
  152.0507 C8H7FNO+ 1 152.0506 0.56
  152.0869 C9H11FN+ 1 152.087 -0.4
PK$NUM_PEAK: 9
PK$PEAK: m/z int. rel.int.
  97.0449 18746488 161
  104.0496 1241578.6 10
  109.0449 31799378 273
  110.0402 1194107 10
  112.0557 1254586.9 10
  123.0241 4764093.5 40
  124.0558 116231072 999
  152.0507 38347744 329
  152.0869 12405803 106
//
