ACCESSION: MSBNK-Eawag-EQ01128710
RECORD_TITLE: Ofurace; LC-ESI-QFT; MS2; CE: 15%; R=17500; [M+H]+
DATE: 2023.04.27
AUTHORS: B. Beck [dtc,com], J. Hollender [dtc]
LICENSE: CC BY-SA
COPYRIGHT: Copyright (C) Eawag 2023
COMMENT: CONFIDENCE standard compound
COMMENT: UCHEM_ID 11287
CH$NAME: Ofurace
CH$NAME: 2-chloro-N-(2,6-dimethylphenyl)-N-(2-oxooxolan-3-yl)acetamide
CH$COMPOUND_CLASS: N/A; Environmental Standard
CH$FORMULA: C14H16ClNO3
CH$EXACT_MASS: 281.0819
CH$SMILES: CC1=C(C(=CC=C1)C)N(C2CCOC2=O)C(=O)CCl
CH$IUPAC: InChI=1S/C14H16ClNO3/c1-9-4-3-5-10(2)13(9)16(12(17)8-15)11-6-7-19-14(11)18/h3-5,11H,6-8H2,1-2H3
CH$LINK: CAS 58810-48-3
CH$LINK: CHEBI CHEBI:82792
CH$LINK: KEGG C18800
CH$LINK: PUBCHEM CID:42850
CH$LINK: INCHIKEY OWDLFBLNMPCXSD-UHFFFAOYSA-N
CH$LINK: CHEMSPIDER 39084
AC$INSTRUMENT: Exploris 240 Orbitrap Thermo Scientific
AC$INSTRUMENT_TYPE: LC-ESI-QFT
AC$MASS_SPECTROMETRY: MS_TYPE MS2
AC$MASS_SPECTROMETRY: ION_MODE POSITIVE
AC$MASS_SPECTROMETRY: IONIZATION ESI
AC$MASS_SPECTROMETRY: FRAGMENTATION_MODE HCD
AC$MASS_SPECTROMETRY: COLLISION_ENERGY 15 % (nominal)
AC$MASS_SPECTROMETRY: RESOLUTION 17500
AC$MASS_SPECTROMETRY: MASS_RANGE_M/Z 50-309
AC$CHROMATOGRAPHY: COLUMN_NAME XBridge C18 3.5um, 2.1x50mm, Waters
AC$CHROMATOGRAPHY: FLOW_GRADIENT 90/10 at 0 min, 50/50 at 4 min, 5/95 at 17 min, 5/95 at 25 min, 90/10 at 25.1 min, 90/10 at 30 min
AC$CHROMATOGRAPHY: FLOW_RATE 200 uL/min
AC$CHROMATOGRAPHY: RETENTION_TIME 5.728 min
MS$FOCUSED_ION: BASE_PEAK 312.1342
MS$FOCUSED_ION: PRECURSOR_M/Z 282.0891
MS$FOCUSED_ION: PRECURSOR_TYPE [M+H]+
MS$DATA_PROCESSING: RECALIBRATE loess on assigned fragments and MS1
MS$DATA_PROCESSING: REANALYZE Peaks with additional N2/O included
MS$DATA_PROCESSING: WHOLE RMassBank 3.11.0.1
PK$SPLASH: splash10-0f89-0090000000-28a63f28d90d51fe9eca
PK$ANNOTATION: m/z tentative_formula formula_count mass error(ppm)
  236.0836 C13H15ClNO+ 1 236.0837 -0.32
  254.0945 C13H17ClNO2+ 1 254.0942 1.24
  282.0894 C14H17ClNO3+ 1 282.0891 0.79
PK$NUM_PEAK: 3
PK$PEAK: m/z int. rel.int.
  236.0836 5892411 43
  254.0945 76735552 570
  282.0894 134361456 999
//
