ACCESSION: MSBNK-Eawag-EA017004
RECORD_TITLE: Sotalol; LC-ESI-ITFT; MS2; CE: 45%; R=7500; [M+H]+
DATE: 2014.01.14
AUTHORS: Stravs M, Schymanski E, Singer H, Department of Environmental Chemistry, Eawag
LICENSE: CC BY
COPYRIGHT: Copyright (C) 2012 Eawag, Duebendorf, Switzerland
COMMENT: CONFIDENCE standard compound
COMMENT: EAWAG_UCHEM_ID 170
CH$NAME: Sotalol
CH$NAME: N-[4-[1-hydroxy-2-(isopropylamino)ethyl]phenyl]methanesulfonamide
CH$COMPOUND_CLASS: N/A; Environmental Standard
CH$FORMULA: C12H20N2O3S
CH$EXACT_MASS: 272.1195
CH$SMILES: CC(C)NCC(C1=CC=C(C=C1)NS(=O)(=O)C)O
CH$IUPAC: InChI=1S/C12H20N2O3S/c1-9(2)13-8-12(15)10-4-6-11(7-5-10)14-18(3,16)17/h4-7,9,12-15H,8H2,1-3H3
CH$LINK: CAS 3930-20-9
CH$LINK: KEGG C07309
CH$LINK: PUBCHEM CID:5253
CH$LINK: INCHIKEY ZBMZVLHSJCTVON-UHFFFAOYSA-N
CH$LINK: CHEMSPIDER 5063
CH$LINK: COMPTOX DTXSID0023589
AC$INSTRUMENT: LTQ Orbitrap XL Thermo Scientific
AC$INSTRUMENT_TYPE: LC-ESI-ITFT
AC$MASS_SPECTROMETRY: MS_TYPE MS2
AC$MASS_SPECTROMETRY: ION_MODE POSITIVE
AC$MASS_SPECTROMETRY: IONIZATION ESI
AC$MASS_SPECTROMETRY: FRAGMENTATION_MODE HCD
AC$MASS_SPECTROMETRY: COLLISION_ENERGY 45 % (nominal)
AC$MASS_SPECTROMETRY: RESOLUTION 7500
AC$CHROMATOGRAPHY: COLUMN_NAME XBridge C18 3.5um, 2.1x50mm, Waters
AC$CHROMATOGRAPHY: FLOW_GRADIENT 90/10 at 0 min, 50/50 at 4 min, 5/95 at 17 min, 5/95 at 25 min, 90/10 at 25.1 min, 90/10 at 30 min
AC$CHROMATOGRAPHY: FLOW_RATE 200 ul/min
AC$CHROMATOGRAPHY: RETENTION_TIME 1.6 min
AC$CHROMATOGRAPHY: SOLVENT A water with 0.1% formic acid
AC$CHROMATOGRAPHY: SOLVENT B methanol with 0.1% formic acid
MS$FOCUSED_ION: BASE_PEAK 273.1277
MS$FOCUSED_ION: PRECURSOR_M/Z 273.1267
MS$FOCUSED_ION: PRECURSOR_TYPE [M+H]+
MS$DATA_PROCESSING: DEPROFILE Spline
MS$DATA_PROCESSING: RECALIBRATE loess on assigned fragments and MS1
MS$DATA_PROCESSING: REANALYZE Peaks with additional N2/O included
MS$DATA_PROCESSING: WHOLE RMassBank 1.3.1
PK$SPLASH: splash10-03e9-0690000000-0c5b752605586d60828a
PK$ANNOTATION: m/z tentative_formula formula_count mass error(ppm)
  106.065 C7H8N+ 1 106.0651 -1.37
  107.0729 C7H9N+ 1 107.073 -0.66
  116.0496 C8H6N+ 1 116.0495 0.9
  117.0573 C8H7N+ 1 117.0573 -0.35
  118.0651 C8H8N+ 1 118.0651 -0.56
  119.06 C7H7N2+ 1 119.0604 -2.89
  132.0678 C8H8N2+ 1 132.0682 -3.03
  133.076 C8H9N2+ 1 133.076 0.11
  134.0838 C8H10N2+ 1 134.0838 -0.37
  161.1076 C10H13N2+ 1 161.1073 1.65
  175.1231 C11H15N2+ 1 175.123 0.49
  176.1307 C11H16N2+ 1 176.1308 -0.34
  198.0583 C9H12NO2S+ 1 198.0583 -0.03
  213.0693 C9H13N2O2S+ 1 213.0692 0.26
  255.1161 C12H19N2O2S+ 1 255.1162 -0.49
PK$NUM_PEAK: 15
PK$PEAK: m/z int. rel.int.
  106.065 47158.9 28
  107.0729 24130.8 14
  116.0496 5407.2 3
  117.0573 12455.9 7
  118.0651 15306.1 9
  119.06 5142.3 3
  132.0678 6162.3 3
  133.076 800210 487
  134.0838 239315.2 145
  161.1076 4140.2 2
  175.1231 11922.7 7
  176.1307 370877.1 226
  198.0583 7298.1 4
  213.0693 1638774.9 999
  255.1161 565211.2 344
//
