ACCESSION: MSBNK-Eawag-EQ500755
RECORD_TITLE: O-Des[2-aminoethyl]-O-carboxymethyl dehydroamlodipine; LC-ESI-QFT; MS2; CE: 75%; R=15000; [M-H]-
DATE: 2021.03.16
AUTHORS: K. Kiefer [dtc], J. Hollender [dtc], H. Singer [dtc], B. Lauper [com]
LICENSE: CC BY-SA
COPYRIGHT: Copyright (C) Eawag 2019
PUBLICATION: Kiefer, K.; Mueller, A.; Singer, H.; Hollender, J. New relevant pesticide transformation products in groundwater detected using target and suspect screening for agricultural and urban micropollutants with LC-HRMS. Water Research 2019, 165. DOI: https://doi.org/10.1016/j.watres.2019.114972
COMMENT: CONFIDENCE standard compound
COMMENT: UCHEM_ID 5007
CH$NAME: O-Des[2-aminoethyl]-O-carboxymethyl dehydroamlodipine
CH$NAME: 2-((4-(2-Chlorophenyl)-3-ethoxycarbonyl-5-methoxycarbonyl-6-methyl-2-pyridyl)methoxy)acetic acid
CH$NAME: 2-[[4-(2-chlorophenyl)-3-ethoxycarbonyl-5-methoxycarbonyl-6-methylpyridin-2-yl]methoxy]acetic acid
CH$COMPOUND_CLASS: N/A; Environmental Standard
CH$FORMULA: C20H20ClNO7
CH$EXACT_MASS: 421.0928
CH$SMILES: CCOC(=O)C1=C(C(=C(N=C1COCC(=O)O)C)C(=O)OC)C2=CC=CC=C2Cl
CH$IUPAC: InChI=1S/C20H20ClNO7/c1-4-29-20(26)18-14(9-28-10-15(23)24)22-11(2)16(19(25)27-3)17(18)12-7-5-6-8-13(12)21/h5-8H,4,9-10H2,1-3H3,(H,23,24)
CH$LINK: CAS 113994-45-9
CH$LINK: PUBCHEM CID:14271878
CH$LINK: INCHIKEY WYLSEDHKQJBUIA-UHFFFAOYSA-N
CH$LINK: CHEMSPIDER 32698294
CH$LINK: COMPTOX DTXSID50150625
AC$INSTRUMENT: Orbitrap Exploris 240 Thermo Scientific
AC$INSTRUMENT_TYPE: LC-ESI-QFT
AC$MASS_SPECTROMETRY: MS_TYPE MS2
AC$MASS_SPECTROMETRY: ION_MODE NEGATIVE
AC$MASS_SPECTROMETRY: IONIZATION ESI
AC$MASS_SPECTROMETRY: FRAGMENTATION_MODE HCD
AC$MASS_SPECTROMETRY: COLLISION_ENERGY 75 % (nominal)
AC$MASS_SPECTROMETRY: RESOLUTION 15000
AC$MASS_SPECTROMETRY: MASS_RANGE_M/Z NA-NA
AC$CHROMATOGRAPHY: COLUMN_NAME Atlantis C18 3um, 3.0x150mm, Waters
AC$CHROMATOGRAPHY: FLOW_GRADIENT 100/0 at 0 min, 100/0 at 1.5 min, 5/95 at 18.5 min, 5/95 at 28.5 min, 100/0 at 29 min, 100/0 at 33 min
AC$CHROMATOGRAPHY: FLOW_RATE 300 uL/min
AC$CHROMATOGRAPHY: RETENTION_TIME 18.423 min
MS$FOCUSED_ION: BASE_PEAK 420.0855
MS$FOCUSED_ION: PRECURSOR_M/Z 420.0856
MS$FOCUSED_ION: PRECURSOR_TYPE [M-H]-
MS$FOCUSED_ION: PRECURSOR_INTENSITY 14212248
MS$DATA_PROCESSING: RECALIBRATE loess on assigned fragments and MS1
MS$DATA_PROCESSING: REANALYZE Peaks with additional N2/O included
MS$DATA_PROCESSING: WHOLE RMassBank 2.99.4
PK$SPLASH: splash10-0a4i-9000000000-86452970ecd17eb62f3f
PK$ANNOTATION: m/z tentative_formula formula_count mass error(ppm)
  59.0138 C2H3O2- 1 59.0139 -0.82
  228.0223 C13H7ClNO- 2 228.0222 0.79
  242.0381 C14H9ClNO- 2 242.0378 1.22
PK$NUM_PEAK: 3
PK$PEAK: m/z int. rel.int.
  59.0138 765600.4 999
  228.0223 26384.9 34
  242.0381 17114.7 22
//
