ACCESSION: MSBNK-Eawag-EQ01153902
RECORD_TITLE: 2-Hydroxynevirapine; LC-ESI-QFT; MS2; CE: 30%; R=17500; [M+H]+
DATE: 2024.05.08
AUTHORS: C. Meyer [dtc], B. Beck [dtc,com], J. Hollender [dtc]
LICENSE: CC BY-SA
COPYRIGHT: Copyright (C) Eawag 2023
PUBLICATION: Meyer, C., Stravs, M., Hollender, J.. How Wastewater Reflects Human Metabolism - Suspect Screening of Pharmaceutical Metabolites in Wastewater Influent. doi:10.1021/acs.est.4c00968
COMMENT: CONFIDENCE standard compound
COMMENT: UCHEM_ID 11539
CH$NAME: 2-Hydroxynevirapine
CH$NAME: 2-Hydroxy Nevirapine
CH$NAME: 2-cyclopropyl-7-methyl-2,4,9,15-tetrazatricyclo[9.4.0.03,8]pentadeca-1(11),3(8),6,12,14-pentaene-5,10-dione
CH$COMPOUND_CLASS: N/A; Environmental Standard
CH$FORMULA: C15H14N4O2
CH$EXACT_MASS: 282.1116757
CH$SMILES: CC1=CC(=O)NC2=C1NC(=O)C3=C(N2C4CC4)N=CC=C3
CH$IUPAC: InChI=1S/C15H14N4O2/c1-8-7-11(20)17-14-12(8)18-15(21)10-3-2-6-16-13(10)19(14)9-4-5-9/h2-3,6-7,9H,4-5H2,1H3,(H,17,20)(H,18,21)
CH$LINK: CHEBI CHEBI:174695
CH$LINK: PUBCHEM CID:10850461
CH$LINK: INCHIKEY LFZSOJABLBVGRJ-UHFFFAOYSA-N
CH$LINK: CHEMSPIDER 9025755
AC$INSTRUMENT: Exploris 240 Orbitrap Thermo Scientific
AC$INSTRUMENT_TYPE: LC-ESI-QFT
AC$MASS_SPECTROMETRY: MS_TYPE MS2
AC$MASS_SPECTROMETRY: ION_MODE POSITIVE
AC$MASS_SPECTROMETRY: IONIZATION ESI
AC$MASS_SPECTROMETRY: FRAGMENTATION_MODE HCD
AC$MASS_SPECTROMETRY: COLLISION_ENERGY 30 % (nominal)
AC$MASS_SPECTROMETRY: RESOLUTION 17500
AC$MASS_SPECTROMETRY: MASS_RANGE_M/Z 50-310
AC$CHROMATOGRAPHY: COLUMN_NAME XBridge C18 3.5um, 2.1x50mm, Waters
AC$CHROMATOGRAPHY: FLOW_GRADIENT 90/10 at 0 min, 50/50 at 4 min, 5/95 at 17 min, 5/95 at 25 min, 90/10 at 25.1 min, 90/10 at 30 min
AC$CHROMATOGRAPHY: FLOW_RATE 200 uL/min
AC$CHROMATOGRAPHY: RETENTION_TIME 3.847 min
MS$FOCUSED_ION: BASE_PEAK 283.1187
MS$FOCUSED_ION: PRECURSOR_M/Z 283.119
MS$FOCUSED_ION: PRECURSOR_TYPE [M+H]+
MS$DATA_PROCESSING: RECALIBRATE loess on assigned fragments and MS1
MS$DATA_PROCESSING: REANALYZE Peaks with additional N2/O included
MS$DATA_PROCESSING: WHOLE RMassBank 3.15.1
PK$SPLASH: splash10-001i-0090000000-2d041bf8c305889d27b9
PK$ANNOTATION: m/z tentative_formula formula_count mass error(ppm)
  123.0553 C6H7N2O+ 1 123.0553 0.1
  124.0635 C6H8N2O+ 1 124.0631 3.07
  161.071 C9H9N2O+ 1 161.0709 0.37
  242.0797 C12H10N4O2+ 1 242.0798 -0.64
  283.1188 C15H15N4O2+ 1 283.119 -0.36
PK$NUM_PEAK: 5
PK$PEAK: m/z int. rel.int.
  123.0553 379864.6 6
  124.0635 167172.1 2
  161.071 3883117.5 69
  242.0797 1647560 29
  283.1188 55864116 999
//
