ACCESSION: MSBNK-Eawag-EQ01129206
RECORD_TITLE: Phenthoate; LC-ESI-QFT; MS2; CE: 90%; R=17500; [M+H]+
DATE: 2023.04.27
AUTHORS: B. Beck [dtc,com], J. Hollender [dtc]
LICENSE: CC BY-SA
COPYRIGHT: Copyright (C) Eawag 2023
COMMENT: CONFIDENCE standard compound
COMMENT: UCHEM_ID 11292
CH$NAME: Phenthoate
CH$NAME: ethyl 2-dimethoxyphosphinothioylsulfanyl-2-phenylacetate
CH$COMPOUND_CLASS: N/A; Environmental Standard
CH$FORMULA: C12H17O4PS2
CH$EXACT_MASS: 320.0306
CH$SMILES: CCOC(=O)C(C1=CC=CC=C1)SP(=S)(OC)OC
CH$IUPAC: InChI=1S/C12H17O4PS2/c1-4-16-12(13)11(10-8-6-5-7-9-10)19-17(18,14-2)15-3/h5-9,11H,4H2,1-3H3
CH$LINK: CAS 123-30-8
CH$LINK: CHEBI CHEBI:34917
CH$LINK: KEGG C14429
CH$LINK: PUBCHEM CID:17435
CH$LINK: INCHIKEY XAMUDJHXFNRLCY-UHFFFAOYSA-N
CH$LINK: CHEMSPIDER 16492
AC$INSTRUMENT: Exploris 240 Orbitrap Thermo Scientific
AC$INSTRUMENT_TYPE: LC-ESI-QFT
AC$MASS_SPECTROMETRY: MS_TYPE MS2
AC$MASS_SPECTROMETRY: ION_MODE POSITIVE
AC$MASS_SPECTROMETRY: IONIZATION ESI
AC$MASS_SPECTROMETRY: FRAGMENTATION_MODE HCD
AC$MASS_SPECTROMETRY: COLLISION_ENERGY 90 % (nominal)
AC$MASS_SPECTROMETRY: RESOLUTION 17500
AC$MASS_SPECTROMETRY: MASS_RANGE_M/Z 50-348
AC$CHROMATOGRAPHY: COLUMN_NAME XBridge C18 3.5um, 2.1x50mm, Waters
AC$CHROMATOGRAPHY: FLOW_GRADIENT 90/10 at 0 min, 50/50 at 4 min, 5/95 at 17 min, 5/95 at 25 min, 90/10 at 25.1 min, 90/10 at 30 min
AC$CHROMATOGRAPHY: FLOW_RATE 200 uL/min
AC$CHROMATOGRAPHY: RETENTION_TIME 10.719 min
MS$FOCUSED_ION: BASE_PEAK 275.0712
MS$FOCUSED_ION: PRECURSOR_M/Z 321.0379
MS$FOCUSED_ION: PRECURSOR_TYPE [M+H]+
MS$DATA_PROCESSING: RECALIBRATE loess on assigned fragments and MS1
MS$DATA_PROCESSING: REANALYZE Peaks with additional N2/O included
MS$DATA_PROCESSING: WHOLE RMassBank 3.11.0.1
PK$SPLASH: splash10-004i-9100000000-ee70bfcdf483fe256455
PK$ANNOTATION: m/z tentative_formula formula_count mass error(ppm)
  53.0386 C4H5+ 1 53.0386 0.8
  62.0183 C2H6S+ 1 62.0185 -2.03
  65.0386 C5H5+ 1 65.0386 -0.38
  77.0385 C6H5+ 1 77.0386 -0.79
  78.9943 CH4O2P+ 1 78.9943 -0.62
  79.0542 C6H7+ 1 79.0542 -0.92
  91.0542 C7H7+ 1 91.0542 -0.54
  95.0492 C6H7O+ 1 95.0491 0.92
  107.0491 C7H7O+ 1 107.0491 -0.71
  124.9821 C2H6O2PS+ 1 124.9821 0.15
  135.044 C8H7O2+ 1 135.0441 -0.48
  142.9923 C2H8O3PS+ 1 142.9926 -2.64
PK$NUM_PEAK: 12
PK$PEAK: m/z int. rel.int.
  53.0386 925964.6 20
  62.0183 355030.3 7
  65.0386 526808.8 11
  77.0385 3834878.5 82
  78.9943 3352551.5 72
  79.0542 46224632 999
  91.0542 11927710 257
  95.0492 1277030.2 27
  107.0491 7644812 165
  124.9821 2839079.2 61
  135.044 605600.6 13
  142.9923 822751.5 17
//
