ACCESSION: MSBNK-Eawag-EQ01069501
RECORD_TITLE: Lumiracoxib; LC-ESI-QFT; MS2; CE: 15%; R=15000; [M+H]+
DATE: 2024.06.14
AUTHORS: F. Jud [dtc], K. Arturi [dtc], J. Hollender [dtc], A. Dax [com]
LICENSE: CC BY-SA
COPYRIGHT: Copyright (C) Eawag 2024
COMMENT: CONFIDENCE standard compound
COMMENT: UCHEM_ID 10695
CH$NAME: Lumiracoxib
CH$NAME: 2-[2-(2-chloro-6-fluoroanilino)-5-methylphenyl]acetic acid
CH$COMPOUND_CLASS: N/A
CH$FORMULA: C15H13ClFNO2
CH$EXACT_MASS: 293.0618846
CH$SMILES: CC1=CC(=C(C=C1)NC2=C(C=CC=C2Cl)F)CC(=O)O
CH$IUPAC: InChI=1S/C15H13ClFNO2/c1-9-5-6-13(10(7-9)8-14(19)20)18-15-11(16)3-2-4-12(15)17/h2-7,18H,8H2,1H3,(H,19,20)
CH$LINK: CAS 220991-20-8
CH$LINK: CHEBI CHEBI:73044
CH$LINK: KEGG D03714
CH$LINK: PUBCHEM CID:151166
CH$LINK: INCHIKEY KHPKQFYUPIUARC-UHFFFAOYSA-N
CH$LINK: CHEMSPIDER 133236
AC$INSTRUMENT: Exploris 240 Thermo Scientific
AC$INSTRUMENT_TYPE: LC-ESI-QFT
AC$MASS_SPECTROMETRY: MS_TYPE MS2
AC$MASS_SPECTROMETRY: ION_MODE POSITIVE
AC$MASS_SPECTROMETRY: IONIZATION ESI
AC$MASS_SPECTROMETRY: FRAGMENTATION_MODE HCD
AC$MASS_SPECTROMETRY: COLLISION_ENERGY 15 % (nominal)
AC$MASS_SPECTROMETRY: RESOLUTION 15000
AC$MASS_SPECTROMETRY: MASS_RANGE_M/Z 50-321
AC$CHROMATOGRAPHY: COLUMN_NAME XBridge C18 3.5um, 2.1x50mm, Waters
AC$CHROMATOGRAPHY: FLOW_GRADIENT 90/10 at 0 min, 50/50 at 4 min, 5/95 at 17 min, 5/95 at 25 min, 90/10 at 25.1 min, 90/10 at 30 min
AC$CHROMATOGRAPHY: FLOW_RATE 200 uL/min
AC$CHROMATOGRAPHY: RETENTION_TIME 11.419 min
MS$FOCUSED_ION: BASE_PEAK 294.0693
MS$FOCUSED_ION: PRECURSOR_M/Z 294.0692
MS$FOCUSED_ION: PRECURSOR_TYPE [M+H]+
MS$DATA_PROCESSING: RECALIBRATE loess on assigned fragments and MS1
MS$DATA_PROCESSING: REANALYZE Peaks with additional N2/O included
MS$DATA_PROCESSING: WHOLE RMassBank 3.15.1.1
PK$SPLASH: splash10-002g-0090000000-88a1460c2c5695690e19
PK$ANNOTATION: m/z tentative_formula formula_count mass error(ppm)
  248.0637 C14H12ClFN+ 1 248.0637 0.25
  276.0588 C15H12ClFNO+ 1 276.0586 0.82
  294.0694 C15H14ClFNO2+ 1 294.0692 0.85
PK$NUM_PEAK: 3
PK$PEAK: m/z int. rel.int.
  248.0637 34866568 762
  276.0588 38176036 835
  294.0694 45663048 999
//
