ACCESSION: MSBNK-Eawag-EQ310501
RECORD_TITLE: Tenofovir; LC-ESI-QFT; MS2; CE: 15; R=35000; [M+H]+
DATE: 2015.08.25
AUTHORS: Beck B, Stravs M, Schymanski E, Singer H, Department of Environmental Chemistry, Eawag
LICENSE: CC BY
COPYRIGHT: Copyright (C) 2015 Eawag, Duebendorf, Switzerland
COMMENT: CONFIDENCE standard compound
COMMENT: EAWAG_UCHEM_ID 3105
CH$NAME: Tenofovir
CH$NAME: [(1R)-2-adenin-9-yl-1-methyl-ethoxy]methylphosphonic acid
CH$COMPOUND_CLASS: N/A; Environmental Standard
CH$FORMULA: C9H14N5O4P
CH$EXACT_MASS: 287.07834
CH$SMILES: O=P(O)(O)CO[C@H](C)Cn1c2ncnc(c2nc1)N
CH$IUPAC: InChI=1S/C9H14N5O4P/c1-6(18-5-19(15,16)17)2-14-4-13-7-8(10)11-3-12-9(7)14/h3-4,6H,2,5H2,1H3,(H2,10,11,12)(H2,15,16,17)/t6-/m1/s1
CH$LINK: CAS 147127-20-6
CH$LINK: PUBCHEM CID:464205
CH$LINK: INCHIKEY SGOIRFVFHAKUTI-ZCFIWIBFSA-N
CH$LINK: CHEMSPIDER 408154
CH$LINK: COMPTOX DTXSID9040132
AC$INSTRUMENT: Q Exactive Orbitrap Thermo Scientific
AC$INSTRUMENT_TYPE: LC-ESI-QFT
AC$MASS_SPECTROMETRY: MS_TYPE MS2
AC$MASS_SPECTROMETRY: ION_MODE POSITIVE
AC$MASS_SPECTROMETRY: IONIZATION ESI
AC$MASS_SPECTROMETRY: FRAGMENTATION_MODE HCD
AC$MASS_SPECTROMETRY: COLLISION_ENERGY 15 (nominal)
AC$MASS_SPECTROMETRY: RESOLUTION 35000
AC$CHROMATOGRAPHY: COLUMN_NAME XBridge C18 3.5um, 2.1x50mm, Waters
AC$CHROMATOGRAPHY: FLOW_GRADIENT 90/10 at 0 min, 50/50 at 4 min, 5/95 at 17 min, 5/95 at 25 min, 90/10 at 25.1 min, 90/10 at 30 min
AC$CHROMATOGRAPHY: FLOW_RATE 200 ul/min
AC$CHROMATOGRAPHY: RETENTION_TIME 1.0 min
AC$CHROMATOGRAPHY: SOLVENT A water with 0.1% formic acid
AC$CHROMATOGRAPHY: SOLVENT B methanol with 0.1% formic acid
MS$FOCUSED_ION: BASE_PEAK 157.0352
MS$FOCUSED_ION: PRECURSOR_M/Z 288.0856
MS$FOCUSED_ION: PRECURSOR_TYPE [M+H]+
MS$DATA_PROCESSING: DEPROFILE Spline
MS$DATA_PROCESSING: RECALIBRATE loess on assigned fragments and MS1
MS$DATA_PROCESSING: REANALYZE Peaks with additional N2/O included
MS$DATA_PROCESSING: WHOLE RMassBank 1.9.6
PK$SPLASH: splash10-000i-0090000000-e85e6b9ea88e6c214687
PK$ANNOTATION: m/z tentative_formula formula_count mass error(ppm)
  136.0613 C5H6N5+ 1 136.0618 -3.39
  176.093 C8H10N5+ 1 176.0931 -0.63
  206.1039 C9H12N5O+ 1 206.1036 1.28
  270.0753 C9H13N5O3P+ 1 270.0751 0.77
  288.0855 C9H15N5O4P+ 1 288.0856 -0.37
PK$NUM_PEAK: 5
PK$PEAK: m/z int. rel.int.
  136.0613 370565.2 3
  176.093 931596.6 8
  206.1039 261747.6 2
  270.0753 883576.1 7
  288.0855 115667375.2 999
//
