ACCESSION: MSBNK-Eawag-EQ371303
RECORD_TITLE: Malaoxon; LC-ESI-QFT; MS2; CE: 45; R=35000; [M+H]+
DATE: 2015.08.25
AUTHORS: Stravs M, Schymanski E, Singer H, Department of Environmental Chemistry, Eawag and Thomaidis N, University of Athens
LICENSE: CC BY
COPYRIGHT: Copyright (C) 2015 Eawag, Duebendorf, Switzerland
COMMENT: CONFIDENCE standard compound
COMMENT: EAWAG_UCHEM_ID 3713
CH$NAME: Malaoxon
CH$NAME: Diethyl 2-dimethoxyphosphorylsulfanylbutanedioate
CH$COMPOUND_CLASS: N/A; Environmental Standard
CH$FORMULA: C10H19O7PS
CH$EXACT_MASS: 314.05891
CH$SMILES: CCOC(=O)CC(C(=O)OCC)SP(=O)(OC)OC
CH$IUPAC: InChI=1S/C10H19O7PS/c1-5-16-9(11)7-8(10(12)17-6-2)19-18(13,14-3)15-4/h8H,5-7H2,1-4H3
CH$LINK: CAS 1634-78-2
CH$LINK: CHEBI CHEBI:6649
CH$LINK: KEGG C07498
CH$LINK: PUBCHEM CID:15415
CH$LINK: INCHIKEY WSORODGWGUUOBO-UHFFFAOYSA-N
CH$LINK: CHEMSPIDER 14674
CH$LINK: COMPTOX DTXSID9020790
AC$INSTRUMENT: Q Exactive Plus Orbitrap Thermo Scientific
AC$INSTRUMENT_TYPE: LC-ESI-QFT
AC$MASS_SPECTROMETRY: MS_TYPE MS2
AC$MASS_SPECTROMETRY: ION_MODE POSITIVE
AC$MASS_SPECTROMETRY: IONIZATION ESI
AC$MASS_SPECTROMETRY: FRAGMENTATION_MODE HCD
AC$MASS_SPECTROMETRY: COLLISION_ENERGY 45 (nominal)
AC$MASS_SPECTROMETRY: RESOLUTION 35000
AC$CHROMATOGRAPHY: COLUMN_NAME XBridge C18 3.5um, 2.1x50mm, Waters
AC$CHROMATOGRAPHY: FLOW_GRADIENT 90/10 at 0 min, 50/50 at 4 min, 5/95 at 17 min, 5/95 at 25 min, 90/10 at 25.1 min, 90/10 at 30 min
AC$CHROMATOGRAPHY: FLOW_RATE 200 ul/min
AC$CHROMATOGRAPHY: RETENTION_TIME 7.1 min
AC$CHROMATOGRAPHY: SOLVENT A water with 0.1% formic acid
AC$CHROMATOGRAPHY: SOLVENT B methanol with 0.1% formic acid
MS$FOCUSED_ION: BASE_PEAK 315.0654
MS$FOCUSED_ION: PRECURSOR_M/Z 315.0662
MS$FOCUSED_ION: PRECURSOR_TYPE [M+H]+
MS$DATA_PROCESSING: RECALIBRATE loess on assigned fragments and MS1
MS$DATA_PROCESSING: REANALYZE Peaks with additional N2/O included
MS$DATA_PROCESSING: WHOLE RMassBank 1.9.6
PK$SPLASH: splash10-0002-9200000000-5f8da96f7a4bd6c28f2d
PK$ANNOTATION: m/z tentative_formula formula_count mass error(ppm)
  53.0021 C3HO+ 1 53.0022 -0.96
  55.0179 C3H3O+ 1 55.0178 0.16
  71.0127 C3H3O2+ 1 71.0128 -0.5
  99.0076 C4H3O3+ 1 99.0077 -0.61
  110.9664 CH4O2PS+ 1 110.9664 -0.03
  113.0233 C5H5O3+ 1 113.0233 -0.18
  117.0182 C4H5O4+ 1 117.0182 -0.3
  124.9821 C2H6O2PS+ 1 124.9821 -0.03
  127.0154 C2H8O4P+ 1 127.0155 -0.25
  127.039 C6H7O3+ 1 127.039 0
  128.9769 CH6O3PS+ 1 128.977 -0.53
  142.9927 C2H8O3PS+ 1 142.9926 0.22
  145.0496 C6H9O4+ 1 145.0495 0.1
  171.0238 C4H12O3PS+ 1 171.0239 -0.63
  194.9875 C5H8O4PS+ 1 194.9875 0.04
PK$NUM_PEAK: 15
PK$PEAK: m/z int. rel.int.
  53.0021 127073.4 1
  55.0179 273570.8 3
  71.0127 1565966 18
  99.0076 86356704 999
  110.9664 476133.7 5
  113.0233 876796.6 10
  117.0182 2369424.5 27
  124.9821 1173968 13
  127.0154 1120591.9 12
  127.039 7171172.5 82
  128.9769 1525804.6 17
  142.9927 5583958.5 64
  145.0496 716786.4 8
  171.0238 237076.4 2
  194.9875 997580.6 11
//
