ACCESSION: MSBNK-Eawag-EQ311802
RECORD_TITLE: Triflumuron; LC-ESI-QFT; MS2; CE: 30; R=35000; [M+H]+
DATE: 2015.08.25
AUTHORS: Beck B, Stravs M, Schymanski E, Singer H, Department of Environmental Chemistry, Eawag
LICENSE: CC BY
COPYRIGHT: Copyright (C) 2015 Eawag, Duebendorf, Switzerland
COMMENT: CONFIDENCE standard compound
COMMENT: EAWAG_UCHEM_ID 3118
CH$NAME: Triflumuron
CH$NAME: 2-chloranyl-N-[[4-(trifluoromethyloxy)phenyl]carbamoyl]benzamide
CH$COMPOUND_CLASS: N/A; Environmental Standard
CH$FORMULA: C15H10ClF3N2O3
CH$EXACT_MASS: 358.03320
CH$SMILES: O=C(c1ccccc1Cl)NC(=O)Nc2ccc(OC(F)(F)F)cc2
CH$IUPAC: InChI=1S/C15H10ClF3N2O3/c16-12-4-2-1-3-11(12)13(22)21-14(23)20-9-5-7-10(8-6-9)24-15(17,18)19/h1-8H,(H2,20,21,22,23)
CH$LINK: CAS 64628-44-0
CH$LINK: PUBCHEM CID:47445
CH$LINK: INCHIKEY XAIPTRIXGHTTNT-UHFFFAOYSA-N
CH$LINK: CHEMSPIDER 43172
CH$LINK: COMPTOX DTXSID5034355
AC$INSTRUMENT: Q Exactive Orbitrap Thermo Scientific
AC$INSTRUMENT_TYPE: LC-ESI-QFT
AC$MASS_SPECTROMETRY: MS_TYPE MS2
AC$MASS_SPECTROMETRY: ION_MODE POSITIVE
AC$MASS_SPECTROMETRY: IONIZATION ESI
AC$MASS_SPECTROMETRY: FRAGMENTATION_MODE HCD
AC$MASS_SPECTROMETRY: COLLISION_ENERGY 30 (nominal)
AC$MASS_SPECTROMETRY: RESOLUTION 35000
AC$CHROMATOGRAPHY: COLUMN_NAME XBridge C18 3.5um, 2.1x50mm, Waters
AC$CHROMATOGRAPHY: FLOW_GRADIENT 90/10 at 0 min, 50/50 at 4 min, 5/95 at 17 min, 5/95 at 25 min, 90/10 at 25.1 min, 90/10 at 30 min
AC$CHROMATOGRAPHY: FLOW_RATE 200 ul/min
AC$CHROMATOGRAPHY: RETENTION_TIME 13.8 min
AC$CHROMATOGRAPHY: SOLVENT A water with 0.1% formic acid
AC$CHROMATOGRAPHY: SOLVENT B methanol with 0.1% formic acid
MS$FOCUSED_ION: BASE_PEAK 359.0407
MS$FOCUSED_ION: PRECURSOR_M/Z 359.0405
MS$FOCUSED_ION: PRECURSOR_TYPE [M+H]+
MS$DATA_PROCESSING: DEPROFILE Spline
MS$DATA_PROCESSING: RECALIBRATE loess on assigned fragments and MS1
MS$DATA_PROCESSING: REANALYZE Peaks with additional N2/O included
MS$DATA_PROCESSING: WHOLE RMassBank 1.9.6
PK$SPLASH: splash10-0a4i-0900000000-3af074d6b6b81a2c0067
PK$ANNOTATION: m/z tentative_formula formula_count mass error(ppm)
  75.0229 C6H3+ 1 75.0229 -0.62
  95.0492 C6H7O+ 2 95.0491 0.3
  110.9993 C6H4Cl+ 2 110.9996 -2.47
  113.0152 C6H6Cl+ 2 113.0153 -0.39
  138.0109 C7H5ClN+ 2 138.0105 2.73
  138.9945 C7H4ClO+ 3 138.9945 -0.28
  156.0211 C7H7ClNO+ 3 156.0211 0.46
  178.0474 C7H7F3NO+ 2 178.0474 -0.25
  359.0408 C15H11ClF3N2O3+ 1 359.0405 0.89
PK$NUM_PEAK: 9
PK$PEAK: m/z int. rel.int.
  75.0229 306815.8 1
  95.0492 361374.5 1
  110.9993 327392.6 1
  113.0152 5377531.9 19
  138.0109 558492.4 2
  138.9945 58122836 208
  156.0211 277924061.6 999
  178.0474 5661194.4 20
  359.0408 537526.9 1
//
