ACCESSION: MSBNK-Eawag-EA267001
RECORD_TITLE: Atenolol-desisopropyl; LC-ESI-ITFT; MS2; CE: 35%; R=7500; [M+H]+
DATE: 2014.01.14
AUTHORS: Stravs M, Schymanski E, Singer H, Department of Environmental Chemistry, Eawag
LICENSE: CC BY
COPYRIGHT: Copyright (C) 2012 Eawag, Duebendorf, Switzerland
COMMENT: CONFIDENCE standard compound
COMMENT: EAWAG_UCHEM_ID 2670
CH$NAME: Atenolol-desisopropyl
CH$NAME: 4-(3-Amino-2-hydroxypropoxy)phenylacetamide
CH$COMPOUND_CLASS: N/A; Environmental Standard
CH$FORMULA: C11H16N2O3
CH$EXACT_MASS: 224.1161
CH$SMILES: c1cc(ccc1CC(=O)N)OCC(CN)O
CH$IUPAC: InChI=1S/C11H16N2O3/c12-6-9(14)7-16-10-3-1-8(2-4-10)5-11(13)15/h1-4,9,14H,5-7,12H2,(H2,13,15)
CH$LINK: CAS 81346-71-6
CH$LINK: PUBCHEM CID:14211540
CH$LINK: INCHIKEY UWMXVJVTKRSOPW-UHFFFAOYSA-N
CH$LINK: CHEMSPIDER 21896503
CH$LINK: COMPTOX DTXSID10557479
AC$INSTRUMENT: LTQ Orbitrap XL Thermo Scientific
AC$INSTRUMENT_TYPE: LC-ESI-ITFT
AC$MASS_SPECTROMETRY: MS_TYPE MS2
AC$MASS_SPECTROMETRY: ION_MODE POSITIVE
AC$MASS_SPECTROMETRY: IONIZATION ESI
AC$MASS_SPECTROMETRY: FRAGMENTATION_MODE CID
AC$MASS_SPECTROMETRY: COLLISION_ENERGY 35 % (nominal)
AC$MASS_SPECTROMETRY: RESOLUTION 7500
AC$CHROMATOGRAPHY: COLUMN_NAME XBridge C18 3.5um, 2.1x50mm, Waters
AC$CHROMATOGRAPHY: FLOW_GRADIENT 90/10 at 0 min, 50/50 at 4 min, 5/95 at 17 min, 5/95 at 25 min, 90/10 at 25.1 min, 90/10 at 30 min
AC$CHROMATOGRAPHY: FLOW_RATE 200 ul/min
AC$CHROMATOGRAPHY: RETENTION_TIME 1.0 min
AC$CHROMATOGRAPHY: SOLVENT A water with 0.1% formic acid
AC$CHROMATOGRAPHY: SOLVENT B methanol with 0.1% formic acid
MS$FOCUSED_ION: BASE_PEAK 225.124
MS$FOCUSED_ION: PRECURSOR_M/Z 225.1234
MS$FOCUSED_ION: PRECURSOR_TYPE [M+H]+
MS$DATA_PROCESSING: DEPROFILE Spline
MS$DATA_PROCESSING: RECALIBRATE loess on assigned fragments and MS1
MS$DATA_PROCESSING: REANALYZE Peaks with additional N2/O included
MS$DATA_PROCESSING: WHOLE RMassBank 1.3.1
PK$SPLASH: splash10-0a4l-1970000000-5efb9e968dc1593353ff
PK$ANNOTATION: m/z tentative_formula formula_count mass error(ppm)
  74.0601 C3H8NO+ 1 74.06 1.35
  145.0649 C10H9O+ 1 145.0648 0.61
  152.0706 C8H10NO2+ 1 152.0706 -0.16
  162.0915 C10H12NO+ 1 162.0913 1.05
  163.0761 C10H11O2+ 1 163.0754 4.81
  164.0704 C9H10NO2+ 1 164.0706 -0.94
  173.0599 C11H9O2+ 1 173.0597 0.95
  178.0863 C10H12NO2+ 1 178.0863 0.36
  180.102 C10H14NO2+ 1 180.1019 0.75
  190.0865 C11H12NO2+ 1 190.0863 1.29
  207.1125 C11H15N2O2+ 1 207.1128 -1.47
  208.0971 C11H14NO3+ 1 208.0968 1.54
PK$NUM_PEAK: 12
PK$PEAK: m/z int. rel.int.
  74.0601 331997.4 198
  145.0649 72870.9 43
  152.0706 10893.7 6
  162.0915 198750.4 118
  163.0761 8906.7 5
  164.0704 7534.4 4
  173.0599 47184.1 28
  178.0863 124660.5 74
  180.102 292129.8 174
  190.0865 1367325.1 818
  207.1125 17728.8 10
  208.0971 1669164.4 999
//
