ACCESSION: MSBNK-Eawag-EQ363551
RECORD_TITLE: Topiramate; LC-ESI-QFT; MS2; CE: 15; R=35000; [M-H]-
DATE: 2015.08.26
AUTHORS: Stravs M, Schymanski E, Singer H, Department of Environmental Chemistry, Eawag and Thomaidis N, University of Athens
LICENSE: CC BY
COPYRIGHT: Copyright (C) 2015 Eawag, Duebendorf, Switzerland
COMMENT: CONFIDENCE standard compound
COMMENT: EAWAG_UCHEM_ID 3635
CH$NAME: Topiramate
CH$NAME: Topamax
CH$NAME: (2,2,7,7-tetramethyl-5,5a,8a,8b-tetrahydrodi[1,3]dioxolo[4,5-a:5`,3`-d]pyran-3a-yl)methyl sulfamate
CH$COMPOUND_CLASS: N/A; Environmental Standard
CH$FORMULA: C12H21NO8S
CH$EXACT_MASS: 339.09879
CH$SMILES: CC1(OC2COC3(C(C2O1)OC(O3)(C)C)COS(=O)(=O)N)C
CH$IUPAC: InChI=1S/C12H21NO8S/c1-10(2)18-7-5-16-12(6-17-22(13,14)15)9(8(7)19-10)20-11(3,4)21-12/h7-9H,5-6H2,1-4H3,(H2,13,14,15)
CH$LINK: CAS 97240-79-4
CH$LINK: PUBCHEM CID:5514
CH$LINK: INCHIKEY KJADKKWYZYXHBB-UHFFFAOYSA-N
CH$LINK: CHEMSPIDER 5313
AC$INSTRUMENT: Q Exactive Plus Orbitrap Thermo Scientific
AC$INSTRUMENT_TYPE: LC-ESI-QFT
AC$MASS_SPECTROMETRY: MS_TYPE MS2
AC$MASS_SPECTROMETRY: ION_MODE NEGATIVE
AC$MASS_SPECTROMETRY: IONIZATION ESI
AC$MASS_SPECTROMETRY: FRAGMENTATION_MODE HCD
AC$MASS_SPECTROMETRY: COLLISION_ENERGY 15 (nominal)
AC$MASS_SPECTROMETRY: RESOLUTION 35000
AC$CHROMATOGRAPHY: COLUMN_NAME XBridge C18 3.5um, 2.1x50mm, Waters
AC$CHROMATOGRAPHY: FLOW_GRADIENT 90/10 at 0 min, 50/50 at 4 min, 5/95 at 17 min, 5/95 at 25 min, 90/10 at 25.1 min, 90/10 at 30 min
AC$CHROMATOGRAPHY: FLOW_RATE 200 ul/min
AC$CHROMATOGRAPHY: RETENTION_TIME 6.1 min
AC$CHROMATOGRAPHY: SOLVENT A water with 0.1% formic acid
AC$CHROMATOGRAPHY: SOLVENT B methanol with 0.1% formic acid
MS$FOCUSED_ION: BASE_PEAK 338.0915
MS$FOCUSED_ION: PRECURSOR_M/Z 338.0915
MS$FOCUSED_ION: PRECURSOR_TYPE [M-H]-
MS$DATA_PROCESSING: RECALIBRATE loess on assigned fragments and MS1
MS$DATA_PROCESSING: REANALYZE Peaks with additional N2/O included
MS$DATA_PROCESSING: WHOLE RMassBank 1.9.6
PK$SPLASH: splash10-000i-0009000000-5853ccabf8d8c86d3d9c
PK$ANNOTATION: m/z tentative_formula formula_count mass error(ppm)
  77.9655 NO2S- 1 77.9655 -0.29
  95.976 H2NO3S- 1 95.9761 -1.33
  280.05 C9H14NO7S- 1 280.0496 1.23
  338.0919 C12H20NO8S- 1 338.0915 1.06
PK$NUM_PEAK: 4
PK$PEAK: m/z int. rel.int.
  77.9655 660921.1 13
  95.976 222840.3 4
  280.05 107938 2
  338.0919 50101600 999
//
