ACCESSION: MSBNK-Eawag-EQ418402
RECORD_TITLE: Fluxapyroxad (BAS 700 F)-TP CSAA798670; LC-ESI-QFT; MS2; CE: 30%; R=17500; [M+H]+
DATE: 2019.12.03
AUTHORS: K. Kiefer [dtc], J. Hollender [dtc], H. Singer [dtc], M. Stravs [com]
LICENSE: CC BY-SA
COPYRIGHT: Copyright (C) Eawag 2019
PUBLICATION: Kiefer, K.; Mueller, A.; Singer, H.; Hollender, J. New relevant pesticide transformation products in groundwater detected using target and suspect screening for agricultural and urban micropollutants with LC-HRMS. Water Research 2019, 165. DOI: https://doi.org/10.1016/j.watres.2019.114972
COMMENT: CONFIDENCE standard compound
COMMENT: UCHEM_ID 4184
CH$NAME: Fluxapyroxad (BAS 700 F)-TP CSAA798670
CH$NAME: 3-(Difluoromethyl)-1-methyl-1H-pyrazole-4-carboxylic acid
CH$NAME: 3-(difluoromethyl)-1-methylpyrazole-4-carboxylic acid
CH$COMPOUND_CLASS: N/A; Environmental Standard
CH$FORMULA: C6H6F2N2O2
CH$EXACT_MASS: 176.0397
CH$SMILES: CN1C=C(C(O)=O)C(=N1)C(F)F
CH$IUPAC: InChI=1S/C6H6F2N2O2/c1-10-2-3(6(11)12)4(9-10)5(7)8/h2,5H,1H3,(H,11,12)
CH$LINK: CAS 176969-34-9
CH$LINK: PUBCHEM CID:18983008
CH$LINK: INCHIKEY RLOHOBNEYHBZID-UHFFFAOYSA-N
CH$LINK: CHEMSPIDER 14177094
AC$INSTRUMENT: Q Exactive Plus Orbitrap Thermo Scientific
AC$INSTRUMENT_TYPE: LC-ESI-QFT
AC$MASS_SPECTROMETRY: MS_TYPE MS2
AC$MASS_SPECTROMETRY: ION_MODE POSITIVE
AC$MASS_SPECTROMETRY: IONIZATION ESI
AC$MASS_SPECTROMETRY: FRAGMENTATION_MODE HCD
AC$MASS_SPECTROMETRY: COLLISION_ENERGY 30 % (nominal)
AC$MASS_SPECTROMETRY: RESOLUTION 17500
AC$CHROMATOGRAPHY: COLUMN_NAME XBridge C18 3.5um, 2.1x50mm, Waters
AC$CHROMATOGRAPHY: FLOW_GRADIENT 90/10 at 0 min, 50/50 at 4 min, 5/95 at 17 min, 5/95 at 25 min, 90/10 at 25.1 min, 90/10 at 30 min
AC$CHROMATOGRAPHY: FLOW_RATE 200 uL/min
AC$CHROMATOGRAPHY: RETENTION_TIME 2.916 min
AC$CHROMATOGRAPHY: SOLVENT A water with 0.1% formic acid
AC$CHROMATOGRAPHY: SOLVENT B MeOH with 0.1% formic acid
MS$FOCUSED_ION: BASE_PEAK 177.047
MS$FOCUSED_ION: PRECURSOR_M/Z 177.047
MS$FOCUSED_ION: PRECURSOR_TYPE [M+H]+
MS$DATA_PROCESSING: RECALIBRATE loess on assigned fragments and MS1
MS$DATA_PROCESSING: REANALYZE Peaks with additional N2/O included
MS$DATA_PROCESSING: WHOLE RMassBank 2.99.1
PK$SPLASH: splash10-002r-0900000000-875a7a519ebb5dd4cead
PK$ANNOTATION: m/z tentative_formula formula_count mass error(ppm)
  109.0394 C5H5N2O+ 1 109.0396 -1.92
  113.0508 C5H6FN2+ 1 113.051 -1.31
  137.0346 C6H5N2O2+ 1 137.0346 0.01
  157.0408 C6H6FN2O2+ 1 157.0408 -0.09
  177.047 C6H7F2N2O2+ 1 177.047 -0.12
PK$NUM_PEAK: 7
PK$PEAK: m/z int. rel.int.
  109.0394 181904.1 1
  113.0508 436488 3
  137.0346 111397816 999
  155.0451 19550310 175
  157.0408 6399291 57
  169.0608 385662.8 3
  177.047 62043844 556
//
