ACCESSION: MSBNK-Eawag-EQ00293604
RECORD_TITLE: Iprovalicarb; LC-ESI-QFT; MS2; CE: 60%; R=15000; [M+H]+
DATE: 2024.06.14
AUTHORS: F. Jud [dtc], K. Arturi [dtc], J. Hollender [dtc], A. Dax [com]
LICENSE: CC BY-SA
COPYRIGHT: Copyright (C) Eawag 2024
COMMENT: CONFIDENCE standard compound
COMMENT: UCHEM_ID 2936
CH$NAME: Iprovalicarb
CH$NAME: Isopropyl (3-methyl-1-{[1-(4-methylphenyl)ethyl]amino}-1-oxobutan-2-yl)carbamate
CH$NAME: propan-2-yl N-[3-methyl-1-[1-(4-methylphenyl)ethylamino]-1-oxobutan-2-yl]carbamate
CH$COMPOUND_CLASS: N/A
CH$FORMULA: C18H28N2O3
CH$EXACT_MASS: 320.2099928
CH$SMILES: CC1=CC=C(C=C1)C(C)NC(=O)C(C(C)C)NC(=O)OC(C)C
CH$IUPAC: InChI=1S/C18H28N2O3/c1-11(2)16(20-18(22)23-12(3)4)17(21)19-14(6)15-9-7-13(5)8-10-15/h7-12,14,16H,1-6H3,(H,19,21)(H,20,22)
CH$LINK: CAS 140923-17-7
CH$LINK: CHEBI CHEBI:83593
CH$LINK: PUBCHEM CID:6914821
CH$LINK: INCHIKEY NWUWYYSKZYIQAE-UHFFFAOYSA-N
CH$LINK: CHEMSPIDER 5290696
AC$INSTRUMENT: Exploris 240 Thermo Scientific
AC$INSTRUMENT_TYPE: LC-ESI-QFT
AC$MASS_SPECTROMETRY: MS_TYPE MS2
AC$MASS_SPECTROMETRY: ION_MODE POSITIVE
AC$MASS_SPECTROMETRY: IONIZATION ESI
AC$MASS_SPECTROMETRY: FRAGMENTATION_MODE HCD
AC$MASS_SPECTROMETRY: COLLISION_ENERGY 60 % (nominal)
AC$MASS_SPECTROMETRY: RESOLUTION 15000
AC$MASS_SPECTROMETRY: MASS_RANGE_M/Z 50-349
AC$CHROMATOGRAPHY: COLUMN_NAME XBridge C18 3.5um, 2.1x50mm, Waters
AC$CHROMATOGRAPHY: FLOW_GRADIENT 90/10 at 0 min, 50/50 at 4 min, 5/95 at 17 min, 5/95 at 25 min, 90/10 at 25.1 min, 90/10 at 30 min
AC$CHROMATOGRAPHY: FLOW_RATE 200 uL/min
AC$CHROMATOGRAPHY: RETENTION_TIME 9.865 min
MS$FOCUSED_ION: BASE_PEAK 321.2171
MS$FOCUSED_ION: PRECURSOR_M/Z 321.2173
MS$FOCUSED_ION: PRECURSOR_TYPE [M+H]+
MS$DATA_PROCESSING: RECALIBRATE loess on assigned fragments and MS1
MS$DATA_PROCESSING: REANALYZE Peaks with additional N2/O included
MS$DATA_PROCESSING: WHOLE RMassBank 3.15.1.1
PK$SPLASH: splash10-014i-1900000000-b25e13492709cc6cc8b6
PK$ANNOTATION: m/z tentative_formula formula_count mass error(ppm)
  72.0807 C4H10N+ 1 72.0808 -0.78
  91.0542 C7H7+ 1 91.0542 -0.67
  98.06 C5H8NO+ 1 98.06 -0.07
  116.0705 C5H10NO2+ 1 116.0706 -1.21
  117.0698 C9H9+ 1 117.0699 -0.63
  119.0854 C9H11+ 1 119.0855 -0.77
PK$NUM_PEAK: 6
PK$PEAK: m/z int. rel.int.
  72.0807 5319551 56
  91.0542 6617795.5 70
  98.06 5177844 55
  116.0705 11058672 118
  117.0698 5959269 63
  119.0854 93303536 999
//
