ACCESSION: MSBNK-Eawag-EQ302801
RECORD_TITLE: Tiapride; LC-ESI-QFT; MS2; CE: 15; R=35000; [M+H]+
DATE: 2015.08.25
AUTHORS: Beck B, Stravs M, Schymanski E, Singer H, Department of Environmental Chemistry, Eawag
LICENSE: CC BY
COPYRIGHT: Copyright (C) 2015 Eawag, Duebendorf, Switzerland
COMMENT: CONFIDENCE standard compound
COMMENT: EAWAG_UCHEM_ID 3028
CH$NAME: Tiapride
CH$NAME: N-(2-diethylaminoethyl)-2-methoxy-5-methylsulfonyl-benzamide
CH$COMPOUND_CLASS: N/A; Environmental Standard
CH$FORMULA: C15H24N2O4S
CH$EXACT_MASS: 328.14568
CH$SMILES: CCN(CC)CCNC(=O)C1=C(C=CC(=C1)S(=O)(=O)C)OC
CH$IUPAC: InChI=1S/C15H24N2O4S/c1-5-17(6-2)10-9-16-15(18)13-11-12(22(4,19)20)7-8-14(13)21-3/h7-8,11H,5-6,9-10H2,1-4H3,(H,16,18)
CH$LINK: CAS 51012-32-9
CH$LINK: PUBCHEM CID:5467
CH$LINK: INCHIKEY JTVPZMFULRWINT-UHFFFAOYSA-N
CH$LINK: CHEMSPIDER 5268
CH$LINK: COMPTOX DTXSID0023664
AC$INSTRUMENT: Q Exactive Orbitrap Thermo Scientific
AC$INSTRUMENT_TYPE: LC-ESI-QFT
AC$MASS_SPECTROMETRY: MS_TYPE MS2
AC$MASS_SPECTROMETRY: ION_MODE POSITIVE
AC$MASS_SPECTROMETRY: IONIZATION ESI
AC$MASS_SPECTROMETRY: FRAGMENTATION_MODE HCD
AC$MASS_SPECTROMETRY: COLLISION_ENERGY 15 (nominal)
AC$MASS_SPECTROMETRY: RESOLUTION 35000
AC$CHROMATOGRAPHY: COLUMN_NAME XBridge C18 3.5um, 2.1x50mm, Waters
AC$CHROMATOGRAPHY: FLOW_GRADIENT 90/10 at 0 min, 50/50 at 4 min, 5/95 at 17 min, 5/95 at 25 min, 90/10 at 25.1 min, 90/10 at 30 min
AC$CHROMATOGRAPHY: FLOW_RATE 200 ul/min
AC$CHROMATOGRAPHY: RETENTION_TIME 2.6 min
AC$CHROMATOGRAPHY: SOLVENT A water with 0.1% formic acid
AC$CHROMATOGRAPHY: SOLVENT B methanol with 0.1% formic acid
MS$FOCUSED_ION: BASE_PEAK 329.1529
MS$FOCUSED_ION: PRECURSOR_M/Z 329.153
MS$FOCUSED_ION: PRECURSOR_TYPE [M+H]+
MS$DATA_PROCESSING: DEPROFILE Spline
MS$DATA_PROCESSING: RECALIBRATE loess on assigned fragments and MS1
MS$DATA_PROCESSING: REANALYZE Peaks with additional N2/O included
MS$DATA_PROCESSING: WHOLE RMassBank 1.9.6
PK$SPLASH: splash10-004i-0009000000-da514094cabb39732203
PK$ANNOTATION: m/z tentative_formula formula_count mass error(ppm)
  74.0964 C4H12N+ 1 74.0964 -0.89
  212.0379 C9H10NO3S+ 2 212.0376 1.32
  250.1663 C14H22N2O2+ 1 250.1676 -4.99
  256.0637 C11H14NO4S+ 1 256.0638 -0.37
  329.1528 C15H25N2O4S+ 1 329.153 -0.56
PK$NUM_PEAK: 5
PK$PEAK: m/z int. rel.int.
  74.0964 1303558.9 4
  212.0379 333536.2 1
  250.1663 893047.2 2
  256.0637 32225162.7 104
  329.1528 308102434.8 999
//
