ACCESSION: MSBNK-Eawag-EQ00312107
RECORD_TITLE: 5-Fluorocytosine; LC-ESI-QFT; MS2; CE: 120%; R=17500; [M+H]+
DATE: 2024.05.08
AUTHORS: C. Meyer [dtc], B. Beck [dtc,com], J. Hollender [dtc]
LICENSE: CC BY-SA
COPYRIGHT: Copyright (C) Eawag 2023
PUBLICATION: Meyer, C., Stravs, M., Hollender, J.. How Wastewater Reflects Human Metabolism - Suspect Screening of Pharmaceutical Metabolites in Wastewater Influent. doi:10.1021/acs.est.4c00968
COMMENT: CONFIDENCE standard compound
COMMENT: UCHEM_ID 3121
CH$NAME: 5-Fluorocytosine
CH$NAME: Flucytosine
CH$NAME: 6-amino-5-fluoro-1H-pyrimidin-2-one
CH$COMPOUND_CLASS: N/A; Environmental Standard
CH$FORMULA: C4H4FN3O
CH$EXACT_MASS: 129.03384
CH$SMILES: C1=NC(=O)NC(=C1F)N
CH$IUPAC: InChI=1S/C4H4FN3O/c5-2-1-7-4(9)8-3(2)6/h1H,(H3,6,7,8,9)
CH$LINK: CHEBI CHEBI:5100
CH$LINK: PUBCHEM CID:3366
CH$LINK: INCHIKEY XRECTZIEBJDKEO-UHFFFAOYSA-N
CH$LINK: CHEMSPIDER 3249
AC$INSTRUMENT: Exploris 240 Orbitrap Thermo Scientific
AC$INSTRUMENT_TYPE: LC-ESI-QFT
AC$MASS_SPECTROMETRY: MS_TYPE MS2
AC$MASS_SPECTROMETRY: ION_MODE POSITIVE
AC$MASS_SPECTROMETRY: IONIZATION ESI
AC$MASS_SPECTROMETRY: FRAGMENTATION_MODE HCD
AC$MASS_SPECTROMETRY: COLLISION_ENERGY 120 % (nominal)
AC$MASS_SPECTROMETRY: RESOLUTION 17500
AC$MASS_SPECTROMETRY: MASS_RANGE_M/Z 40-154
AC$CHROMATOGRAPHY: COLUMN_NAME XBridge C18 3.5um, 2.1x50mm, Waters
AC$CHROMATOGRAPHY: FLOW_GRADIENT 90/10 at 0 min, 50/50 at 4 min, 5/95 at 17 min, 5/95 at 25 min, 90/10 at 25.1 min, 90/10 at 30 min
AC$CHROMATOGRAPHY: FLOW_RATE 200 uL/min
AC$CHROMATOGRAPHY: RETENTION_TIME 0.909 min
MS$FOCUSED_ION: BASE_PEAK 130.041
MS$FOCUSED_ION: PRECURSOR_M/Z 130.0411
MS$FOCUSED_ION: PRECURSOR_TYPE [M+H]+
MS$DATA_PROCESSING: RECALIBRATE loess on assigned fragments and MS1
MS$DATA_PROCESSING: REANALYZE Peaks with additional N2/O included
MS$DATA_PROCESSING: WHOLE RMassBank 3.15.1
PK$SPLASH: splash10-08g0-9500000000-dd4e4ca3eb15e9e34710
PK$ANNOTATION: m/z tentative_formula formula_count mass error(ppm)
  43.029 CH3N2+ 1 43.0291 -2.88
  48.0244 CH3FN+ 1 48.0244 0.63
  56.013 C2H2NO+ 1 56.0131 -0.78
  58.0087 C2HFN+ 1 58.0088 -0.67
  60.0244 C2H3FN+ 1 60.0244 -0.7
  65.0134 C3HN2+ 1 65.0134 -0.49
  67.029 C3H3N2+ 1 67.0291 -1.12
  69.0083 C2HN2O+ 1 69.0083 -0.95
  70.0087 C3HFN+ 1 70.0088 -0.73
  85.0196 C3H2FN2+ 1 85.0197 -0.54
  87.0353 C3H4FN2+ 1 87.0353 -0.55
  92.0244 C4H2N3+ 1 92.0243 0.31
  112.0305 C4H3FN3+ 1 112.0306 -0.75
  113.0145 C4H2FN2O+ 1 113.0146 -0.53
  130.0411 C4H5FN3O+ 1 130.0411 -0.11
PK$NUM_PEAK: 15
PK$PEAK: m/z int. rel.int.
  43.029 192233.6 10
  48.0244 262019.2 14
  56.013 489840.4 27
  58.0087 14980823 847
  60.0244 3524537.2 199
  65.0134 203882.3 11
  67.029 1481769.5 83
  69.0083 345306.3 19
  70.0087 126785.2 7
  85.0196 10178090 575
  87.0353 4180661.5 236
  92.0244 113935.8 6
  112.0305 2673759.5 151
  113.0145 17663560 999
  130.0411 2336621 132
//
