ACCESSION: MSBNK-Eawag-EQ345601
RECORD_TITLE: N-Nitrosodipropylamine (NDPA); LC-ESI-QFT; MS2; CE: 15; R=70000; [M+H]+
DATE: 2015.08.25
AUTHORS: Beck B, Stravs M, Schymanski E, Singer H, Department of Environmental Chemistry, Eawag
LICENSE: CC BY
COPYRIGHT: Copyright (C) 2015 Eawag, Duebendorf, Switzerland
COMMENT: CONFIDENCE standard compound
COMMENT: EAWAG_UCHEM_ID 3456
CH$NAME: N-Nitrosodipropylamine (NDPA)
CH$NAME: N,N-dipropylnitrous amide
CH$COMPOUND_CLASS: N/A; Environmental Standard
CH$FORMULA: C6H14N2O
CH$EXACT_MASS: 130.11061
CH$SMILES: O=NN(CCC)CCC
CH$IUPAC: InChI=1S/C6H14N2O/c1-3-5-8(7-9)6-4-2/h3-6H2,1-2H3
CH$LINK: CAS 621-64-7
CH$LINK: KEGG C19279
CH$LINK: PUBCHEM CID:12130
CH$LINK: INCHIKEY YLKFDHTUAUWZPQ-UHFFFAOYSA-N
CH$LINK: CHEMSPIDER 11632
CH$LINK: COMPTOX DTXSID6021032
AC$INSTRUMENT: Q Exactive Plus Orbitrap Thermo Scientific
AC$INSTRUMENT_TYPE: LC-ESI-QFT
AC$MASS_SPECTROMETRY: MS_TYPE MS2
AC$MASS_SPECTROMETRY: ION_MODE POSITIVE
AC$MASS_SPECTROMETRY: IONIZATION ESI
AC$MASS_SPECTROMETRY: FRAGMENTATION_MODE HCD
AC$MASS_SPECTROMETRY: COLLISION_ENERGY 15 (nominal)
AC$MASS_SPECTROMETRY: RESOLUTION 70000
AC$CHROMATOGRAPHY: COLUMN_NAME XBridge C18 3.5um, 2.1x50mm, Waters
AC$CHROMATOGRAPHY: FLOW_GRADIENT 90/10 at 0 min, 50/50 at 4 min, 5/95 at 17 min, 5/95 at 25 min, 90/10 at 25.1 min, 90/10 at 30 min
AC$CHROMATOGRAPHY: FLOW_RATE 200 ul/min
AC$CHROMATOGRAPHY: RETENTION_TIME 6.4 min
AC$CHROMATOGRAPHY: SOLVENT A water with 0.1% formic acid
AC$CHROMATOGRAPHY: SOLVENT B methanol with 0.1% formic acid
MS$FOCUSED_ION: BASE_PEAK 131.118
MS$FOCUSED_ION: PRECURSOR_M/Z 131.1179
MS$FOCUSED_ION: PRECURSOR_TYPE [M+H]+
MS$DATA_PROCESSING: RECALIBRATE loess on assigned fragments and MS1
MS$DATA_PROCESSING: REANALYZE Peaks with additional N2/O included
MS$DATA_PROCESSING: WHOLE RMassBank 1.9.6
PK$SPLASH: splash10-0019-9500000000-8c75717e9d0acec7b5fa
PK$ANNOTATION: m/z tentative_formula formula_count mass error(ppm)
  52.0182 C3H2N+ 1 52.0182 0.09
  53.0022 C3HO+ 1 53.0022 -0.02
  53.9974 C2NO+ 1 53.9974 0
  59.0491 C3H7O+ 1 59.0491 -0.36
  67.9893 C3O2+ 1 67.9893 -0.3
  89.0709 C3H9N2O+ 1 89.0709 0.01
  131.118 C6H15N2O+ 1 131.1179 0.54
PK$NUM_PEAK: 7
PK$PEAK: m/z int. rel.int.
  52.0182 8294.4 1
  53.0022 270701 56
  53.9974 45466.6 9
  59.0491 40728.3 8
  67.9893 43270.8 9
  89.0709 4777387.5 999
  131.118 3195213.2 668
//
