ACCESSION: MSBNK-Eawag-EQ418753
RECORD_TITLE: Terbuthylazine-TP MT23 (LM5); LC-ESI-QFT; MS2; CE: 45%; R=17500; [M-H]-
DATE: 2019.12.03
AUTHORS: K. Kiefer [dtc], J. Hollender [dtc], H. Singer [dtc], M. Stravs [com]
LICENSE: CC BY-SA
COPYRIGHT: Copyright (C) Eawag 2019
PUBLICATION: Kiefer, K.; Mueller, A.; Singer, H.; Hollender, J. New relevant pesticide transformation products in groundwater detected using target and suspect screening for agricultural and urban micropollutants with LC-HRMS. Water Research 2019, 165. DOI: https://doi.org/10.1016/j.watres.2019.114972
COMMENT: CONFIDENCE standard compound
COMMENT: UCHEM_ID 4187
CH$NAME: Terbuthylazine-TP MT23 (LM5)
CH$NAME: 6-[(2-Methyl-2-propanyl)amino]-1,3,5-triazine-2,4(1H,3H)-dione
CH$NAME: 6-(tert-butylamino)-1H-1,3,5-triazine-2,4-dione
CH$COMPOUND_CLASS: N/A; Environmental Standard
CH$FORMULA: C7H12N4O2
CH$EXACT_MASS: 184.0960
CH$SMILES: CC(C)(C)NC1=NC(O)=NC(O)=N1
CH$IUPAC: InChI=1S/C7H12N4O2/c1-7(2,3)11-4-8-5(12)10-6(13)9-4/h1-3H3,(H3,8,9,10,11,12,13)
CH$LINK: PUBCHEM CID:582098
CH$LINK: INCHIKEY RMGNIWIYFYKTDC-UHFFFAOYSA-N
CH$LINK: CHEMSPIDER 505953
AC$INSTRUMENT: Q Exactive Plus Orbitrap Thermo Scientific
AC$INSTRUMENT_TYPE: LC-ESI-QFT
AC$MASS_SPECTROMETRY: MS_TYPE MS2
AC$MASS_SPECTROMETRY: ION_MODE NEGATIVE
AC$MASS_SPECTROMETRY: IONIZATION ESI
AC$MASS_SPECTROMETRY: FRAGMENTATION_MODE HCD
AC$MASS_SPECTROMETRY: COLLISION_ENERGY 45 % (nominal)
AC$MASS_SPECTROMETRY: RESOLUTION 17500
AC$CHROMATOGRAPHY: COLUMN_NAME XBridge C18 3.5um, 2.1x50mm, Waters
AC$CHROMATOGRAPHY: FLOW_GRADIENT 90/10 at 0 min, 50/50 at 4 min, 5/95 at 17 min, 5/95 at 25 min, 90/10 at 25.1 min, 90/10 at 30 min
AC$CHROMATOGRAPHY: FLOW_RATE 200 uL/min
AC$CHROMATOGRAPHY: RETENTION_TIME 3.337 min
AC$CHROMATOGRAPHY: SOLVENT A water with 0.1% formic acid
AC$CHROMATOGRAPHY: SOLVENT B MeOH with 0.1% formic acid
MS$FOCUSED_ION: BASE_PEAK 183.0886
MS$FOCUSED_ION: PRECURSOR_M/Z 183.0887
MS$FOCUSED_ION: PRECURSOR_TYPE [M-H]-
MS$DATA_PROCESSING: RECALIBRATE loess on assigned fragments and MS1
MS$DATA_PROCESSING: REANALYZE Peaks with additional N2/O included
MS$DATA_PROCESSING: WHOLE RMassBank 2.99.1
PK$SPLASH: splash10-001j-7900000000-41cc49bb1a5b44ffebad
PK$ANNOTATION: m/z tentative_formula formula_count mass error(ppm)
  81.0459 C4H5N2- 1 81.0458 0.88
  83.0363 C2H3N4- 1 83.0363 0.02
  84.0203 C2H2N3O- 1 84.0203 -0.27
  85.0044 C2HN2O2- 1 85.0044 0.85
  97.0771 C5H9N2- 1 97.0771 -0.04
  98.0804 H10N4O2- 1 98.0809 -4.99
  127.0261 C3H3N4O2- 1 127.0261 -0.06
  139.0989 C6H11N4- 1 139.0989 0.06
  183.0887 C7H11N4O2- 1 183.0887 -0.4
PK$NUM_PEAK: 10
PK$PEAK: m/z int. rel.int.
  81.0459 280309.2 10
  83.0363 266884.4 9
  84.0203 1284813.4 46
  85.0044 240664.1 8
  97.0771 26293978 946
  98.0804 457894.8 16
  127.0261 7255278.5 261
  139.0989 929142.4 33
  183.0887 27761770 999
  184.0926 613908.9 22
//
