ACCESSION: MSBNK-Eawag-EQ00349001
RECORD_TITLE: Oxasulfuron; LC-ESI-QFT; MS2; CE: 15%; R=15000; [M+H]+
DATE: 2024.06.14
AUTHORS: F. Jud [dtc], K. Arturi [dtc], J. Hollender [dtc], A. Dax [com]
LICENSE: CC BY-SA
COPYRIGHT: Copyright (C) Eawag 2024
COMMENT: CONFIDENCE standard compound
COMMENT: UCHEM_ID 3490
CH$NAME: Oxasulfuron
CH$NAME: oxetan-3-yl 2-[(4,6-dimethylpyrimidin-2-yl)carbamoylsulfamoyl]benzoate
CH$COMPOUND_CLASS: N/A
CH$FORMULA: C17H18N4O6S
CH$EXACT_MASS: 406.0947053
CH$SMILES: CC1=CC(=NC(=N1)NC(=O)NS(=O)(=O)C2=CC=CC=C2C(=O)OC3COC3)C
CH$IUPAC: InChI=1S/C17H18N4O6S/c1-10-7-11(2)19-16(18-10)20-17(23)21-28(24,25)14-6-4-3-5-13(14)15(22)27-12-8-26-9-12/h3-7,12H,8-9H2,1-2H3,(H2,18,19,20,21,23)
CH$LINK: CAS 144651-06-9
CH$LINK: PUBCHEM CID:86443
CH$LINK: INCHIKEY IOXAXYHXMLCCJJ-UHFFFAOYSA-N
CH$LINK: CHEMSPIDER 77958
AC$INSTRUMENT: Exploris 240 Thermo Scientific
AC$INSTRUMENT_TYPE: LC-ESI-QFT
AC$MASS_SPECTROMETRY: MS_TYPE MS2
AC$MASS_SPECTROMETRY: ION_MODE POSITIVE
AC$MASS_SPECTROMETRY: IONIZATION ESI
AC$MASS_SPECTROMETRY: FRAGMENTATION_MODE HCD
AC$MASS_SPECTROMETRY: COLLISION_ENERGY 15 % (nominal)
AC$MASS_SPECTROMETRY: RESOLUTION 15000
AC$MASS_SPECTROMETRY: MASS_RANGE_M/Z 50-436
AC$CHROMATOGRAPHY: COLUMN_NAME XBridge C18 3.5um, 2.1x50mm, Waters
AC$CHROMATOGRAPHY: FLOW_GRADIENT 90/10 at 0 min, 50/50 at 4 min, 5/95 at 17 min, 5/95 at 25 min, 90/10 at 25.1 min, 90/10 at 30 min
AC$CHROMATOGRAPHY: FLOW_RATE 200 uL/min
AC$CHROMATOGRAPHY: RETENTION_TIME 5.484 min
MS$FOCUSED_ION: BASE_PEAK 407.1023
MS$FOCUSED_ION: PRECURSOR_M/Z 407.102
MS$FOCUSED_ION: PRECURSOR_TYPE [M+H]+
MS$DATA_PROCESSING: RECALIBRATE loess on assigned fragments and MS1
MS$DATA_PROCESSING: REANALYZE Peaks with additional N2/O included
MS$DATA_PROCESSING: WHOLE RMassBank 3.15.1.1
PK$SPLASH: splash10-0udi-0910000000-00ad57c20c8f6a745ce1
PK$ANNOTATION: m/z tentative_formula formula_count mass error(ppm)
  124.0871 C6H10N3+ 2 124.0869 1.72
  150.0662 C7H8N3O+ 2 150.0662 0.34
  284.0227 C11H10NO6S+ 2 284.0223 1.12
PK$NUM_PEAK: 3
PK$PEAK: m/z int. rel.int.
  124.0871 3173830.2 38
  150.0662 82755712 999
  284.0227 14673419 177
//
