ACCESSION: MSBNK-Eawag-EQ332202
RECORD_TITLE: Bufexamac; LC-ESI-QFT; MS2; CE: 30; R=35000; [M+H]+
DATE: 2015.08.25
AUTHORS: Otto J, Stravs M, Schymanski E, Singer H, Department of Environmental Chemistry, Eawag
LICENSE: CC BY
COPYRIGHT: Copyright (C) 2015 Eawag, Duebendorf, Switzerland
COMMENT: CONFIDENCE standard compound
COMMENT: EAWAG_UCHEM_ID 3322
CH$NAME: Bufexamac
CH$NAME: 2-(4-butoxyphenyl)-N-hydroxyacetamide
CH$COMPOUND_CLASS: N/A; Environmental Standard
CH$FORMULA: C12H17NO3
CH$EXACT_MASS: 223.12084
CH$SMILES: CCCCOC1=CC=C(C=C1)CC(=O)NO
CH$IUPAC: InChI=1S/C12H17NO3/c1-2-3-8-16-11-6-4-10(5-7-11)9-12(14)13-15/h4-7,15H,2-3,8-9H2,1H3,(H,13,14)
CH$LINK: CAS 2438-72-4
CH$LINK: KEGG D01271
CH$LINK: PUBCHEM CID:2466
CH$LINK: INCHIKEY MXJWRABVEGLYDG-UHFFFAOYSA-N
CH$LINK: CHEMSPIDER 2372
CH$LINK: COMPTOX DTXSID7045368
AC$INSTRUMENT: Q Exactive Orbitrap Thermo Scientific
AC$INSTRUMENT_TYPE: LC-ESI-QFT
AC$MASS_SPECTROMETRY: MS_TYPE MS2
AC$MASS_SPECTROMETRY: ION_MODE POSITIVE
AC$MASS_SPECTROMETRY: IONIZATION ESI
AC$MASS_SPECTROMETRY: FRAGMENTATION_MODE HCD
AC$MASS_SPECTROMETRY: COLLISION_ENERGY 30 (nominal)
AC$MASS_SPECTROMETRY: RESOLUTION 35000
AC$CHROMATOGRAPHY: COLUMN_NAME XBridge C18 3.5um, 2.1x50mm, Waters
AC$CHROMATOGRAPHY: FLOW_GRADIENT 90/10 at 0 min, 50/50 at 4 min, 5/95 at 17 min, 5/95 at 25 min, 90/10 at 25.1 min, 90/10 at 30 min
AC$CHROMATOGRAPHY: FLOW_RATE 200 ul/min
AC$CHROMATOGRAPHY: RETENTION_TIME 8.4 min
AC$CHROMATOGRAPHY: SOLVENT A water with 0.1% formic acid
AC$CHROMATOGRAPHY: SOLVENT B methanol with 0.1% formic acid
MS$FOCUSED_ION: BASE_PEAK 224.1282
MS$FOCUSED_ION: PRECURSOR_M/Z 224.1281
MS$FOCUSED_ION: PRECURSOR_TYPE [M+H]+
MS$DATA_PROCESSING: DEPROFILE vendor picking in Proteowizard
MS$DATA_PROCESSING: RECALIBRATE loess on assigned fragments and MS1
MS$DATA_PROCESSING: REANALYZE Peaks with additional N2/O included
MS$DATA_PROCESSING: WHOLE RMassBank 1.9.6
PK$SPLASH: splash10-0bt9-0900000000-435c1f72113403e534fa
PK$ANNOTATION: m/z tentative_formula formula_count mass error(ppm)
  57.0698 C4H9+ 1 57.0699 -0.99
  94.065 C6H8N+ 1 94.0651 -1.34
  95.0491 C6H7O+ 1 95.0491 0.09
  106.041 C7H6O+ 1 106.0413 -2.6
  107.0491 C7H7O+ 1 107.0491 -0.11
  108.0443 C6H6NO+ 1 108.0444 -1.3
  122.06 C7H8NO+ 1 122.06 -0.58
  135.044 C8H7O2+ 1 135.0441 -0.12
  150.0549 C8H8NO2+ 1 150.055 -0.17
  163.1117 C11H15O+ 1 163.1117 -0.13
  168.0654 C8H10NO3+ 1 168.0655 -0.47
  191.1067 C12H15O2+ 1 191.1067 0.18
  206.1176 C12H16NO2+ 1 206.1176 0.27
  207.1257 C12H17NO2+ 1 207.1254 1.3
  224.1281 C12H18NO3+ 1 224.1281 -0.18
PK$NUM_PEAK: 15
PK$PEAK: m/z int. rel.int.
  57.0698 3365688.8 12
  94.065 1418530.2 5
  95.0491 1448480.1 5
  106.041 550924.4 1
  107.0491 276109184 999
  108.0443 4180585.2 15
  122.06 19811188 71
  135.044 2659371.5 9
  150.0549 21224566 76
  163.1117 271747872 983
  168.0654 20077500 72
  191.1067 634196.1 2
  206.1176 883786.2 3
  207.1257 940172.9 3
  224.1281 36885064 133
//
