ACCESSION: MSBNK-Eawag-EQ01137609
RECORD_TITLE: Isofenphos; LC-ESI-QFT; MS2; CE: 180%; R=17500; [M+H]+
DATE: 2023.04.27
AUTHORS: B. Beck [dtc,com], J. Hollender [dtc]
LICENSE: CC BY-SA
COPYRIGHT: Copyright (C) Eawag 2023
COMMENT: CONFIDENCE standard compound
COMMENT: UCHEM_ID 11376
CH$NAME: Isofenphos
CH$NAME: propan-2-yl 2-[ethoxy-(propan-2-ylamino)phosphinothioyl]oxybenzoate
CH$COMPOUND_CLASS: N/A; Environmental Standard
CH$FORMULA: C15H24NO4PS
CH$EXACT_MASS: 345.1164
CH$SMILES: CCOP(=S)(NC(C)C)OC1=CC=CC=C1C(=O)OC(C)C
CH$IUPAC: InChI=1S/C15H24NO4PS/c1-6-18-21(22,16-11(2)3)20-14-10-8-7-9-13(14)15(17)19-12(4)5/h7-12H,6H2,1-5H3,(H,16,22)
CH$LINK: CAS 25311-71-1
CH$LINK: CHEBI CHEBI:6009
CH$LINK: KEGG C11002
CH$LINK: PUBCHEM CID:32872
CH$LINK: INCHIKEY HOQADATXFBOEGG-UHFFFAOYSA-N
CH$LINK: CHEMSPIDER 30459
AC$INSTRUMENT: Exploris 240 Orbitrap Thermo Scientific
AC$INSTRUMENT_TYPE: LC-ESI-QFT
AC$MASS_SPECTROMETRY: MS_TYPE MS2
AC$MASS_SPECTROMETRY: ION_MODE POSITIVE
AC$MASS_SPECTROMETRY: IONIZATION ESI
AC$MASS_SPECTROMETRY: FRAGMENTATION_MODE HCD
AC$MASS_SPECTROMETRY: COLLISION_ENERGY 180 % (nominal)
AC$MASS_SPECTROMETRY: RESOLUTION 17500
AC$MASS_SPECTROMETRY: MASS_RANGE_M/Z 50-374
AC$CHROMATOGRAPHY: COLUMN_NAME XBridge C18 3.5um, 2.1x50mm, Waters
AC$CHROMATOGRAPHY: FLOW_GRADIENT 90/10 at 0 min, 50/50 at 4 min, 5/95 at 17 min, 5/95 at 25 min, 90/10 at 25.1 min, 90/10 at 30 min
AC$CHROMATOGRAPHY: FLOW_RATE 200 uL/min
AC$CHROMATOGRAPHY: RETENTION_TIME 11.726 min
MS$FOCUSED_ION: BASE_PEAK 245.0031
MS$FOCUSED_ION: PRECURSOR_M/Z 346.1236
MS$FOCUSED_ION: PRECURSOR_TYPE [M+H]+
MS$DATA_PROCESSING: RECALIBRATE loess on assigned fragments and MS1
MS$DATA_PROCESSING: REANALYZE Peaks with additional N2/O included
MS$DATA_PROCESSING: WHOLE RMassBank 3.11.0.1
PK$SPLASH: splash10-02t9-9000000000-cb1dae5e888db5925b57
PK$ANNOTATION: m/z tentative_formula formula_count mass error(ppm)
  63.023 C5H3+ 2 63.0229 0.98
  63.9947 H3NOP+ 1 63.9947 0.16
  64.0306 C5H4+ 1 64.0308 -1.85
  65.0386 C5H5+ 1 65.0386 -0.38
  78.94 OPS+ 1 78.9402 -2.68
  92.0258 C6H4O+ 2 92.0257 1.82
  95.9669 H3NOPS+ 2 95.9667 1.47
PK$NUM_PEAK: 7
PK$PEAK: m/z int. rel.int.
  63.023 247597.2 150
  63.9947 1170842.6 710
  64.0306 89851.4 54
  65.0386 1646197.4 999
  78.94 413467.6 250
  92.0258 175414.3 106
  95.9669 155364.9 94
//
