ACCESSION: MSBNK-Eawag-EQ00370953
RECORD_TITLE: Fluometuron; LC-ESI-QFT; MS2; CE: 45%; R=15000; [M-H]-
DATE: 2024.06.14
AUTHORS: F. Jud [dtc], K. Arturi [dtc], J. Hollender [dtc], A. Dax [com]
LICENSE: CC BY-SA
COPYRIGHT: Copyright (C) Eawag 2024
COMMENT: CONFIDENCE standard compound
COMMENT: UCHEM_ID 3709
CH$NAME: Fluometuron
CH$NAME: 1,1-dimethyl-3-[3-(trifluoromethyl)phenyl]urea
CH$COMPOUND_CLASS: N/A
CH$FORMULA: C10H11F3N2O
CH$EXACT_MASS: 232.0823476
CH$SMILES: CN(C)C(=O)NC1=CC=CC(=C1)C(F)(F)F
CH$IUPAC: InChI=1S/C10H11F3N2O/c1-15(2)9(16)14-8-5-3-4-7(6-8)10(11,12)13/h3-6H,1-2H3,(H,14,16)
CH$LINK: CAS 2164-17-2
CH$LINK: CHEBI CHEBI:82012
CH$LINK: KEGG C18853
CH$LINK: PUBCHEM CID:16562
CH$LINK: INCHIKEY RZILCCPWPBTYDO-UHFFFAOYSA-N
CH$LINK: CHEMSPIDER 15702
AC$INSTRUMENT: Q Exactive Plus
AC$INSTRUMENT_TYPE: LC-ESI-QFT
AC$MASS_SPECTROMETRY: MS_TYPE MS2
AC$MASS_SPECTROMETRY: ION_MODE NEGATIVE
AC$MASS_SPECTROMETRY: IONIZATION ESI
AC$MASS_SPECTROMETRY: FRAGMENTATION_MODE HCD
AC$MASS_SPECTROMETRY: COLLISION_ENERGY 45 % (nominal)
AC$MASS_SPECTROMETRY: RESOLUTION 15000
AC$MASS_SPECTROMETRY: MASS_RANGE_M/Z 50-255
AC$CHROMATOGRAPHY: COLUMN_NAME XBridge C18 3.5um, 2.1x50mm, Waters
AC$CHROMATOGRAPHY: FLOW_GRADIENT 90/10 at 0 min, 50/50 at 4 min, 5/95 at 17 min, 5/95 at 25 min, 90/10 at 25.1 min, 90/10 at 30 min
AC$CHROMATOGRAPHY: FLOW_RATE 200 uL/min
AC$CHROMATOGRAPHY: RETENTION_TIME 7.120 min
MS$FOCUSED_ION: BASE_PEAK 231.075
MS$FOCUSED_ION: PRECURSOR_M/Z 231.0751
MS$FOCUSED_ION: PRECURSOR_TYPE [M-H]-
MS$FOCUSED_ION: PRECURSOR_INTENSITY 94598997.04
MS$DATA_PROCESSING: RECALIBRATE loess on assigned fragments and MS1
MS$DATA_PROCESSING: REANALYZE Peaks with additional N2/O included
MS$DATA_PROCESSING: WHOLE RMassBank 3.15.1.1
PK$SPLASH: splash10-000i-0930000000-78f337c8e69adc01f6f8
PK$ANNOTATION: m/z tentative_formula formula_count mass error(ppm)
  146.0044 C8HFNO- 1 146.0048 -2.48
  154.0475 C8H6F2N- 1 154.0474 0.78
  160.0379 C7H5F3N- 1 160.038 -0.13
  166.0109 C8H2F2NO- 1 166.011 -0.38
  186.0172 C8H3F3NO- 1 186.0172 -0.09
  188.0331 C8H5F3NO- 1 188.0329 1
  231.075 C10H10F3N2O- 1 231.0751 -0.35
PK$NUM_PEAK: 7
PK$PEAK: m/z int. rel.int.
  146.0044 257658.3 11
  154.0475 334365.3 14
  160.0379 3157952.8 137
  166.0109 2739042.5 119
  186.0172 22950808 999
  188.0331 266418.8 11
  231.075 11094965 482
//
