ACCESSION: MSBNK-Eawag-EQ01163852
RECORD_TITLE: Nimesulide; LC-ESI-QFT; MS2; CE: 30%; R=17500; [M-H]-
DATE: 2024.01.16
AUTHORS: B. Beck [dtc,com], J. Hollender [dtc]
LICENSE: CC BY-SA
COPYRIGHT: Copyright (C) Eawag 2023
COMMENT: CONFIDENCE standard compound
COMMENT: UCHEM_ID 11638
CH$NAME: Nimesulide
CH$NAME: N-(4-nitro-2-phenoxyphenyl)methanesulfonamide
CH$COMPOUND_CLASS: N/A; Environmental Standard
CH$FORMULA: C13H12N2O5S
CH$EXACT_MASS: 308.046692484
CH$SMILES: CS(=O)(=O)NC1=C(C=C(C=C1)[N+](=O)[O-])OC2=CC=CC=C2
CH$IUPAC: InChI=1S/C13H12N2O5S/c1-21(18,19)14-12-8-7-10(15(16)17)9-13(12)20-11-5-3-2-4-6-11/h2-9,14H,1H3
CH$LINK: CHEBI CHEBI:44445
CH$LINK: PUBCHEM CID:4495
CH$LINK: INCHIKEY HYWYRSMBCFDLJT-UHFFFAOYSA-N
CH$LINK: CHEMSPIDER 4339
AC$INSTRUMENT: Exploris 240 Orbitrap Thermo Scientific
AC$INSTRUMENT_TYPE: LC-ESI-QFT
AC$MASS_SPECTROMETRY: MS_TYPE MS2
AC$MASS_SPECTROMETRY: ION_MODE NEGATIVE
AC$MASS_SPECTROMETRY: IONIZATION ESI
AC$MASS_SPECTROMETRY: FRAGMENTATION_MODE HCD
AC$MASS_SPECTROMETRY: COLLISION_ENERGY 30 % (nominal)
AC$MASS_SPECTROMETRY: RESOLUTION 17500
AC$MASS_SPECTROMETRY: MASS_RANGE_M/Z 50-334
AC$CHROMATOGRAPHY: COLUMN_NAME XBridge C18 3.5um, 2.1x50mm, Waters
AC$CHROMATOGRAPHY: FLOW_GRADIENT 90/10 at 0 min, 50/50 at 4 min, 5/95 at 17 min, 5/95 at 25 min, 90/10 at 25.1 min, 90/10 at 30 min
AC$CHROMATOGRAPHY: FLOW_RATE 200 uL/min
AC$CHROMATOGRAPHY: RETENTION_TIME 7.689 min
MS$FOCUSED_ION: BASE_PEAK 307.0393
MS$FOCUSED_ION: PRECURSOR_M/Z 307.0394
MS$FOCUSED_ION: PRECURSOR_TYPE [M-H]-
MS$DATA_PROCESSING: RECALIBRATE loess on assigned fragments and MS1
MS$DATA_PROCESSING: REANALYZE Peaks with additional N2/O included
MS$DATA_PROCESSING: WHOLE RMassBank 3.11.2
PK$SPLASH: splash10-004i-1090000000-25e42fa892a5e8df2857
PK$ANNOTATION: m/z tentative_formula formula_count mass error(ppm)
  63.9625 O2S- 1 63.9624 0.84
  78.9859 CH3O2S- 1 78.9859 0.08
  198.0566 C12H8NO2- 1 198.0561 2.92
  227.0466 C12H7N2O3- 1 227.0462 1.76
  228.0541 C12H8N2O3- 1 228.054 0.22
  229.0619 C12H9N2O3- 1 229.0619 -0.04
  261.0461 C13H11NO3S- 1 261.0465 -1.49
  307.0395 C13H11N2O5S- 1 307.0394 0.17
PK$NUM_PEAK: 8
PK$PEAK: m/z int. rel.int.
  63.9625 1069852.9 8
  78.9859 18538822 149
  198.0566 1027348.9 8
  227.0466 640563.6 5
  228.0541 36709892 296
  229.0619 123730232 999
  261.0461 584580.6 4
  307.0395 14244080 115
//
