ACCESSION: MSBNK-Eawag-EQ327602
RECORD_TITLE: Orphenadrine; LC-ESI-QFT; MS2; CE: 30; R=35000; [M+H]+
DATE: 2015.08.25
AUTHORS: Beck B, Stravs M, Schymanski E, Singer H, Department of Environmental Chemistry, Eawag
LICENSE: CC BY
COPYRIGHT: Copyright (C) 2015 Eawag, Duebendorf, Switzerland
COMMENT: CONFIDENCE standard compound
COMMENT: EAWAG_UCHEM_ID 3276
CH$NAME: Orphenadrine
CH$NAME: N,N-dimethyl-2-[(2-methylphenyl)-phenylmethoxy]ethanamine
CH$COMPOUND_CLASS: N/A; Environmental Standard
CH$FORMULA: C18H23NO
CH$EXACT_MASS: 269.17796
CH$SMILES: CC1=CC=CC=C1C(C2=CC=CC=C2)OCCN(C)C
CH$IUPAC: InChI=1S/C18H23NO/c1-15-9-7-8-12-17(15)18(20-14-13-19(2)3)16-10-5-4-6-11-16/h4-12,18H,13-14H2,1-3H3
CH$LINK: CAS 83-98-7
CH$LINK: CHEBI CHEBI:7789
CH$LINK: KEGG C07935
CH$LINK: PUBCHEM CID:4601
CH$LINK: INCHIKEY QVYRGXJJSLMXQH-UHFFFAOYSA-N
CH$LINK: CHEMSPIDER 4440
CH$LINK: COMPTOX DTXSID3023396
AC$INSTRUMENT: Q Exactive Plus Orbitrap Thermo Scientific
AC$INSTRUMENT_TYPE: LC-ESI-QFT
AC$MASS_SPECTROMETRY: MS_TYPE MS2
AC$MASS_SPECTROMETRY: ION_MODE POSITIVE
AC$MASS_SPECTROMETRY: IONIZATION ESI
AC$MASS_SPECTROMETRY: FRAGMENTATION_MODE HCD
AC$MASS_SPECTROMETRY: COLLISION_ENERGY 30 (nominal)
AC$MASS_SPECTROMETRY: RESOLUTION 35000
AC$CHROMATOGRAPHY: COLUMN_NAME XBridge C18 3.5um, 2.1x50mm, Waters
AC$CHROMATOGRAPHY: FLOW_GRADIENT 90/10 at 0 min, 50/50 at 4 min, 5/95 at 17 min, 5/95 at 25 min, 90/10 at 25.1 min, 90/10 at 30 min
AC$CHROMATOGRAPHY: FLOW_RATE 200 ul/min
AC$CHROMATOGRAPHY: RETENTION_TIME 7.4 min
AC$CHROMATOGRAPHY: SOLVENT A water with 0.1% formic acid
AC$CHROMATOGRAPHY: SOLVENT B methanol with 0.1% formic acid
MS$FOCUSED_ION: BASE_PEAK 270.1849
MS$FOCUSED_ION: PRECURSOR_M/Z 270.1852
MS$FOCUSED_ION: PRECURSOR_TYPE [M+H]+
MS$DATA_PROCESSING: RECALIBRATE loess on assigned fragments and MS1
MS$DATA_PROCESSING: REANALYZE Peaks with additional N2/O included
MS$DATA_PROCESSING: WHOLE RMassBank 1.9.6
PK$SPLASH: splash10-001i-0900000000-6eb16a45ba9f222e4a96
PK$ANNOTATION: m/z tentative_formula formula_count mass error(ppm)
  153.0698 C12H9+ 1 153.0699 -0.31
  165.0692 C13H9+ 1 165.0699 -4.16
  166.0775 C13H10+ 1 166.0777 -0.97
  179.0853 C14H11+ 1 179.0855 -1.32
  181.1011 C14H13+ 1 181.1012 -0.59
PK$NUM_PEAK: 5
PK$PEAK: m/z int. rel.int.
  153.0698 1634425.1 1
  165.0692 4661297 4
  166.0775 15987739 14
  179.0853 3393347.2 3
  181.1011 1113158400 999
//
