ACCESSION: MSBNK-Eawag-EQ01139501
RECORD_TITLE: Pyrimidifen; LC-ESI-QFT; MS2; CE: 15%; R=17500; [M+H]+
DATE: 2023.04.27
AUTHORS: B. Beck [dtc,com], J. Hollender [dtc]
LICENSE: CC BY-SA
COPYRIGHT: Copyright (C) Eawag 2023
COMMENT: CONFIDENCE standard compound
COMMENT: UCHEM_ID 11395
CH$NAME: Pyrimidifen
CH$NAME: 5-chloro-N-[2-[4-(2-ethoxyethyl)-2,3-dimethylphenoxy]ethyl]-6-ethylpyrimidin-4-amine
CH$COMPOUND_CLASS: N/A; Environmental Standard
CH$FORMULA: C20H28ClN3O2
CH$EXACT_MASS: 377.1870
CH$SMILES: CCC1=C(C(=NC=N1)NCCOC2=C(C(=C(C=C2)CCOCC)C)C)Cl
CH$IUPAC: InChI=1S/C20H28ClN3O2/c1-5-17-19(21)20(24-13-23-17)22-10-12-26-18-8-7-16(9-11-25-6-2)14(3)15(18)4/h7-8,13H,5-6,9-12H2,1-4H3,(H,22,23,24)
CH$LINK: CAS 105779-78-0
CH$LINK: CHEBI CHEBI:38604
CH$LINK: KEGG C18603
CH$LINK: PUBCHEM CID:6451139
CH$LINK: INCHIKEY ITKAIUGKVKDENI-UHFFFAOYSA-N
CH$LINK: CHEMSPIDER 4953620
AC$INSTRUMENT: Exploris 240 Orbitrap Thermo Scientific
AC$INSTRUMENT_TYPE: LC-ESI-QFT
AC$MASS_SPECTROMETRY: MS_TYPE MS2
AC$MASS_SPECTROMETRY: ION_MODE POSITIVE
AC$MASS_SPECTROMETRY: IONIZATION ESI
AC$MASS_SPECTROMETRY: FRAGMENTATION_MODE HCD
AC$MASS_SPECTROMETRY: COLLISION_ENERGY 15 % (nominal)
AC$MASS_SPECTROMETRY: RESOLUTION 17500
AC$MASS_SPECTROMETRY: MASS_RANGE_M/Z 50-407
AC$CHROMATOGRAPHY: COLUMN_NAME XBridge C18 3.5um, 2.1x50mm, Waters
AC$CHROMATOGRAPHY: FLOW_GRADIENT 90/10 at 0 min, 50/50 at 4 min, 5/95 at 17 min, 5/95 at 25 min, 90/10 at 25.1 min, 90/10 at 30 min
AC$CHROMATOGRAPHY: FLOW_RATE 200 uL/min
AC$CHROMATOGRAPHY: RETENTION_TIME 11.376 min
MS$FOCUSED_ION: BASE_PEAK 378.1939
MS$FOCUSED_ION: PRECURSOR_M/Z 378.1943
MS$FOCUSED_ION: PRECURSOR_TYPE [M+H]+
MS$DATA_PROCESSING: RECALIBRATE loess on assigned fragments and MS1
MS$DATA_PROCESSING: REANALYZE Peaks with additional N2/O included
MS$DATA_PROCESSING: WHOLE RMassBank 3.11.0.1
PK$SPLASH: splash10-004i-0009000000-7c19a7af8cff4ee3be34
PK$ANNOTATION: m/z tentative_formula formula_count mass error(ppm)
  184.0636 C8H11ClN3+ 2 184.0636 0.21
  378.1944 C20H29ClN3O2+ 1 378.1943 0.29
PK$NUM_PEAK: 2
PK$PEAK: m/z int. rel.int.
  184.0636 9823794 16
  378.1944 602039424 999
//
