ACCESSION: MSBNK-Eawag-EQ321154
RECORD_TITLE: Triclabendazole; LC-ESI-QFT; MS2; CE: 60; R=35000; [M-H]-
DATE: 2015.08.26
AUTHORS: Beck B, Stravs M, Schymanski E, Singer H, Department of Environmental Chemistry, Eawag
LICENSE: CC BY
COPYRIGHT: Copyright (C) 2015 Eawag, Duebendorf, Switzerland
COMMENT: CONFIDENCE standard compound
COMMENT: EAWAG_UCHEM_ID 3211
CH$NAME: Triclabendazole
CH$NAME: Triclabendazol
CH$NAME: 6-chloro-5-(2,3-dichlorophenoxy)-2-methylsulfanyl-1H-benzimidazole
CH$COMPOUND_CLASS: N/A; Environmental Standard
CH$FORMULA: C14H9Cl3N2OS
CH$EXACT_MASS: 357.95012
CH$SMILES: CSc1[nH]c2cc(c(cc2n1)Oc3cccc(c3Cl)Cl)Cl
CH$IUPAC: InChI=1S/C14H9Cl3N2OS/c1-21-14-18-9-5-8(16)12(6-10(9)19-14)20-11-4-2-3-7(15)13(11)17/h2-6H,1H3,(H,18,19)
CH$LINK: CAS 68786-66-3
CH$LINK: PUBCHEM CID:50248
CH$LINK: INCHIKEY NQPDXQQQCQDHHW-UHFFFAOYSA-N
CH$LINK: CHEMSPIDER 45565
CH$LINK: COMPTOX DTXSID7043952
AC$INSTRUMENT: Q Exactive Plus Orbitrap Thermo Scientific
AC$INSTRUMENT_TYPE: LC-ESI-QFT
AC$MASS_SPECTROMETRY: MS_TYPE MS2
AC$MASS_SPECTROMETRY: ION_MODE NEGATIVE
AC$MASS_SPECTROMETRY: IONIZATION ESI
AC$MASS_SPECTROMETRY: FRAGMENTATION_MODE HCD
AC$MASS_SPECTROMETRY: COLLISION_ENERGY 60 (nominal)
AC$MASS_SPECTROMETRY: RESOLUTION 35000
AC$CHROMATOGRAPHY: COLUMN_NAME XBridge C18 3.5um, 2.1x50mm, Waters
AC$CHROMATOGRAPHY: FLOW_GRADIENT 90/10 at 0 min, 50/50 at 4 min, 5/95 at 17 min, 5/95 at 25 min, 90/10 at 25.1 min, 90/10 at 30 min
AC$CHROMATOGRAPHY: FLOW_RATE 200 ul/min
AC$CHROMATOGRAPHY: RETENTION_TIME 14.2 min
AC$CHROMATOGRAPHY: SOLVENT A water with 0.1% formic acid
AC$CHROMATOGRAPHY: SOLVENT B methanol with 0.1% formic acid
MS$FOCUSED_ION: BASE_PEAK 358.9395
MS$FOCUSED_ION: PRECURSOR_M/Z 356.9428
MS$FOCUSED_ION: PRECURSOR_TYPE [M-H]-
MS$DATA_PROCESSING: RECALIBRATE loess on assigned fragments and MS1
MS$DATA_PROCESSING: REANALYZE Peaks with additional N2/O included
MS$DATA_PROCESSING: WHOLE RMassBank 1.9.6
PK$SPLASH: splash10-0002-0900000000-7c1864f299cbfbfaf0d4
PK$ANNOTATION: m/z tentative_formula formula_count mass error(ppm)
  57.9757 CNS- 1 57.9757 -0.58
  130.0172 C7H2N2O- 1 130.0173 -0.47
  160.9568 C6H3Cl2O- 2 160.9566 0.78
  165.9939 C7H3ClN2O- 1 165.9939 -0.11
  167.002 C7H4ClN2O- 1 167.0018 1.65
  179.0017 C8H4ClN2O- 1 179.0018 -0.13
  196.9581 C7H2ClN2OS- 2 196.9582 -0.43
  211.9817 C8H5ClN2OS- 1 211.9817 0.05
  274.9789 C13H5Cl2N2O- 1 274.9784 1.63
  305.9427 C13H4Cl2N2OS- 1 305.9427 -0.06
  310.9555 C13H6Cl3N2O- 1 310.9551 1.29
  341.9193 C13H5Cl3N2OS- 1 341.9194 -0.25
  356.942 C14H8Cl3N2OS- 1 356.9428 -2.44
PK$NUM_PEAK: 13
PK$PEAK: m/z int. rel.int.
  57.9757 2262069.8 21
  130.0172 143310.2 1
  160.9568 534758.4 5
  165.9939 3217438 30
  167.002 131758.8 1
  179.0017 907577.6 8
  196.9581 103933296 999
  211.9817 5649975.5 54
  274.9789 141837.3 1
  305.9427 329313.2 3
  310.9555 105714.1 1
  341.9193 3930281 37
  356.942 153224.9 1
//
