ACCESSION: MSBNK-Eawag-EQ328202
RECORD_TITLE: Cotinine; LC-ESI-QFT; MS2; CE: 30; R=35000; [M+H]+
DATE: 2015.08.25
AUTHORS: Beck B, Stravs M, Schymanski E, Singer H, Department of Environmental Chemistry, Eawag
LICENSE: CC BY
COPYRIGHT: Copyright (C) 2015 Eawag, Duebendorf, Switzerland
COMMENT: CONFIDENCE standard compound
COMMENT: EAWAG_UCHEM_ID 3282
CH$NAME: Cotinine
CH$NAME: (5S)-1-methyl-5-pyridin-3-ylpyrrolidin-2-one
CH$COMPOUND_CLASS: N/A; Environmental Standard
CH$FORMULA: C10H12N2O
CH$EXACT_MASS: 176.09496
CH$SMILES: CN1[C@@H](CCC1=O)c2cccnc2
CH$IUPAC: InChI=1S/C10H12N2O/c1-12-9(4-5-10(12)13)8-3-2-6-11-7-8/h2-3,6-7,9H,4-5H2,1H3/t9-/m0/s1
CH$LINK: CAS 486-56-6
CH$LINK: CHEBI CHEBI:68641
CH$LINK: PUBCHEM CID:854019
CH$LINK: INCHIKEY UIKROCXWUNQSPJ-VIFPVBQESA-N
CH$LINK: CHEMSPIDER 746405
CH$LINK: COMPTOX DTXSID1047576
AC$INSTRUMENT: Q Exactive Plus Orbitrap Thermo Scientific
AC$INSTRUMENT_TYPE: LC-ESI-QFT
AC$MASS_SPECTROMETRY: MS_TYPE MS2
AC$MASS_SPECTROMETRY: ION_MODE POSITIVE
AC$MASS_SPECTROMETRY: IONIZATION ESI
AC$MASS_SPECTROMETRY: FRAGMENTATION_MODE HCD
AC$MASS_SPECTROMETRY: COLLISION_ENERGY 30 (nominal)
AC$MASS_SPECTROMETRY: RESOLUTION 35000
AC$CHROMATOGRAPHY: COLUMN_NAME XBridge C18 3.5um, 2.1x50mm, Waters
AC$CHROMATOGRAPHY: FLOW_GRADIENT 90/10 at 0 min, 50/50 at 4 min, 5/95 at 17 min, 5/95 at 25 min, 90/10 at 25.1 min, 90/10 at 30 min
AC$CHROMATOGRAPHY: FLOW_RATE 200 ul/min
AC$CHROMATOGRAPHY: RETENTION_TIME 1.1 min
AC$CHROMATOGRAPHY: SOLVENT A water with 0.1% formic acid
AC$CHROMATOGRAPHY: SOLVENT B methanol with 0.1% formic acid
MS$FOCUSED_ION: BASE_PEAK 177.1022
MS$FOCUSED_ION: PRECURSOR_M/Z 177.1022
MS$FOCUSED_ION: PRECURSOR_TYPE [M+H]+
MS$DATA_PROCESSING: RECALIBRATE loess on assigned fragments and MS1
MS$DATA_PROCESSING: REANALYZE Peaks with additional N2/O included
MS$DATA_PROCESSING: WHOLE RMassBank 1.9.6
PK$SPLASH: splash10-004i-0900000000-c061e6520630909883b0
PK$ANNOTATION: m/z tentative_formula formula_count mass error(ppm)
  80.0494 C5H6N+ 1 80.0495 -0.69
  98.06 C5H8NO+ 1 98.06 -0.1
  146.0602 C9H8NO+ 1 146.06 0.96
  149.071 C8H9N2O+ 1 149.0709 0.07
  177.1023 C10H13N2O+ 1 177.1022 0.23
PK$NUM_PEAK: 5
PK$PEAK: m/z int. rel.int.
  80.0494 37481348 37
  98.06 21507454 21
  146.0602 8457588 8
  149.071 1873170.6 1
  177.1023 987685952 999
//
