ACCESSION: MSBNK-Eawag-EQ334958
RECORD_TITLE: Repaglinide; LC-ESI-QFT; MS2; CE: 150; R=35000; [M-H]-
DATE: 2015.08.26
AUTHORS: Beck B, Stravs M, Schymanski E, Singer H, Department of Environmental Chemistry, Eawag
LICENSE: CC BY
COPYRIGHT: Copyright (C) 2015 Eawag, Duebendorf, Switzerland
COMMENT: CONFIDENCE standard compound
COMMENT: EAWAG_UCHEM_ID 3349
CH$NAME: Repaglinide
CH$NAME: 2-ethoxy-4-[2-[[3-methyl-1-(2-piperidin-1-ylphenyl)butyl]amino]-2-oxoethyl]benzoic acid
CH$COMPOUND_CLASS: N/A; Environmental Standard
CH$FORMULA: C27H36N2O4
CH$EXACT_MASS: 452.26751
CH$SMILES: CCOC1=C(C=CC(=C1)CC(=O)NC(CC(C)C)C2=CC=CC=C2N3CCCCC3)C(=O)O
CH$IUPAC: InChI=1S/C27H36N2O4/c1-4-33-25-17-20(12-13-22(25)27(31)32)18-26(30)28-23(16-19(2)3)21-10-6-7-11-24(21)29-14-8-5-9-15-29/h6-7,10-13,17,19,23H,4-5,8-9,14-16,18H2,1-3H3,(H,28,30)(H,31,32)
CH$LINK: PUBCHEM CID:4547
CH$LINK: INCHIKEY FAEKWTJYAYMJKF-UHFFFAOYSA-N
CH$LINK: CHEMSPIDER 4388
AC$INSTRUMENT: Q Exactive Plus Orbitrap Thermo Scientific
AC$INSTRUMENT_TYPE: LC-ESI-QFT
AC$MASS_SPECTROMETRY: MS_TYPE MS2
AC$MASS_SPECTROMETRY: ION_MODE NEGATIVE
AC$MASS_SPECTROMETRY: IONIZATION ESI
AC$MASS_SPECTROMETRY: FRAGMENTATION_MODE HCD
AC$MASS_SPECTROMETRY: COLLISION_ENERGY 150 (nominal)
AC$MASS_SPECTROMETRY: RESOLUTION 35000
AC$CHROMATOGRAPHY: COLUMN_NAME XBridge C18 3.5um, 2.1x50mm, Waters
AC$CHROMATOGRAPHY: FLOW_GRADIENT 90/10 at 0 min, 50/50 at 4 min, 5/95 at 17 min, 5/95 at 25 min, 90/10 at 25.1 min, 90/10 at 30 min
AC$CHROMATOGRAPHY: FLOW_RATE 200 ul/min
AC$CHROMATOGRAPHY: RETENTION_TIME 9.9 min
AC$CHROMATOGRAPHY: SOLVENT A water with 0.1% formic acid
AC$CHROMATOGRAPHY: SOLVENT B methanol with 0.1% formic acid
MS$FOCUSED_ION: BASE_PEAK 497.2656
MS$FOCUSED_ION: PRECURSOR_M/Z 451.2602
MS$FOCUSED_ION: PRECURSOR_TYPE [M-H]-
MS$DATA_PROCESSING: RECALIBRATE loess on assigned fragments and MS1
MS$DATA_PROCESSING: REANALYZE Peaks with additional N2/O included
MS$DATA_PROCESSING: WHOLE RMassBank 1.9.6
PK$SPLASH: splash10-014i-9500000000-a3bf6351710908eaaf68
PK$ANNOTATION: m/z tentative_formula formula_count mass error(ppm)
  65.0397 C5H5- 1 65.0397 0.71
  67.019 C4H3O- 1 67.0189 0.77
  79.0554 C6H7- 1 79.0553 0.71
  82.006 C4H2O2- 1 82.006 -0.71
  91.0192 C6H3O- 1 91.0189 2.44
  92.0268 C6H4O- 1 92.0268 0.29
  93.0346 C6H5O- 1 93.0346 -0.09
  95.0138 C5H3O2- 1 95.0139 -0.24
  95.0503 C6H7O- 1 95.0502 1.07
  106.0424 C7H6O- 1 106.0424 -0.03
  107.0503 C7H7O- 1 107.0502 0.39
  108.0217 C6H4O2- 1 108.0217 0.57
  121.0295 C7H5O2- 1 121.0295 0.22
  136.0163 C7H4O3- 1 136.0166 -2.15
  137.0244 C7H5O3- 1 137.0244 -0.27
PK$NUM_PEAK: 15
PK$PEAK: m/z int. rel.int.
  65.0397 552998.9 999
  67.019 234209.8 423
  79.0554 167004.5 301
  82.006 4865.6 8
  91.0192 5039.5 9
  92.0268 58359.6 105
  93.0346 6453.1 11
  95.0138 18710.2 33
  95.0503 54724.3 98
  106.0424 198245.4 358
  107.0503 130725.4 236
  108.0217 36834 66
  121.0295 313612.4 566
  136.0163 5877 10
  137.0244 23770.6 42
//
