ACCESSION: MSBNK-Eawag-EA274064
RECORD_TITLE: Tritosulfuron; LC-ESI-ITFT; MS2; CE: 35%; R=30000; [M-H]-
DATE: 2014.01.14
AUTHORS: Stravs M, Schymanski E, Singer H, Department of Environmental Chemistry, Eawag
LICENSE: CC BY
COPYRIGHT: Copyright (C) 2012 Eawag, Duebendorf, Switzerland
COMMENT: CONFIDENCE standard compound
COMMENT: EAWAG_UCHEM_ID 2740
CH$NAME: Tritosulfuron
CH$NAME: N-{[4-methoxy-6-(trifluoromethyl)-1,3,5-triazin-2-yl]carbamoyl}-2-(trifluoromethyl)benzenesulfonamide
CH$COMPOUND_CLASS: N/A; Environmental Standard
CH$FORMULA: C13H9F6N5O4S
CH$EXACT_MASS: 445.0279
CH$SMILES: c1c(S(=O)(=O)NC(Nc2nc(nc(n2)C(F)(F)F)OC)=O)c(C(F)(F)F)ccc1
CH$IUPAC: InChI=1S/C13H9F6N5O4S/c1-28-11-21-8(13(17,18)19)20-9(23-11)22-10(25)24-29(26,27)7-5-3-2-4-6(7)12(14,15)16/h2-5H,1H3,(H2,20,21,22,23,24,25)
CH$LINK: CAS 142469-14-5
CH$LINK: PUBCHEM CID:11657899
CH$LINK: INCHIKEY KVEQCVKVIFQSGC-UHFFFAOYSA-N
CH$LINK: CHEMSPIDER 9832635
CH$LINK: COMPTOX DTXSID9057975
AC$INSTRUMENT: LTQ Orbitrap XL Thermo Scientific
AC$INSTRUMENT_TYPE: LC-ESI-ITFT
AC$MASS_SPECTROMETRY: MS_TYPE MS2
AC$MASS_SPECTROMETRY: ION_MODE NEGATIVE
AC$MASS_SPECTROMETRY: IONIZATION ESI
AC$MASS_SPECTROMETRY: FRAGMENTATION_MODE CID
AC$MASS_SPECTROMETRY: COLLISION_ENERGY 35 % (nominal)
AC$MASS_SPECTROMETRY: RESOLUTION 30000
AC$CHROMATOGRAPHY: COLUMN_NAME XBridge C18 3.5um, 2.1x50mm, Waters
AC$CHROMATOGRAPHY: FLOW_GRADIENT 90/10 at 0 min, 50/50 at 4 min, 5/95 at 17 min, 5/95 at 25 min, 90/10 at 25.1 min, 90/10 at 30 min
AC$CHROMATOGRAPHY: FLOW_RATE 200 ul/min
AC$CHROMATOGRAPHY: RETENTION_TIME 10.5 min
AC$CHROMATOGRAPHY: SOLVENT A water with 0.1% formic acid
AC$CHROMATOGRAPHY: SOLVENT B methanol with 0.1% formic acid
MS$FOCUSED_ION: BASE_PEAK 444.0204
MS$FOCUSED_ION: PRECURSOR_M/Z 444.0207
MS$FOCUSED_ION: PRECURSOR_TYPE [M-H]-
MS$DATA_PROCESSING: DEPROFILE Spline
MS$DATA_PROCESSING: RECALIBRATE loess on assigned fragments and MS1
MS$DATA_PROCESSING: REANALYZE Peaks with additional N2/O included
MS$DATA_PROCESSING: WHOLE RMassBank 1.3.1
PK$SPLASH: splash10-0006-0900000000-d423e48d089c2bf54df4
PK$ANNOTATION: m/z tentative_formula formula_count mass error(ppm)
  136.013 C8H2F2- 3 136.013 0.18
  161.0083 C9HF2N- 5 161.0083 0.04
  193.0345 C10H5F2NO- 3 193.0345 0.01
  224 C7H5F3NO2S- 6 223.9999 0.59
  401.0145 C12H7F6N4O3S- 1 401.0149 -0.93
PK$NUM_PEAK: 5
PK$PEAK: m/z int. rel.int.
  136.013 7145.2 1
  161.0083 9683.6 2
  193.0345 3982306.1 999
  224 102629.7 25
  401.0145 4564.7 1
//
