ACCESSION: MSBNK-Eawag-EQ01156354
RECORD_TITLE: ortho-Hydroxyatorvastatin; LC-ESI-QFT; MS2; CE: 60%; R=17500; [M-H]-
DATE: 2024.05.08
AUTHORS: C. Meyer [dtc], B. Beck [dtc,com], J. Hollender [dtc]
LICENSE: CC BY-SA
COPYRIGHT: Copyright (C) Eawag 2023
PUBLICATION: Meyer, C., Stravs, M., Hollender, J.. How Wastewater Reflects Human Metabolism - Suspect Screening of Pharmaceutical Metabolites in Wastewater Influent. doi:10.1021/acs.est.4c00968
COMMENT: CONFIDENCE standard compound
COMMENT: UCHEM_ID 11563
CH$NAME: ortho-Hydroxyatorvastatin
CH$NAME: Orthohydroxyatorvastatin
CH$NAME: (3R,5R)-7-[2-(4-fluorophenyl)-4-[(2-hydroxyphenyl)carbamoyl]-3-phenyl-5-propan-2-ylpyrrol-1-yl]-3,5-dihydroxyheptanoic acid
CH$COMPOUND_CLASS: N/A; Environmental Standard
CH$FORMULA: C33H35FN2O6
CH$EXACT_MASS: 574.2479151
CH$SMILES: CC(C1=C(C(NC2=CC=CC=C2O)=O)C(C3=CC=CC=C3)=C(C4=CC=C(F)C=C4)N1CC[C@@H](O)C[C@@H](O)CC(O)=O)C
CH$IUPAC: InChI=1S/C33H35FN2O6/c1-20(2)31-30(33(42)35-26-10-6-7-11-27(26)39)29(21-8-4-3-5-9-21)32(22-12-14-23(34)15-13-22)36(31)17-16-24(37)18-25(38)19-28(40)41/h3-15,20,24-25,37-39H,16-19H2,1-2H3,(H,35,42)(H,40,41)/t24-,25-/m1/s1
CH$LINK: PUBCHEM CID:9808225
CH$LINK: INCHIKEY CZBPKFICAYVHHM-JWQCQUIFSA-N
CH$LINK: CHEMSPIDER 7983984
AC$INSTRUMENT: Exploris 240 Orbitrap Thermo Scientific
AC$INSTRUMENT_TYPE: LC-ESI-QFT
AC$MASS_SPECTROMETRY: MS_TYPE MS2
AC$MASS_SPECTROMETRY: ION_MODE NEGATIVE
AC$MASS_SPECTROMETRY: IONIZATION ESI
AC$MASS_SPECTROMETRY: FRAGMENTATION_MODE HCD
AC$MASS_SPECTROMETRY: COLLISION_ENERGY 60 % (nominal)
AC$MASS_SPECTROMETRY: RESOLUTION 17500
AC$MASS_SPECTROMETRY: MASS_RANGE_M/Z 60-606
AC$CHROMATOGRAPHY: COLUMN_NAME XBridge C18 3.5um, 2.1x50mm, Waters
AC$CHROMATOGRAPHY: FLOW_GRADIENT 90/10 at 0 min, 50/50 at 4 min, 5/95 at 17 min, 5/95 at 25 min, 90/10 at 25.1 min, 90/10 at 30 min
AC$CHROMATOGRAPHY: FLOW_RATE 200 uL/min
AC$CHROMATOGRAPHY: RETENTION_TIME 9.939 min
MS$FOCUSED_ION: BASE_PEAK 573.2405
MS$FOCUSED_ION: PRECURSOR_M/Z 573.2406
MS$FOCUSED_ION: PRECURSOR_TYPE [M-H]-
MS$DATA_PROCESSING: RECALIBRATE loess on assigned fragments and MS1
MS$DATA_PROCESSING: REANALYZE Peaks with additional N2/O included
MS$DATA_PROCESSING: WHOLE RMassBank 3.15.1
PK$SPLASH: splash10-004i-0290000000-70e94d455f1e986ac88c
PK$ANNOTATION: m/z tentative_formula formula_count mass error(ppm)
  85.0295 C4H5O2- 1 85.0295 -0.42
  108.0455 C6H6NO- 1 108.0455 0.41
  134.0248 C7H4NO2- 1 134.0248 0.46
  262.104 C18H13FN- 1 262.1038 1.01
  263.1115 C18H14FN- 1 263.1116 -0.31
  278.1351 C19H17FN- 1 278.1351 0.33
  279.1383 C19H19O2- 1 279.1391 -2.75
  379.1234 C25H16FN2O- 3 379.1252 -4.86
  395.1565 C26H20FN2O- 2 395.1565 0.02
PK$NUM_PEAK: 9
PK$PEAK: m/z int. rel.int.
  85.0295 1385847.2 23
  108.0455 1438057.2 24
  134.0248 16942082 288
  262.104 1005498.6 17
  263.1115 553845 9
  278.1351 58690528 999
  279.1383 444892.8 7
  379.1234 145349.7 2
  395.1565 549859.5 9
//
