ACCESSION: MSBNK-Eawag-EQ317751
RECORD_TITLE: Tembotrione; LC-ESI-QFT; MS2; CE: 15; R=35000; [M-H]-
DATE: 2015.08.25
AUTHORS: Huntscha S, Stravs M, Schymanski E, Singer H, Department of Environmental Chemistry, Eawag
LICENSE: CC BY
COPYRIGHT: Copyright (C) 2015 Eawag, Duebendorf, Switzerland
COMMENT: CONFIDENCE standard compound
COMMENT: EAWAG_UCHEM_ID 3177
CH$NAME: Tembotrione
CH$NAME: 2-{2-Chloro-4-(methylsulfonyl)-3-[(2,2,2-trifluoroethoxy)methyl]benzoyl}-1,3-cyclohexanedione
CH$COMPOUND_CLASS: N/A; Environmental Standard
CH$FORMULA: C17H16ClF3O6S
CH$EXACT_MASS: 440.03082
CH$SMILES: O=C(c1ccc(c(c1Cl)COCC(F)(F)F)S(=O)(=O)C)C2C(=O)CCCC2=O
CH$IUPAC: InChI=1S/C17H16ClF3O6S/c1-28(25,26)13-6-5-9(15(18)10(13)7-27-8-17(19,20)21)16(24)14-11(22)3-2-4-12(14)23/h5-6,14H,2-4,7-8H2,1H3
CH$LINK: CAS 335104-84-2
CH$LINK: PUBCHEM CID:11556911
CH$LINK: INCHIKEY IUQAXCIUEPFPSF-UHFFFAOYSA-N
CH$LINK: CHEMSPIDER 9731688
CH$LINK: COMPTOX DTXSID5047037
AC$INSTRUMENT: Q Exactive Orbitrap Thermo Scientific
AC$INSTRUMENT_TYPE: LC-ESI-QFT
AC$MASS_SPECTROMETRY: MS_TYPE MS2
AC$MASS_SPECTROMETRY: ION_MODE NEGATIVE
AC$MASS_SPECTROMETRY: IONIZATION ESI
AC$MASS_SPECTROMETRY: FRAGMENTATION_MODE HCD
AC$MASS_SPECTROMETRY: COLLISION_ENERGY 15 (nominal)
AC$MASS_SPECTROMETRY: RESOLUTION 35000
AC$CHROMATOGRAPHY: COLUMN_NAME XBridge C18 3.5um, 2.1x50mm, Waters
AC$CHROMATOGRAPHY: FLOW_GRADIENT 90/10 at 0 min, 50/50 at 4 min, 5/95 at 17 min, 5/95 at 25 min, 90/10 at 25.1 min, 90/10 at 30 min
AC$CHROMATOGRAPHY: FLOW_RATE 200 ul/min
AC$CHROMATOGRAPHY: RETENTION_TIME 9.9 min
AC$CHROMATOGRAPHY: SOLVENT A water with 0.1% formic acid
AC$CHROMATOGRAPHY: SOLVENT B methanol with 0.1% formic acid
MS$FOCUSED_ION: BASE_PEAK 439.0241
MS$FOCUSED_ION: PRECURSOR_M/Z 439.0235
MS$FOCUSED_ION: PRECURSOR_TYPE [M-H]-
MS$DATA_PROCESSING: DEPROFILE Spline
MS$DATA_PROCESSING: RECALIBRATE loess on assigned fragments and MS1
MS$DATA_PROCESSING: REANALYZE Peaks with additional N2/O included
MS$DATA_PROCESSING: WHOLE RMassBank 1.9.6
PK$SPLASH: splash10-0udi-0000900000-6417d343b9b67e36f9bd
PK$ANNOTATION: m/z tentative_formula formula_count mass error(ppm)
  239.0716 C15H11O3- 4 239.0714 1.05
  403.0468 C17H14F3O6S- 1 403.0469 -0.24
PK$NUM_PEAK: 2
PK$PEAK: m/z int. rel.int.
  239.0716 208130.5 1
  403.0468 154103303.5 999
//
