ACCESSION: MSBNK-Eawag-EQ419503
RECORD_TITLE: Asulam-TP Sulfanilamide; LC-ESI-QFT; MS2; CE: 45%; R=17500; [M+H]+
DATE: 2019.12.03
AUTHORS: K. Kiefer [dtc], J. Hollender [dtc], H. Singer [dtc], M. Stravs [com]
LICENSE: CC BY-SA
COPYRIGHT: Copyright (C) Eawag 2019
PUBLICATION: Kiefer, K.; Mueller, A.; Singer, H.; Hollender, J. New relevant pesticide transformation products in groundwater detected using target and suspect screening for agricultural and urban micropollutants with LC-HRMS. Water Research 2019, 165. DOI: https://doi.org/10.1016/j.watres.2019.114972
COMMENT: CONFIDENCE standard compound
COMMENT: UCHEM_ID 4195
CH$NAME: Asulam-TP Sulfanilamide
CH$NAME: Sulfanilamide
CH$NAME: 4-aminobenzenesulfonamide
CH$COMPOUND_CLASS: N/A; Environmental Standard
CH$FORMULA: C6H8N2O2S
CH$EXACT_MASS: 172.0306
CH$SMILES: C1=C(C=CC(=C1)S(=O)(=O)N)N
CH$IUPAC: InChI=1S/C6H8N2O2S/c7-5-1-3-6(4-2-5)11(8,9)10/h1-4H,7H2,(H2,8,9,10)
CH$LINK: CAS 63-74-1
CH$LINK: CHEBI CHEBI:45373
CH$LINK: KEGG D08543
CH$LINK: PUBCHEM CID:5333
CH$LINK: INCHIKEY FDDDEECHVMSUSB-UHFFFAOYSA-N
CH$LINK: CHEMSPIDER 5142
AC$INSTRUMENT: Q Exactive Plus Orbitrap Thermo Scientific
AC$INSTRUMENT_TYPE: LC-ESI-QFT
AC$MASS_SPECTROMETRY: MS_TYPE MS2
AC$MASS_SPECTROMETRY: ION_MODE POSITIVE
AC$MASS_SPECTROMETRY: IONIZATION ESI
AC$MASS_SPECTROMETRY: FRAGMENTATION_MODE HCD
AC$MASS_SPECTROMETRY: COLLISION_ENERGY 45 % (nominal)
AC$MASS_SPECTROMETRY: RESOLUTION 17500
AC$CHROMATOGRAPHY: COLUMN_NAME XBridge C18 3.5um, 2.1x50mm, Waters
AC$CHROMATOGRAPHY: FLOW_GRADIENT 90/10 at 0 min, 50/50 at 4 min, 5/95 at 17 min, 5/95 at 25 min, 90/10 at 25.1 min, 90/10 at 30 min
AC$CHROMATOGRAPHY: FLOW_RATE 200 uL/min
AC$CHROMATOGRAPHY: RETENTION_TIME 1.130 min
AC$CHROMATOGRAPHY: SOLVENT A water with 0.1% formic acid
AC$CHROMATOGRAPHY: SOLVENT B MeOH with 0.1% formic acid
MS$FOCUSED_ION: BASE_PEAK 156.0115
MS$FOCUSED_ION: PRECURSOR_M/Z 173.0379
MS$FOCUSED_ION: PRECURSOR_TYPE [M+H]+
MS$DATA_PROCESSING: RECALIBRATE loess on assigned fragments and MS1
MS$DATA_PROCESSING: REANALYZE Peaks with additional N2/O included
MS$DATA_PROCESSING: WHOLE RMassBank 2.99.1
PK$SPLASH: splash10-00dl-5900000000-e00c9fecb930060151e5
PK$ANNOTATION: m/z tentative_formula formula_count mass error(ppm)
  53.0387 C4H5+ 1 53.0386 1.77
  55.0178 C3H3O+ 1 55.0178 -1.53
  65.0386 C5H5+ 1 65.0386 0.22
  68.0495 C4H6N+ 1 68.0495 0.64
  69.0334 C4H5O+ 1 69.0335 -0.75
  75.0227 C6H3+ 1 75.0229 -2.71
  78.0338 C5H4N+ 1 78.0338 -0.72
  79.0178 C5H3O+ 1 79.0178 -0.56
  80.0494 C5H6N+ 1 80.0495 -0.46
  92.0495 C6H6N+ 1 92.0495 0.5
  93.0574 C6H7N+ 1 93.0573 0.68
  94.0651 C6H8N+ 1 94.0651 -0.35
  96.0445 C5H6NO+ 1 96.0444 0.76
  108.0444 C6H6NO+ 1 108.0444 0.18
  110.0601 C6H8NO+ 1 110.06 0.4
  125.0473 C6H7NO2+ 1 125.0471 1.32
  138.9851 C6H3O2S+ 1 138.9848 2.22
  156.0114 C6H6NO2S+ 1 156.0114 0.11
  173.038 C6H9N2O2S+ 1 173.0379 0.67
PK$NUM_PEAK: 25
PK$PEAK: m/z int. rel.int.
  53.0387 7812.9 2
  55.0178 9675.4 2
  56.9422 17410.6 4
  65.0386 152959.5 39
  68.0495 123756.5 31
  69.0334 9493.4 2
  75.0227 10420.3 2
  78.0338 11623.8 2
  79.0178 18042.5 4
  80.0494 16456.6 4
  80.9453 9888.9 2
  92.0495 1132811.6 291
  93.0574 1817569.6 468
  94.0651 13556.8 3
  96.0445 15095 3
  108.0444 1045462.1 269
  110.0601 231369.9 59
  120.0558 27884 7
  125.0473 114120.3 29
  138.9851 12902.6 3
  156.0114 234374.8 60
  157.0146 13927.6 3
  173.038 3877523.5 999
  174.022 25768.7 6
  184.0177 17947.1 4
//
