ACCESSION: MSBNK-Eawag-EQ01127906
RECORD_TITLE: Mefentrifluconazole; LC-ESI-QFT; MS2; CE: 90%; R=17500; [M+H]+
DATE: 2023.04.27
AUTHORS: B. Beck [dtc,com], J. Hollender [dtc]
LICENSE: CC BY-SA
COPYRIGHT: Copyright (C) Eawag 2023
COMMENT: CONFIDENCE standard compound
COMMENT: UCHEM_ID 11279
CH$NAME: Mefentrifluconazole
CH$NAME: 2-[4-(4-chlorophenoxy)-2-(trifluoromethyl)phenyl]-1-(1,2,4-triazol-1-yl)propan-2-ol
CH$COMPOUND_CLASS: N/A; Environmental Standard
CH$FORMULA: C18H15ClF3N3O2
CH$EXACT_MASS: 397.0805
CH$SMILES: CC(CN1C=NC=N1)(C2=C(C=C(C=C2)OC3=CC=C(C=C3)Cl)C(F)(F)F)O
CH$IUPAC: InChI=1S/C18H15ClF3N3O2/c1-17(26,9-25-11-23-10-24-25)15-7-6-14(8-16(15)18(20,21)22)27-13-4-2-12(19)3-5-13/h2-8,10-11,26H,9H2,1H3
CH$LINK: CAS 1417782-03-6
CH$LINK: CHEBI CHEBI:144539
CH$LINK: PUBCHEM CID:71230671
CH$LINK: INCHIKEY JERZEQUMJNCPRJ-UHFFFAOYSA-N
CH$LINK: CHEMSPIDER 32699369
AC$INSTRUMENT: Exploris 240 Orbitrap Thermo Scientific
AC$INSTRUMENT_TYPE: LC-ESI-QFT
AC$MASS_SPECTROMETRY: MS_TYPE MS2
AC$MASS_SPECTROMETRY: ION_MODE POSITIVE
AC$MASS_SPECTROMETRY: IONIZATION ESI
AC$MASS_SPECTROMETRY: FRAGMENTATION_MODE HCD
AC$MASS_SPECTROMETRY: COLLISION_ENERGY 90 % (nominal)
AC$MASS_SPECTROMETRY: RESOLUTION 17500
AC$MASS_SPECTROMETRY: MASS_RANGE_M/Z 50-427
AC$CHROMATOGRAPHY: COLUMN_NAME XBridge C18 3.5um, 2.1x50mm, Waters
AC$CHROMATOGRAPHY: FLOW_GRADIENT 90/10 at 0 min, 50/50 at 4 min, 5/95 at 17 min, 5/95 at 25 min, 90/10 at 25.1 min, 90/10 at 30 min
AC$CHROMATOGRAPHY: FLOW_RATE 200 uL/min
AC$CHROMATOGRAPHY: RETENTION_TIME 11.563 min
MS$FOCUSED_ION: BASE_PEAK 398.0878
MS$FOCUSED_ION: PRECURSOR_M/Z 398.0878
MS$FOCUSED_ION: PRECURSOR_TYPE [M+H]+
MS$DATA_PROCESSING: RECALIBRATE loess on assigned fragments and MS1
MS$DATA_PROCESSING: REANALYZE Peaks with additional N2/O included
MS$DATA_PROCESSING: WHOLE RMassBank 3.11.0.1
PK$SPLASH: splash10-00di-9100000000-7223fb3ac2c0397c8593
PK$ANNOTATION: m/z tentative_formula formula_count mass error(ppm)
  70.04 C2H4N3+ 1 70.04 0.05
  131.0493 C9H7O+ 3 131.0491 1.36
  132.0572 C4H7FN3O+ 3 132.0568 2.99
  133.0449 C9H6F+ 2 133.0448 0.55
  134.0526 C9H7F+ 2 134.0526 -0.58
  139.0355 C8H5F2+ 2 139.0354 0.79
  143.0492 C10H7O+ 3 143.0491 0.06
  153.0511 C9H7F2+ 2 153.051 0.33
  162.0477 C10H7FO+ 3 162.0475 0.68
  167.0305 C9H5F2O+ 3 167.0303 1.11
  178.0779 C14H10+ 3 178.0777 0.9
  181.0457 C5H6F3N3O+ 4 181.0457 -0.38
  205.065 C12H10FO2+ 5 205.0659 -4.62
PK$NUM_PEAK: 13
PK$PEAK: m/z int. rel.int.
  70.04 261728592 999
  131.0493 1632270.5 6
  132.0572 1775440.5 6
  133.0449 4941063.5 18
  134.0526 4701073 17
  139.0355 1536324.5 5
  143.0492 2022034.1 7
  153.0511 1528547.8 5
  162.0477 2496007.5 9
  167.0305 7951814.5 30
  178.0779 1829459.1 6
  181.0457 4255720.5 16
  205.065 1166984.2 4
//
