ACCESSION: MSBNK-Eawag-EQ01155101
RECORD_TITLE: 4-Hydroxypropanolol-sulfate; LC-ESI-QFT; MS2; CE: 15%; R=17500; [M+H]+
DATE: 2024.05.08
AUTHORS: C. Meyer [dtc], B. Beck [dtc,com], J. Hollender [dtc]
LICENSE: CC BY-SA
COPYRIGHT: Copyright (C) Eawag 2023
PUBLICATION: Meyer, C., Stravs, M., Hollender, J.. How Wastewater Reflects Human Metabolism - Suspect Screening of Pharmaceutical Metabolites in Wastewater Influent. doi:10.1021/acs.est.4c00968
COMMENT: CONFIDENCE standard compound
COMMENT: UCHEM_ID 11551
CH$NAME: 4-Hydroxypropanolol-sulfate
CH$NAME: 4-[2-Hydroxy-3-(propan-2-ylamino)propoxy]naphthalen-1-yl hydrogen sulfate
CH$NAME: [4-[2-hydroxy-3-(propan-2-ylamino)propoxy]naphthalen-1-yl] hydrogen sulfate
CH$NAME: HOPS
CH$COMPOUND_CLASS: N/A; Environmental Standard
CH$FORMULA: C16H21NO6S
CH$EXACT_MASS: 355.1089584
CH$SMILES: CC(C)NCC(COC1=CC=C(C2=CC=CC=C21)OS(=O)(=O)O)O
CH$IUPAC: InChI=1S/C16H21NO6S/c1-11(2)17-9-12(18)10-22-15-7-8-16(23-24(19,20)21)14-6-4-3-5-13(14)15/h3-8,11-12,17-18H,9-10H2,1-2H3,(H,19,20,21)
CH$LINK: PUBCHEM CID:135862
CH$LINK: INCHIKEY ODCKICSDIPVTRM-UHFFFAOYSA-N
CH$LINK: CHEMSPIDER 119654
AC$INSTRUMENT: Exploris 240 Orbitrap Thermo Scientific
AC$INSTRUMENT_TYPE: LC-ESI-QFT
AC$MASS_SPECTROMETRY: MS_TYPE MS2
AC$MASS_SPECTROMETRY: ION_MODE POSITIVE
AC$MASS_SPECTROMETRY: IONIZATION ESI
AC$MASS_SPECTROMETRY: FRAGMENTATION_MODE HCD
AC$MASS_SPECTROMETRY: COLLISION_ENERGY 15 % (nominal)
AC$MASS_SPECTROMETRY: RESOLUTION 17500
AC$MASS_SPECTROMETRY: MASS_RANGE_M/Z 50-384
AC$CHROMATOGRAPHY: COLUMN_NAME XBridge C18 3.5um, 2.1x50mm, Waters
AC$CHROMATOGRAPHY: FLOW_GRADIENT 90/10 at 0 min, 50/50 at 4 min, 5/95 at 17 min, 5/95 at 25 min, 90/10 at 25.1 min, 90/10 at 30 min
AC$CHROMATOGRAPHY: FLOW_RATE 200 uL/min
AC$CHROMATOGRAPHY: RETENTION_TIME 3.203 min
MS$FOCUSED_ION: BASE_PEAK 356.1162
MS$FOCUSED_ION: PRECURSOR_M/Z 356.1162
MS$FOCUSED_ION: PRECURSOR_TYPE [M+H]+
MS$DATA_PROCESSING: RECALIBRATE loess on assigned fragments and MS1
MS$DATA_PROCESSING: REANALYZE Peaks with additional N2/O included
MS$DATA_PROCESSING: WHOLE RMassBank 3.15.1
PK$SPLASH: splash10-0a4i-0009000000-78803afc11fefdb61516
PK$ANNOTATION: m/z tentative_formula formula_count mass error(ppm)
  116.1072 C6H14NO+ 2 116.107 1.65
  276.1596 C16H22NO3+ 1 276.1594 0.81
  356.1163 C16H22NO6S+ 1 356.1162 0.12
PK$NUM_PEAK: 3
PK$PEAK: m/z int. rel.int.
  116.1072 871582.6 7
  276.1596 9139147 78
  356.1163 116450056 999
//
