ACCESSION: MSBNK-Eawag-EQ421051
RECORD_TITLE: Cymoxanil-TP IN-KQ960; LC-ESI-QFT; MS2; CE: 15%; R=17500; [M-H]-
DATE: 2019.12.03
AUTHORS: K. Kiefer [dtc], J. Hollender [dtc], H. Singer [dtc], M. Stravs [com]
LICENSE: CC BY-SA
COPYRIGHT: Copyright (C) Eawag 2019
PUBLICATION: Kiefer, K.; Mueller, A.; Singer, H.; Hollender, J. New relevant pesticide transformation products in groundwater detected using target and suspect screening for agricultural and urban micropollutants with LC-HRMS. Water Research 2019, 165. DOI: https://doi.org/10.1016/j.watres.2019.114972
COMMENT: CONFIDENCE standard compound
COMMENT: UCHEM_ID 4210
CH$NAME: Cymoxanil-TP IN-KQ960
CH$NAME: 3-ethyl-4-(methoxyamino)-2,5-dioxoimidazolidine-4-carboxamide
CH$COMPOUND_CLASS: N/A; Environmental Standard
CH$FORMULA: C7H12N4O4
CH$EXACT_MASS: 216.0859
CH$SMILES: CCN1C(=O)NC(=O)C1(NOC)C(N)=O
CH$IUPAC: InChI=1S/C7H12N4O4/c1-3-11-6(14)9-5(13)7(11,4(8)12)10-15-2/h10H,3H2,1-2H3,(H2,8,12)(H,9,13,14)
CH$LINK: CAS 644972-61-2
CH$LINK: PUBCHEM CID:45095227
CH$LINK: INCHIKEY CTDZGEFRMQIFFW-UHFFFAOYSA-N
CH$LINK: CHEMSPIDER 23089819
AC$INSTRUMENT: Q Exactive Orbitrap Thermo Scientific
AC$INSTRUMENT_TYPE: LC-ESI-QFT
AC$MASS_SPECTROMETRY: MS_TYPE MS2
AC$MASS_SPECTROMETRY: ION_MODE NEGATIVE
AC$MASS_SPECTROMETRY: IONIZATION ESI
AC$MASS_SPECTROMETRY: FRAGMENTATION_MODE HCD
AC$MASS_SPECTROMETRY: COLLISION_ENERGY 15 % (nominal)
AC$MASS_SPECTROMETRY: RESOLUTION 17500
AC$CHROMATOGRAPHY: COLUMN_NAME XBridge C18 3.5um, 2.1x50mm, Waters
AC$CHROMATOGRAPHY: FLOW_GRADIENT 90/10 at 0 min, 50/50 at 4 min, 5/95 at 17 min, 5/95 at 25 min, 90/10 at 25.1 min, 90/10 at 30 min
AC$CHROMATOGRAPHY: FLOW_RATE 200 uL/min
AC$CHROMATOGRAPHY: RETENTION_TIME 1.951 min
AC$CHROMATOGRAPHY: SOLVENT A water with 0.1% formic acid
AC$CHROMATOGRAPHY: SOLVENT B MeOH with 0.1% formic acid
MS$FOCUSED_ION: BASE_PEAK 140.0465
MS$FOCUSED_ION: PRECURSOR_M/Z 215.0786
MS$FOCUSED_ION: PRECURSOR_TYPE [M-H]-
MS$DATA_PROCESSING: RECALIBRATE loess on assigned fragments and MS1
MS$DATA_PROCESSING: REANALYZE Peaks with additional N2/O included
MS$DATA_PROCESSING: WHOLE RMassBank 2.99.1
PK$SPLASH: splash10-0006-3900000000-2c24f2c37fccd70c456f
PK$ANNOTATION: m/z tentative_formula formula_count mass error(ppm)
  69.0095 C2HN2O- 1 69.0094 0.85
  69.0457 C3H5N2- 1 69.0458 -1.72
  140.0465 C5H6N3O2- 1 140.0466 -0.11
PK$NUM_PEAK: 3
PK$PEAK: m/z int. rel.int.
  69.0095 23929.6 254
  69.0457 13821 147
  140.0465 93819.4 999
//
