ACCESSION: MSBNK-Eawag-EA277002
RECORD_TITLE: Aspartame; LC-ESI-ITFT; MS2; CE: 15%; R=7500; [M+H]+
DATE: 2014.01.14
AUTHORS: Stravs M, Schymanski E, Singer H, Department of Environmental Chemistry, Eawag
LICENSE: CC BY
COPYRIGHT: Copyright (C) 2012 Eawag, Duebendorf, Switzerland
COMMENT: CONFIDENCE standard compound
COMMENT: EAWAG_UCHEM_ID 2770
CH$NAME: Aspartame
CH$NAME: 3-amino-4-[(1-benzyl-2-keto-2-methoxy-ethyl)amino]-4-keto-butyric acid
CH$COMPOUND_CLASS: N/A; Environmental Standard
CH$FORMULA: C14H18N2O5
CH$EXACT_MASS: 294.1216
CH$SMILES: COC(=O)C(CC1=CC=CC=C1)NC(=O)C(CC(=O)O)N
CH$IUPAC: InChI=1S/C14H18N2O5/c1-21-14(20)11(7-9-5-3-2-4-6-9)16-13(19)10(15)8-12(17)18/h2-6,10-11H,7-8,15H2,1H3,(H,16,19)(H,17,18)/t10-,11-/m0/s1
CH$LINK: CAS 22839-47-0
CH$LINK: CHEBI CHEBI:2877
CH$LINK: KEGG C11045
CH$LINK: PUBCHEM CID:134601
CH$LINK: INCHIKEY IAOZJIPTCAWIRG-QWRGUYRKSA-N
CH$LINK: CHEMSPIDER 2155
CH$LINK: COMPTOX DTXSID0020107
AC$INSTRUMENT: LTQ Orbitrap XL Thermo Scientific
AC$INSTRUMENT_TYPE: LC-ESI-ITFT
AC$MASS_SPECTROMETRY: MS_TYPE MS2
AC$MASS_SPECTROMETRY: ION_MODE POSITIVE
AC$MASS_SPECTROMETRY: IONIZATION ESI
AC$MASS_SPECTROMETRY: FRAGMENTATION_MODE HCD
AC$MASS_SPECTROMETRY: COLLISION_ENERGY 15 % (nominal)
AC$MASS_SPECTROMETRY: RESOLUTION 7500
AC$CHROMATOGRAPHY: COLUMN_NAME XBridge C18 3.5um, 2.1x50mm, Waters
AC$CHROMATOGRAPHY: FLOW_GRADIENT 90/10 at 0 min, 50/50 at 4 min, 5/95 at 17 min, 5/95 at 25 min, 90/10 at 25.1 min, 90/10 at 30 min
AC$CHROMATOGRAPHY: FLOW_RATE 200 ul/min
AC$CHROMATOGRAPHY: RETENTION_TIME 4.8 min
AC$CHROMATOGRAPHY: SOLVENT A water with 0.1% formic acid
AC$CHROMATOGRAPHY: SOLVENT B methanol with 0.1% formic acid
MS$FOCUSED_ION: BASE_PEAK 295.1297
MS$FOCUSED_ION: PRECURSOR_M/Z 295.1288
MS$FOCUSED_ION: PRECURSOR_TYPE [M+H]+
MS$DATA_PROCESSING: DEPROFILE Spline
MS$DATA_PROCESSING: RECALIBRATE loess on assigned fragments and MS1
MS$DATA_PROCESSING: REANALYZE Peaks with additional N2/O included
MS$DATA_PROCESSING: WHOLE RMassBank 1.3.1
PK$SPLASH: splash10-0002-0190000000-a2c0eea755498aff2796
PK$ANNOTATION: m/z tentative_formula formula_count mass error(ppm)
  70.0287 C3H4NO+ 1 70.0287 -0.72
  120.0808 C8H10N+ 1 120.0808 -0.13
  163.0754 C10H11O2+ 1 163.0754 0.09
  175.0867 C10H11N2O+ 1 175.0866 0.46
  180.1019 C10H14NO2+ 1 180.1019 -0.03
  189.1022 C11H13N2O+ 1 189.1022 -0.1
  190.086 C11H12NO2+ 1 190.0863 -1.29
  200.0705 C12H10NO2+ 1 200.0706 -0.52
  217.0973 C12H13N2O2+ 1 217.0972 0.53
  218.0814 C12H12NO3+ 1 218.0812 1.24
  228.0653 C13H10NO3+ 1 228.0655 -0.83
  235.1078 C12H15N2O3+ 1 235.1077 0.22
  245.0919 C13H13N2O3+ 1 245.0921 -0.65
  246.0751 C13H12NO4+ 1 246.0761 -4.2
  249.1239 C13H17N2O3+ 1 249.1234 2.13
  260.0915 C14H14NO4+ 1 260.0917 -0.71
  263.1025 C13H15N2O4+ 1 263.1026 -0.58
  277.118 C14H17N2O4+ 1 277.1183 -0.91
  278.1018 C14H16NO5+ 1 278.1023 -1.65
  295.1289 C14H19N2O5+ 1 295.1288 0.28
PK$NUM_PEAK: 20
PK$PEAK: m/z int. rel.int.
  70.0287 22736.1 9
  120.0808 187835.6 76
  163.0754 13396.6 5
  175.0867 84767.2 34
  180.1019 621966.2 253
  189.1022 11446.7 4
  190.086 7236.9 2
  200.0705 80387.1 32
  217.0973 60655.8 24
  218.0814 14061.6 5
  228.0653 36630.5 14
  235.1078 935576.9 381
  245.0919 307249.8 125
  246.0751 9012.9 3
  249.1239 12284.1 5
  260.0915 366641.3 149
  263.1025 207710.8 84
  277.118 677935.2 276
  278.1018 36020.5 14
  295.1289 2448853.2 999
//
