ACCESSION: MSBNK-Eawag-EQ01108453
RECORD_TITLE: 2-Acetylaminofluorene; LC-ESI-QFT; MS2; CE: 45%; R=15000; [M-H]-
DATE: 2024.06.14
AUTHORS: F. Jud [dtc], K. Arturi [dtc], J. Hollender [dtc], A. Dax [com]
LICENSE: CC BY-SA
COPYRIGHT: Copyright (C) Eawag 2024
COMMENT: CONFIDENCE standard compound
COMMENT: UCHEM_ID 11084
CH$NAME: 2-Acetylaminofluorene
CH$NAME: N-(9H-fluoren-2-yl)acetamide
CH$COMPOUND_CLASS: N/A
CH$FORMULA: C15H13NO
CH$EXACT_MASS: 223.099714
CH$SMILES: CC(=O)NC1=CC=C2C(CC3=C2C=CC=C3)=C1
CH$IUPAC: InChI=1S/C15H13NO/c1-10(17)16-13-6-7-15-12(9-13)8-11-4-2-3-5-14(11)15/h2-7,9H,8H2,1H3,(H,16,17)
CH$LINK: CAS 53-96-3
CH$LINK: CHEBI CHEBI:17356
CH$LINK: KEGG C02778
CH$LINK: PUBCHEM CID:5897
CH$LINK: INCHIKEY CZIHNRWJTSTCEX-UHFFFAOYSA-N
CH$LINK: CHEMSPIDER 5686
AC$INSTRUMENT: Q Exactive Plus
AC$INSTRUMENT_TYPE: LC-ESI-QFT
AC$MASS_SPECTROMETRY: MS_TYPE MS2
AC$MASS_SPECTROMETRY: ION_MODE NEGATIVE
AC$MASS_SPECTROMETRY: IONIZATION ESI
AC$MASS_SPECTROMETRY: FRAGMENTATION_MODE HCD
AC$MASS_SPECTROMETRY: COLLISION_ENERGY 45 % (nominal)
AC$MASS_SPECTROMETRY: RESOLUTION 15000
AC$MASS_SPECTROMETRY: MASS_RANGE_M/Z 50-245
AC$CHROMATOGRAPHY: COLUMN_NAME XBridge C18 3.5um, 2.1x50mm, Waters
AC$CHROMATOGRAPHY: FLOW_GRADIENT 90/10 at 0 min, 50/50 at 4 min, 5/95 at 17 min, 5/95 at 25 min, 90/10 at 25.1 min, 90/10 at 30 min
AC$CHROMATOGRAPHY: FLOW_RATE 200 uL/min
AC$CHROMATOGRAPHY: RETENTION_TIME 8.899 min
MS$FOCUSED_ION: BASE_PEAK 116.9287
MS$FOCUSED_ION: PRECURSOR_M/Z 222.0924
MS$FOCUSED_ION: PRECURSOR_TYPE [M-H]-
MS$FOCUSED_ION: PRECURSOR_INTENSITY 4452493.24
MS$DATA_PROCESSING: RECALIBRATE loess on assigned fragments and MS1
MS$DATA_PROCESSING: REANALYZE Peaks with additional N2/O included
MS$DATA_PROCESSING: WHOLE RMassBank 3.15.1.1
PK$SPLASH: splash10-001i-0940000000-95b31fadc01411280a03
PK$ANNOTATION: m/z tentative_formula formula_count mass error(ppm)
  179.0737 C13H9N- 1 179.074 -1.67
  180.0819 C13H10N- 1 180.0819 0.13
  206.0613 C14H8NO- 1 206.0611 0.79
  222.0925 C15H12NO- 1 222.0924 0.18
PK$NUM_PEAK: 4
PK$PEAK: m/z int. rel.int.
  179.0737 36495.8 31
  180.0819 1153143.2 999
  206.0613 41740.7 36
  222.0925 544096.8 471
//
