ACCESSION: MSBNK-Eawag-EQ300803
RECORD_TITLE: Nicotine; LC-ESI-QFT; MS2; CE: 45; R=35000; [M+H]+
DATE: 2015.08.25
AUTHORS: Beck B, Stravs M, Schymanski E, Singer H, Department of Environmental Chemistry, Eawag
LICENSE: CC BY
COPYRIGHT: Copyright (C) 2015 Eawag, Duebendorf, Switzerland
COMMENT: CONFIDENCE standard compound
COMMENT: EAWAG_UCHEM_ID 3008
CH$NAME: Nicotine
CH$NAME: 3-[(2S)-1-methylpyrrolidin-2-yl]pyridine
CH$NAME: 3-[(2S)-1-methyl-2-pyrrolidinyl]pyridine
CH$COMPOUND_CLASS: N/A; Environmental Standard
CH$FORMULA: C10H14N2
CH$EXACT_MASS: 162.11570
CH$SMILES: n1cc(ccc1)[C@H]2N(C)CCC2
CH$IUPAC: InChI=1S/C10H14N2/c1-12-7-3-5-10(12)9-4-2-6-11-8-9/h2,4,6,8,10H,3,5,7H2,1H3/t10-/m0/s1
CH$LINK: CAS 54-11-5
CH$LINK: CHEBI CHEBI:17688
CH$LINK: HMDB HMDB01934
CH$LINK: KEGG C00745
CH$LINK: PUBCHEM CID:89594
CH$LINK: INCHIKEY SNICXCGAKADSCV-JTQLQIEISA-N
CH$LINK: CHEMSPIDER 80863
CH$LINK: COMPTOX DTXSID1020930
AC$INSTRUMENT: Q Exactive Orbitrap Thermo Scientific
AC$INSTRUMENT_TYPE: LC-ESI-QFT
AC$MASS_SPECTROMETRY: MS_TYPE MS2
AC$MASS_SPECTROMETRY: ION_MODE POSITIVE
AC$MASS_SPECTROMETRY: IONIZATION ESI
AC$MASS_SPECTROMETRY: FRAGMENTATION_MODE HCD
AC$MASS_SPECTROMETRY: COLLISION_ENERGY 45 (nominal)
AC$MASS_SPECTROMETRY: RESOLUTION 35000
AC$CHROMATOGRAPHY: COLUMN_NAME XBridge C18 3.5um, 2.1x50mm, Waters
AC$CHROMATOGRAPHY: FLOW_GRADIENT 90/10 at 0 min, 50/50 at 4 min, 5/95 at 17 min, 5/95 at 25 min, 90/10 at 25.1 min, 90/10 at 30 min
AC$CHROMATOGRAPHY: FLOW_RATE 200 ul/min
AC$CHROMATOGRAPHY: RETENTION_TIME 0.9 min
AC$CHROMATOGRAPHY: SOLVENT A water with 0.1% formic acid
AC$CHROMATOGRAPHY: SOLVENT B methanol with 0.1% formic acid
MS$FOCUSED_ION: BASE_PEAK 163.1229
MS$FOCUSED_ION: PRECURSOR_M/Z 163.123
MS$FOCUSED_ION: PRECURSOR_TYPE [M+H]+
MS$DATA_PROCESSING: DEPROFILE Spline
MS$DATA_PROCESSING: RECALIBRATE loess on assigned fragments and MS1
MS$DATA_PROCESSING: REANALYZE Peaks with additional N2/O included
MS$DATA_PROCESSING: WHOLE RMassBank 1.9.6
PK$SPLASH: splash10-001i-0900000000-85a813588b57acf531fe
PK$ANNOTATION: m/z tentative_formula formula_count mass error(ppm)
  70.0651 C4H8N+ 1 70.0651 -0.65
  77.0382 C6H5+ 1 77.0386 -4.63
  78.0336 C5H4N+ 1 78.0338 -3.53
  80.0494 C5H6N+ 1 80.0495 -0.82
  84.0807 C5H10N+ 1 84.0808 -0.78
  92.0494 C6H6N+ 1 92.0495 -0.93
  94.065 C6H8N+ 1 94.0651 -1.12
  105.0698 C8H9+ 1 105.0699 -1.02
  106.065 C7H8N+ 1 106.0651 -1
  115.0542 C9H7+ 1 115.0542 -0.58
  117.0571 C8H7N+ 1 117.0573 -1.29
  120.0807 C8H10N+ 1 120.0808 -0.96
  130.0651 C9H8N+ 1 130.0651 -0.5
  131.0728 C9H9N+ 1 131.073 -0.84
  132.0806 C9H10N+ 1 132.0808 -0.95
  134.0965 C9H12N+ 1 134.0964 0.26
  163.1227 C10H15N2+ 1 163.123 -1.38
PK$NUM_PEAK: 17
PK$PEAK: m/z int. rel.int.
  70.0651 506065.5 3
  77.0382 177551.2 1
  78.0336 143026.2 1
  80.0494 12085808.5 89
  84.0807 20593034.4 151
  92.0494 359027.7 2
  94.065 1698897 12
  105.0698 389564.7 2
  106.065 42798616.8 315
  115.0542 1470188.7 10
  117.0571 18096250.3 133
  120.0807 18590455.2 136
  130.0651 84137095.9 619
  131.0728 500072.1 3
  132.0806 135609409.1 999
  134.0965 171765.1 1
  163.1227 96566667.3 711
//
