ACCESSION: MSBNK-Eawag-EQ00348604
RECORD_TITLE: Hymexazol; LC-ESI-QFT; MS2; CE: 60%; R=15000; [M+H]+
DATE: 2024.06.14
AUTHORS: F. Jud [dtc], K. Arturi [dtc], J. Hollender [dtc], A. Dax [com]
LICENSE: CC BY-SA
COPYRIGHT: Copyright (C) Eawag 2024
COMMENT: CONFIDENCE standard compound
COMMENT: UCHEM_ID 3486
CH$NAME: Hymexazol
CH$NAME: 5-methyl-1,2-oxazol-3-one
CH$COMPOUND_CLASS: N/A
CH$FORMULA: C4H5NO2
CH$EXACT_MASS: 99.0320284
CH$SMILES: CC1=CC(=O)NO1
CH$IUPAC: InChI=1S/C4H5NO2/c1-3-2-4(6)5-7-3/h2H,1H3,(H,5,6)
CH$LINK: CAS 10004-44-1
CH$LINK: CHEBI CHEBI:5827
CH$LINK: KEGG C11103
CH$LINK: PUBCHEM CID:24781
CH$LINK: INCHIKEY KGVPNLBXJKTABS-UHFFFAOYSA-N
CH$LINK: CHEMSPIDER 23167
AC$INSTRUMENT: Exploris 240 Thermo Scientific
AC$INSTRUMENT_TYPE: LC-ESI-QFT
AC$MASS_SPECTROMETRY: MS_TYPE MS2
AC$MASS_SPECTROMETRY: ION_MODE POSITIVE
AC$MASS_SPECTROMETRY: IONIZATION ESI
AC$MASS_SPECTROMETRY: FRAGMENTATION_MODE HCD
AC$MASS_SPECTROMETRY: COLLISION_ENERGY 60 % (nominal)
AC$MASS_SPECTROMETRY: RESOLUTION 15000
AC$MASS_SPECTROMETRY: MASS_RANGE_M/Z 40-123
AC$CHROMATOGRAPHY: COLUMN_NAME XBridge C18 3.5um, 2.1x50mm, Waters
AC$CHROMATOGRAPHY: FLOW_GRADIENT 90/10 at 0 min, 50/50 at 4 min, 5/95 at 17 min, 5/95 at 25 min, 90/10 at 25.1 min, 90/10 at 30 min
AC$CHROMATOGRAPHY: FLOW_RATE 200 uL/min
AC$CHROMATOGRAPHY: RETENTION_TIME 2.158 min
MS$FOCUSED_ION: BASE_PEAK 100.0392
MS$FOCUSED_ION: PRECURSOR_M/Z 100.0393
MS$FOCUSED_ION: PRECURSOR_TYPE [M+H]+
MS$DATA_PROCESSING: RECALIBRATE loess on assigned fragments and MS1
MS$DATA_PROCESSING: REANALYZE Peaks with additional N2/O included
MS$DATA_PROCESSING: WHOLE RMassBank 3.15.1.1
PK$SPLASH: splash10-0udi-2900000000-f3777b67774402249a9e
PK$ANNOTATION: m/z tentative_formula formula_count mass error(ppm)
  43.0178 C2H3O+ 1 43.0178 -0.42
  44.013 CH2NO+ 1 44.0131 -1.5
  44.0495 C2H6N+ 1 44.0495 -0.48
  45.0335 C2H5O+ 1 45.0335 -0.12
  54.0338 C3H4N+ 1 54.0338 0.05
  55.0179 C3H3O+ 1 55.0178 0.75
  56.0495 C3H6N+ 1 56.0495 0.69
  72.0445 C3H6NO+ 1 72.0444 1.88
  82.0287 C4H4NO+ 1 82.0287 -0.32
  100.0393 C4H6NO2+ 1 100.0393 -0.32
PK$NUM_PEAK: 10
PK$PEAK: m/z int. rel.int.
  43.0178 1550471 11
  44.013 1443599.9 10
  44.0495 8403808 62
  45.0335 1749838 13
  54.0338 19520308 145
  55.0179 1884398.2 14
  56.0495 3591419.8 26
  72.0445 2585123.8 19
  82.0287 2776666.8 20
  100.0393 134038256 999
//
