ACCESSION: MSBNK-Eawag-EQ01124302
RECORD_TITLE: Ethiofencarb; LC-ESI-QFT; MS2; CE: 30%; R=17500; [M+H]+
DATE: 2023.04.27
AUTHORS: B. Beck [dtc,com], J. Hollender [dtc]
LICENSE: CC BY-SA
COPYRIGHT: Copyright (C) Eawag 2023
COMMENT: CONFIDENCE standard compound
COMMENT: UCHEM_ID 11243
CH$NAME: Ethiofencarb
CH$NAME: [2-(ethylsulfanylmethyl)phenyl] N-methylcarbamate
CH$COMPOUND_CLASS: N/A; Environmental Standard
CH$FORMULA: C11H15NO2S
CH$EXACT_MASS: 225.0823
CH$SMILES: CCSCC1=CC=CC=C1OC(=O)NC
CH$IUPAC: InChI=1S/C11H15NO2S/c1-3-15-8-9-6-4-5-7-10(9)14-11(13)12-2/h4-7H,3,8H2,1-2H3,(H,12,13)
CH$LINK: CAS 56730-58-6
CH$LINK: CHEBI CHEBI:38483
CH$LINK: KEGG C18649
CH$LINK: PUBCHEM CID:34766
CH$LINK: INCHIKEY HEZNVIYQEUHLNI-UHFFFAOYSA-N
CH$LINK: CHEMSPIDER 31991
AC$INSTRUMENT: Exploris 240 Orbitrap Thermo Scientific
AC$INSTRUMENT_TYPE: LC-ESI-QFT
AC$MASS_SPECTROMETRY: MS_TYPE MS2
AC$MASS_SPECTROMETRY: ION_MODE POSITIVE
AC$MASS_SPECTROMETRY: IONIZATION ESI
AC$MASS_SPECTROMETRY: FRAGMENTATION_MODE HCD
AC$MASS_SPECTROMETRY: COLLISION_ENERGY 30 % (nominal)
AC$MASS_SPECTROMETRY: RESOLUTION 17500
AC$MASS_SPECTROMETRY: MASS_RANGE_M/Z 50-252
AC$CHROMATOGRAPHY: COLUMN_NAME XBridge C18 3.5um, 2.1x50mm, Waters
AC$CHROMATOGRAPHY: FLOW_GRADIENT 90/10 at 0 min, 50/50 at 4 min, 5/95 at 17 min, 5/95 at 25 min, 90/10 at 25.1 min, 90/10 at 30 min
AC$CHROMATOGRAPHY: FLOW_RATE 200 uL/min
AC$CHROMATOGRAPHY: RETENTION_TIME 6.393 min
MS$FOCUSED_ION: BASE_PEAK 107.049
MS$FOCUSED_ION: PRECURSOR_M/Z 226.0896
MS$FOCUSED_ION: PRECURSOR_TYPE [M+H]+
MS$DATA_PROCESSING: RECALIBRATE loess on assigned fragments and MS1
MS$DATA_PROCESSING: REANALYZE Peaks with additional N2/O included
MS$DATA_PROCESSING: WHOLE RMassBank 3.11.0.1
PK$SPLASH: splash10-0a4i-0900000000-514d2e610a0ef322ce53
PK$ANNOTATION: m/z tentative_formula formula_count mass error(ppm)
  107.0491 C7H7O+ 1 107.0491 -0.85
  164.0705 C9H10NO2+ 1 164.0706 -0.57
  169.0685 C9H13OS+ 1 169.0682 2.23
PK$NUM_PEAK: 3
PK$PEAK: m/z int. rel.int.
  107.0491 129630808 999
  164.0705 12932654 99
  169.0685 644596.2 4
//
