ACCESSION: MSBNK-Eawag-EQ302604
RECORD_TITLE: Perindopril; LC-ESI-QFT; MS2; CE: 60; R=35000; [M+H]+
DATE: 2015.08.25
AUTHORS: Beck B, Stravs M, Schymanski E, Singer H, Department of Environmental Chemistry, Eawag
LICENSE: CC BY
COPYRIGHT: Copyright (C) 2015 Eawag, Duebendorf, Switzerland
COMMENT: CONFIDENCE standard compound
COMMENT: EAWAG_UCHEM_ID 3026
CH$NAME: Perindopril
CH$NAME: Coversyl
CH$NAME: (2S,3aS, 7aS)-1-[(2S)-2-[[(2S)-1-ethoxy-1-oxopentan-2-yl]amino]propanoyl]-2,3,3a, 4,5,6,7,7a-octahydroindole-2-carboxylic acid
CH$COMPOUND_CLASS: N/A; Environmental Standard
CH$FORMULA: C19H32N2O5
CH$EXACT_MASS: 368.23112
CH$SMILES: CCCC(C(=O)OCC)NC(C)C(=O)N1C2CCCCC2CC1C(=O)O
CH$IUPAC: InChI=1S/C19H32N2O5/c1-4-8-14(19(25)26-5-2)20-12(3)17(22)21-15-10-7-6-9-13(15)11-16(21)18(23)24/h12-16,20H,4-11H2,1-3H3,(H,23,24)
CH$LINK: CAS 82978-68-5
CH$LINK: CHEBI CHEBI:8024
CH$LINK: PUBCHEM CID:107807
CH$LINK: INCHIKEY IPVQLZZIHOAWMC-UHFFFAOYSA-N
CH$LINK: CHEMSPIDER 3380655
AC$INSTRUMENT: Q Exactive Orbitrap Thermo Scientific
AC$INSTRUMENT_TYPE: LC-ESI-QFT
AC$MASS_SPECTROMETRY: MS_TYPE MS2
AC$MASS_SPECTROMETRY: ION_MODE POSITIVE
AC$MASS_SPECTROMETRY: IONIZATION ESI
AC$MASS_SPECTROMETRY: FRAGMENTATION_MODE HCD
AC$MASS_SPECTROMETRY: COLLISION_ENERGY 60 (nominal)
AC$MASS_SPECTROMETRY: RESOLUTION 35000
AC$CHROMATOGRAPHY: COLUMN_NAME XBridge C18 3.5um, 2.1x50mm, Waters
AC$CHROMATOGRAPHY: FLOW_GRADIENT 90/10 at 0 min, 50/50 at 4 min, 5/95 at 17 min, 5/95 at 25 min, 90/10 at 25.1 min, 90/10 at 30 min
AC$CHROMATOGRAPHY: FLOW_RATE 200 ul/min
AC$CHROMATOGRAPHY: RETENTION_TIME 7.4 min
AC$CHROMATOGRAPHY: SOLVENT A water with 0.1% formic acid
AC$CHROMATOGRAPHY: SOLVENT B methanol with 0.1% formic acid
MS$FOCUSED_ION: BASE_PEAK 369.2391
MS$FOCUSED_ION: PRECURSOR_M/Z 369.2384
MS$FOCUSED_ION: PRECURSOR_TYPE [M+H]+
MS$DATA_PROCESSING: DEPROFILE Spline
MS$DATA_PROCESSING: RECALIBRATE loess on assigned fragments and MS1
MS$DATA_PROCESSING: REANALYZE Peaks with additional N2/O included
MS$DATA_PROCESSING: WHOLE RMassBank 1.9.6
PK$SPLASH: splash10-0002-9300000000-e7dd4364e0dfe20b07db
PK$ANNOTATION: m/z tentative_formula formula_count mass error(ppm)
  55.0543 C4H7+ 1 55.0542 0.42
  56.0496 C3H6N+ 1 56.0495 2.22
  69.07 C5H9+ 1 69.0699 1.21
  70.0652 C4H8N+ 1 70.0651 0.92
  72.0808 C4H10N+ 1 72.0808 0.75
  73.0649 C4H9O+ 1 73.0648 0.8
  74.0237 C2H4NO2+ 1 74.0237 0.75
  81.07 C6H9+ 1 81.0699 1.03
  97.1013 C7H13+ 1 97.1012 1.58
  98.0965 C6H12N+ 1 98.0964 1.27
  100.1123 C6H14N+ 1 100.1121 2.64
  102.0549 C4H8NO2+ 1 102.055 -0.15
  116.1071 C6H14NO+ 1 116.107 0.68
  124.1122 C8H14N+ 1 124.1121 1.08
  130.0865 C6H12NO2+ 1 130.0863 2.04
  144.1021 C7H14NO2+ 1 144.1019 1.21
  144.1385 C8H18NO+ 1 144.1383 1.38
  152.1072 C9H14NO+ 1 152.107 1.64
  168.1021 C9H14NO2+ 1 168.1019 1.04
  170.1178 C9H16NO2+ 1 170.1176 1.15
  172.1334 C9H18NO2+ 1 172.1332 0.84
  295.2023 C16H27N2O3+ 1 295.2016 2.34
PK$NUM_PEAK: 22
PK$PEAK: m/z int. rel.int.
  55.0543 368880.6 2
  56.0496 4675677.7 27
  69.07 2206263.4 12
  70.0652 1263405 7
  72.0808 31448729.4 182
  73.0649 5217661.3 30
  74.0237 4187200.3 24
  81.07 2340254.7 13
  97.1013 191832.2 1
  98.0965 171790043.4 999
  100.1123 661551.2 3
  102.0549 370760 2
  116.1071 213875.3 1
  124.1122 9320389.8 54
  130.0865 1204664.5 7
  144.1021 2636641.9 15
  144.1385 704199.5 4
  152.1072 876205.4 5
  168.1021 358197.3 2
  170.1178 13788529.5 80
  172.1334 44462393.2 258
  295.2023 491522.7 2
//
