ACCESSION: MSBNK-Eawag-EQ00352405
RECORD_TITLE: Flutolanil; LC-ESI-QFT; MS2; CE: 75%; R=15000; [M+H]+
DATE: 2024.06.14
AUTHORS: F. Jud [dtc], K. Arturi [dtc], J. Hollender [dtc], A. Dax [com]
LICENSE: CC BY-SA
COPYRIGHT: Copyright (C) Eawag 2024
COMMENT: CONFIDENCE standard compound
COMMENT: UCHEM_ID 3524
CH$NAME: Flutolanil
CH$NAME: N-(3-propan-2-yloxyphenyl)-2-(trifluoromethyl)benzamide
CH$COMPOUND_CLASS: N/A
CH$FORMULA: C17H16F3NO2
CH$EXACT_MASS: 323.1133134
CH$SMILES: CC(C)OC1=CC(NC(=O)C2=C(C=CC=C2)C(F)(F)F)=CC=C1
CH$IUPAC: InChI=1S/C17H16F3NO2/c1-11(2)23-13-7-5-6-12(10-13)21-16(22)14-8-3-4-9-15(14)17(18,19)20/h3-11H,1-2H3,(H,21,22)
CH$LINK: CAS 66332-96-5
CH$LINK: CHEBI CHEBI:81792
CH$LINK: KEGG C18502
CH$LINK: PUBCHEM CID:47898
CH$LINK: INCHIKEY PTCGDEVVHUXTMP-UHFFFAOYSA-N
CH$LINK: CHEMSPIDER 43579
AC$INSTRUMENT: Q Exactive Plus
AC$INSTRUMENT_TYPE: LC-ESI-QFT
AC$MASS_SPECTROMETRY: MS_TYPE MS2
AC$MASS_SPECTROMETRY: ION_MODE POSITIVE
AC$MASS_SPECTROMETRY: IONIZATION ESI
AC$MASS_SPECTROMETRY: FRAGMENTATION_MODE HCD
AC$MASS_SPECTROMETRY: COLLISION_ENERGY 75 % (nominal)
AC$MASS_SPECTROMETRY: RESOLUTION 15000
AC$MASS_SPECTROMETRY: MASS_RANGE_M/Z 50-350
AC$CHROMATOGRAPHY: COLUMN_NAME XBridge C18 3.5um, 2.1x50mm, Waters
AC$CHROMATOGRAPHY: FLOW_GRADIENT 90/10 at 0 min, 50/50 at 4 min, 5/95 at 17 min, 5/95 at 25 min, 90/10 at 25.1 min, 90/10 at 30 min
AC$CHROMATOGRAPHY: FLOW_RATE 200 uL/min
AC$CHROMATOGRAPHY: RETENTION_TIME 9.605 min
MS$FOCUSED_ION: BASE_PEAK 324.1206
MS$FOCUSED_ION: PRECURSOR_M/Z 324.1206
MS$FOCUSED_ION: PRECURSOR_TYPE [M+H]+
MS$FOCUSED_ION: PRECURSOR_INTENSITY 603453975.52
MS$DATA_PROCESSING: RECALIBRATE loess on assigned fragments and MS1
MS$DATA_PROCESSING: REANALYZE Peaks with additional N2/O included
MS$DATA_PROCESSING: WHOLE RMassBank 3.15.1.1
PK$SPLASH: splash10-014i-9600000000-e53388976aecc67dee9a
PK$ANNOTATION: m/z tentative_formula formula_count mass error(ppm)
  55.0179 C3H3O+ 1 55.0178 0.54
  65.0386 C5H5+ 1 65.0386 -0.36
  93.0335 C6H5O+ 1 93.0335 -0.03
  111.0441 C6H7O2+ 1 111.0441 -0.03
  130.0289 C8H4NO+ 1 130.0287 1.29
  145.0259 C7H4F3+ 1 145.026 -0.08
  173.0208 C8H4F3O+ 1 173.0209 -0.26
  214.0668 C13H9FNO+ 2 214.0663 2.32
  242.061 C14H9FNO2+ 2 242.0612 -0.73
PK$NUM_PEAK: 9
PK$PEAK: m/z int. rel.int.
  55.0179 1883121 16
  65.0386 116335608 999
  93.0335 2606514.2 22
  111.0441 36953492 317
  130.0289 15005221 128
  145.0259 23869540 204
  173.0208 15840551 136
  214.0668 1672410.2 14
  242.061 9753764 83
//
