ACCESSION: MSBNK-Eawag-EA013409
RECORD_TITLE: Fluroxypyr; LC-ESI-ITFT; MS2; CE: 30%; R=15000; [M+H]+
DATE: 2014.01.14
AUTHORS: Stravs M, Schymanski E, Singer H, Department of Environmental Chemistry, Eawag
LICENSE: CC BY
COPYRIGHT: Copyright (C) 2012 Eawag, Duebendorf, Switzerland
COMMENT: CONFIDENCE standard compound
COMMENT: EAWAG_UCHEM_ID 134
CH$NAME: Fluroxypyr
CH$NAME: 2-(4-amino-3,5-dichloro-6-fluoropyridin-2-yl)oxyacetic acid
CH$COMPOUND_CLASS: N/A; Environmental Standard
CH$FORMULA: C7H5Cl2FN2O3
CH$EXACT_MASS: 253.9667
CH$SMILES: c1(c(c(c(Cl)c(n1)F)N)Cl)OCC(O)=O
CH$IUPAC: InChI=1S/C7H5Cl2FN2O3/c8-3-5(11)4(9)7(12-6(3)10)15-1-2(13)14/h1H2,(H2,11,12)(H,13,14)
CH$LINK: CAS 69377-81-7
CH$LINK: PUBCHEM CID:50465
CH$LINK: INCHIKEY MEFQWPUMEMWTJP-UHFFFAOYSA-N
CH$LINK: CHEMSPIDER 45757
CH$LINK: COMPTOX DTXSID2034627
AC$INSTRUMENT: LTQ Orbitrap XL Thermo Scientific
AC$INSTRUMENT_TYPE: LC-ESI-ITFT
AC$MASS_SPECTROMETRY: MS_TYPE MS2
AC$MASS_SPECTROMETRY: ION_MODE POSITIVE
AC$MASS_SPECTROMETRY: IONIZATION ESI
AC$MASS_SPECTROMETRY: FRAGMENTATION_MODE HCD
AC$MASS_SPECTROMETRY: COLLISION_ENERGY 30 % (nominal)
AC$MASS_SPECTROMETRY: RESOLUTION 15000
AC$CHROMATOGRAPHY: COLUMN_NAME XBridge C18 3.5um, 2.1x50mm, Waters
AC$CHROMATOGRAPHY: FLOW_GRADIENT 90/10 at 0 min, 50/50 at 4 min, 5/95 at 17 min, 5/95 at 25 min, 90/10 at 25.1 min, 90/10 at 30 min
AC$CHROMATOGRAPHY: FLOW_RATE 200 ul/min
AC$CHROMATOGRAPHY: RETENTION_TIME 6.9 min
AC$CHROMATOGRAPHY: SOLVENT A water with 0.1% formic acid
AC$CHROMATOGRAPHY: SOLVENT B methanol with 0.1% formic acid
MS$FOCUSED_ION: BASE_PEAK 276.9555
MS$FOCUSED_ION: PRECURSOR_M/Z 254.9734
MS$FOCUSED_ION: PRECURSOR_TYPE [M+H]+
MS$DATA_PROCESSING: DEPROFILE Spline
MS$DATA_PROCESSING: RECALIBRATE loess on assigned fragments and MS1
MS$DATA_PROCESSING: REANALYZE Peaks with additional N2/O included
MS$DATA_PROCESSING: WHOLE RMassBank 1.3.1
PK$SPLASH: splash10-0a4i-0290000000-070c13a80174ce1c4c06
PK$ANNOTATION: m/z tentative_formula formula_count mass error(ppm)
  180.9729 C5H4Cl2FN2+ 1 180.973 -0.71
  196.9679 C5H4Cl2FN2O+ 1 196.9679 -0.32
  208.9678 C6H4Cl2FN2O+ 1 208.9679 -0.44
  236.9626 C7H4Cl2FN2O2+ 1 236.9628 -1.17
  254.9732 C7H6Cl2FN2O3+ 1 254.9734 -0.75
PK$NUM_PEAK: 5
PK$PEAK: m/z int. rel.int.
  180.9729 50242.9 192
  196.9679 63085.2 242
  208.9678 260380.1 999
  236.9626 58688.1 225
  254.9732 47582.3 182
//
