ACCESSION: MSBNK-Eawag-EA020508
RECORD_TITLE: Ketoprofen; LC-ESI-ITFT; MS2; CE: 15%; R=15000; [M+H]+
DATE: 2014.01.14
AUTHORS: Stravs M, Schymanski E, Singer H, Department of Environmental Chemistry, Eawag
LICENSE: CC BY
COPYRIGHT: Copyright (C) 2012 Eawag, Duebendorf, Switzerland
COMMENT: CONFIDENCE standard compound
COMMENT: EAWAG_UCHEM_ID 205
CH$NAME: Ketoprofen
CH$NAME: 2-(3-benzoylphenyl)propanoic acid
CH$COMPOUND_CLASS: N/A; Environmental Standard
CH$FORMULA: C16H14O3
CH$EXACT_MASS: 254.0943
CH$SMILES: CC(C1=CC=CC(=C1)C(=O)C2=CC=CC=C2)C(=O)O
CH$IUPAC: InChI=1S/C16H14O3/c1-11(16(18)19)13-8-5-9-14(10-13)15(17)12-6-3-2-4-7-12/h2-11H,1H3,(H,18,19)
CH$LINK: CAS 22071-15-4
CH$LINK: CHEBI CHEBI:6128
CH$LINK: KEGG C01716
CH$LINK: PUBCHEM CID:3825
CH$LINK: INCHIKEY DKYWVDODHFEZIM-UHFFFAOYSA-N
CH$LINK: CHEMSPIDER 3693
CH$LINK: COMPTOX DTXSID6020771
AC$INSTRUMENT: LTQ Orbitrap XL Thermo Scientific
AC$INSTRUMENT_TYPE: LC-ESI-ITFT
AC$MASS_SPECTROMETRY: MS_TYPE MS2
AC$MASS_SPECTROMETRY: ION_MODE POSITIVE
AC$MASS_SPECTROMETRY: IONIZATION ESI
AC$MASS_SPECTROMETRY: FRAGMENTATION_MODE HCD
AC$MASS_SPECTROMETRY: COLLISION_ENERGY 15 % (nominal)
AC$MASS_SPECTROMETRY: RESOLUTION 15000
AC$CHROMATOGRAPHY: COLUMN_NAME XBridge C18 3.5um, 2.1x50mm, Waters
AC$CHROMATOGRAPHY: FLOW_GRADIENT 90/10 at 0 min, 50/50 at 4 min, 5/95 at 17 min, 5/95 at 25 min, 90/10 at 25.1 min, 90/10 at 30 min
AC$CHROMATOGRAPHY: FLOW_RATE 200 ul/min
AC$CHROMATOGRAPHY: RETENTION_TIME 9.6 min
AC$CHROMATOGRAPHY: SOLVENT A water with 0.1% formic acid
AC$CHROMATOGRAPHY: SOLVENT B methanol with 0.1% formic acid
MS$FOCUSED_ION: BASE_PEAK 277.0843
MS$FOCUSED_ION: PRECURSOR_M/Z 255.1016
MS$FOCUSED_ION: PRECURSOR_TYPE [M+H]+
MS$DATA_PROCESSING: DEPROFILE Spline
MS$DATA_PROCESSING: RECALIBRATE loess on assigned fragments and MS1
MS$DATA_PROCESSING: REANALYZE Peaks with additional N2/O included
MS$DATA_PROCESSING: WHOLE RMassBank 1.3.1
PK$SPLASH: splash10-0a4i-0090000000-4894675edf8eca790257
PK$ANNOTATION: m/z tentative_formula formula_count mass error(ppm)
  105.0333 C7H5O+ 1 105.0335 -1.63
  177.0548 C10H9O3+ 1 177.0546 0.73
  194.0727 C14H10O+ 1 194.0726 0.28
  209.0961 C15H13O+ 1 209.0961 -0.05
  255.1016 C16H15O3+ 1 255.1016 0.27
PK$NUM_PEAK: 5
PK$PEAK: m/z int. rel.int.
  105.0333 25443.2 26
  177.0548 4717.6 4
  194.0727 4288 4
  209.0961 308282.8 315
  255.1016 976143.6 999
//
