ACCESSION: MSBNK-Eawag-EQ01077905
RECORD_TITLE: Ketorolac; LC-ESI-QFT; MS2; CE: 40%; R=15000; [M+H]+
DATE: 2024.06.14
AUTHORS: B. Beck [dtc], J. Bosshard [dtc], H. Singer [dtc], A. Dax [com]
LICENSE: CC BY-SA
COPYRIGHT: Copyright (C) Eawag 2024
COMMENT: CONFIDENCE standard compound
COMMENT: UCHEM_ID 10779
CH$NAME: Ketorolac
CH$NAME: 5-(phenylcarbonyl)-2,3-dihydro-1H-pyrrolizine-1-carboxylic acid
CH$COMPOUND_CLASS: N/A
CH$FORMULA: C15H13NO3
CH$EXACT_MASS: 255.0895433
CH$SMILES: C1CN2C(=CC=C2C(=O)C3=CC=CC=C3)C1C(=O)O
CH$IUPAC: InChI=1S/C15H13NO3/c17-14(10-4-2-1-3-5-10)13-7-6-12-11(15(18)19)8-9-16(12)13/h1-7,11H,8-9H2,(H,18,19)
CH$LINK: CAS 66635-92-5
CH$LINK: CHEBI CHEBI:6129
CH$LINK: KEGG C07062
CH$LINK: PUBCHEM CID:3826
CH$LINK: INCHIKEY OZWKMVRBQXNZKK-UHFFFAOYSA-N
CH$LINK: CHEMSPIDER 3694
AC$INSTRUMENT: Exploris 240 Thermo Scientific
AC$INSTRUMENT_TYPE: LC-ESI-QFT
AC$MASS_SPECTROMETRY: MS_TYPE MS2
AC$MASS_SPECTROMETRY: ION_MODE POSITIVE
AC$MASS_SPECTROMETRY: IONIZATION ESI
AC$MASS_SPECTROMETRY: FRAGMENTATION_MODE HCD
AC$MASS_SPECTROMETRY: COLLISION_ENERGY 40 % (nominal)
AC$MASS_SPECTROMETRY: RESOLUTION 15000
AC$MASS_SPECTROMETRY: MASS_RANGE_M/Z 50-282
AC$CHROMATOGRAPHY: COLUMN_NAME XBridge C18 3.5um, 2.1x50mm, Waters
AC$CHROMATOGRAPHY: FLOW_GRADIENT 90/10 at 0 min, 50/50 at 4 min, 5/95 at 17 min, 5/95 at 25 min, 90/10 at 25.1 min, 90/10 at 30 min
AC$CHROMATOGRAPHY: FLOW_RATE 200 uL/min
AC$CHROMATOGRAPHY: RETENTION_TIME 6.898 min
MS$FOCUSED_ION: BASE_PEAK 256.0964
MS$FOCUSED_ION: PRECURSOR_M/Z 256.0968
MS$FOCUSED_ION: PRECURSOR_TYPE [M+H]+
MS$DATA_PROCESSING: RECALIBRATE loess on assigned fragments and MS1
MS$DATA_PROCESSING: REANALYZE Peaks with additional N2/O included
MS$DATA_PROCESSING: WHOLE RMassBank 3.15.1.1
PK$SPLASH: splash10-0a4i-3900000000-a10eeb98ad644cf7bdf7
PK$ANNOTATION: m/z tentative_formula formula_count mass error(ppm)
  53.0385 C4H5+ 1 53.0386 -1.22
  77.0385 C6H5+ 1 77.0386 -0.52
  95.0491 C6H7O+ 1 95.0491 -0.24
  105.0336 C7H5O+ 1 105.0335 1.41
  132.0446 C8H6NO+ 1 132.0444 1.78
  133.0523 C8H7NO+ 1 133.0522 0.96
  178.0497 C9H8NO3+ 1 178.0499 -0.98
PK$NUM_PEAK: 7
PK$PEAK: m/z int. rel.int.
  53.0385 4993769.5 56
  77.0385 6405161.5 72
  95.0491 23298604 263
  105.0336 88411288 999
  132.0446 1227843.5 13
  133.0523 1132320.2 12
  178.0497 5712652.5 64
//
