ACCESSION: MSBNK-Eawag-EA280461
RECORD_TITLE: Candesartan; LC-ESI-ITFT; MS2; CE: 60%; R=15000; [M-H]-
DATE: 2014.01.14
AUTHORS: Stravs M, Schymanski E, Singer H, Department of Environmental Chemistry, Eawag
LICENSE: CC BY
COPYRIGHT: Copyright (C) 2012 Eawag, Duebendorf, Switzerland
COMMENT: CONFIDENCE standard compound
COMMENT: EAWAG_UCHEM_ID 2804
CH$NAME: Candesartan
CH$NAME: 2-ethoxy-3-[4-[2-(2H-tetrazol-5-yl)phenyl]benzyl]benzimidazole-4-carboxylic acid
CH$COMPOUND_CLASS: N/A; Environmental Standard
CH$FORMULA: C24H20N6O3
CH$EXACT_MASS: 440.1597
CH$SMILES: c1(ccccc1c1ccc(Cn2c(nc3c2c(C(=O)O)ccc3)OCC)cc1)c1nnn[nH]1
CH$IUPAC: InChI=1S/C24H20N6O3/c1-2-33-24-25-20-9-5-8-19(23(31)32)21(20)30(24)14-15-10-12-16(13-11-15)17-6-3-4-7-18(17)22-26-28-29-27-22/h3-13H,2,14H2,1H3,(H,31,32)(H,26,27,28,29)
CH$LINK: CAS 139481-59-7
CH$LINK: CHEBI CHEBI:3347
CH$LINK: KEGG C07468
CH$LINK: PUBCHEM CID:2541
CH$LINK: INCHIKEY HTQMVQVXFRQIKW-UHFFFAOYSA-N
CH$LINK: CHEMSPIDER 2445
CH$LINK: COMPTOX DTXSID0022725
AC$INSTRUMENT: LTQ Orbitrap XL Thermo Scientific
AC$INSTRUMENT_TYPE: LC-ESI-ITFT
AC$MASS_SPECTROMETRY: MS_TYPE MS2
AC$MASS_SPECTROMETRY: ION_MODE NEGATIVE
AC$MASS_SPECTROMETRY: IONIZATION ESI
AC$MASS_SPECTROMETRY: FRAGMENTATION_MODE HCD
AC$MASS_SPECTROMETRY: COLLISION_ENERGY 60 % (nominal)
AC$MASS_SPECTROMETRY: RESOLUTION 15000
AC$CHROMATOGRAPHY: COLUMN_NAME XBridge C18 3.5um, 2.1x50mm, Waters
AC$CHROMATOGRAPHY: FLOW_GRADIENT 90/10 at 0 min, 50/50 at 4 min, 5/95 at 17 min, 5/95 at 25 min, 90/10 at 25.1 min, 90/10 at 30 min
AC$CHROMATOGRAPHY: FLOW_RATE 200 ul/min
AC$CHROMATOGRAPHY: RETENTION_TIME 9.3 min
AC$CHROMATOGRAPHY: SOLVENT A water with 0.1% formic acid
AC$CHROMATOGRAPHY: SOLVENT B methanol with 0.1% formic acid
MS$FOCUSED_ION: BASE_PEAK 439.1519
MS$FOCUSED_ION: PRECURSOR_M/Z 439.1524
MS$FOCUSED_ION: PRECURSOR_TYPE [M-H]-
MS$DATA_PROCESSING: DEPROFILE Spline
MS$DATA_PROCESSING: RECALIBRATE loess on assigned fragments and MS1
MS$DATA_PROCESSING: REANALYZE Peaks with additional N2/O included
MS$DATA_PROCESSING: WHOLE RMassBank 1.3.1
PK$SPLASH: splash10-001i-0911000000-b335b08ddf551145ef5c
PK$ANNOTATION: m/z tentative_formula formula_count mass error(ppm)
  117.0454 C7H5N2- 1 117.0458 -3.6
  132.0329 C7H4N2O- 1 132.0329 -0.39
  133.0406 C7H5N2O- 1 133.0407 -1.18
  147.0201 C7H3N2O2- 1 147.02 0.4
  161.0725 C9H9N2O- 1 161.072 2.57
  190.0663 C14H8N- 1 190.0662 0.35
  281.1086 C20H13N2- 1 281.1084 0.7
  292.1006 C21H12N2- 1 292.1006 0.11
  293.108 C21H13N2- 1 293.1084 -1.61
  309.1033 C21H13N2O- 2 309.1033 0.04
PK$NUM_PEAK: 10
PK$PEAK: m/z int. rel.int.
  117.0454 4832 69
  132.0329 69352 999
  133.0406 51641.7 743
  147.0201 15684.2 225
  161.0725 3529.2 50
  190.0663 10073 145
  281.1086 6075.2 87
  292.1006 9541.6 137
  293.108 5134.6 73
  309.1033 18746.6 270
//
