ACCESSION: MSBNK-Eawag-EQ320407
RECORD_TITLE: Metoxuron; LC-ESI-QFT; MS2; CE: 120; R=35000; [M+H]+
DATE: 2015.08.25
AUTHORS: Beck B, Stravs M, Schymanski E, Singer H, Department of Environmental Chemistry, Eawag
LICENSE: CC BY
COPYRIGHT: Copyright (C) 2015 Eawag, Duebendorf, Switzerland
COMMENT: CONFIDENCE standard compound
COMMENT: EAWAG_UCHEM_ID 3204
CH$NAME: Metoxuron
CH$NAME: 3-(3-chloro-4-methoxyphenyl)-1,1-dimethylurea
CH$COMPOUND_CLASS: N/A; Environmental Standard
CH$FORMULA: C10H13ClN2O2
CH$EXACT_MASS: 228.06656
CH$SMILES: Clc1cc(ccc1OC)NC(=O)N(C)C
CH$IUPAC: InChI=1S/C10H13ClN2O2/c1-13(2)10(14)12-7-4-5-9(15-3)8(11)6-7/h4-6H,1-3H3,(H,12,14)
CH$LINK: CAS 19937-59-8
CH$LINK: CHEBI CHEBI:6907
CH$LINK: KEGG C11011
CH$LINK: PUBCHEM CID:29863
CH$LINK: INCHIKEY DSRNRYQBBJQVCW-UHFFFAOYSA-N
CH$LINK: CHEMSPIDER 27749
CH$LINK: COMPTOX DTXSID1042158
AC$INSTRUMENT: Q Exactive Plus Orbitrap Thermo Scientific
AC$INSTRUMENT_TYPE: LC-ESI-QFT
AC$MASS_SPECTROMETRY: MS_TYPE MS2
AC$MASS_SPECTROMETRY: ION_MODE POSITIVE
AC$MASS_SPECTROMETRY: IONIZATION ESI
AC$MASS_SPECTROMETRY: FRAGMENTATION_MODE HCD
AC$MASS_SPECTROMETRY: COLLISION_ENERGY 120 (nominal)
AC$MASS_SPECTROMETRY: RESOLUTION 35000
AC$CHROMATOGRAPHY: COLUMN_NAME XBridge C18 3.5um, 2.1x50mm, Waters
AC$CHROMATOGRAPHY: FLOW_GRADIENT 90/10 at 0 min, 50/50 at 4 min, 5/95 at 17 min, 5/95 at 25 min, 90/10 at 25.1 min, 90/10 at 30 min
AC$CHROMATOGRAPHY: FLOW_RATE 200 ul/min
AC$CHROMATOGRAPHY: RETENTION_TIME 6.1 min
AC$CHROMATOGRAPHY: SOLVENT A water with 0.1% formic acid
AC$CHROMATOGRAPHY: SOLVENT B methanol with 0.1% formic acid
MS$FOCUSED_ION: BASE_PEAK 229.0737
MS$FOCUSED_ION: PRECURSOR_M/Z 229.0738
MS$FOCUSED_ION: PRECURSOR_TYPE [M+H]+
MS$DATA_PROCESSING: RECALIBRATE loess on assigned fragments and MS1
MS$DATA_PROCESSING: REANALYZE Peaks with additional N2/O included
MS$DATA_PROCESSING: WHOLE RMassBank 1.9.6
PK$SPLASH: splash10-00di-9000000000-bfb7076b4aa5ab066042
PK$ANNOTATION: m/z tentative_formula formula_count mass error(ppm)
  50.0151 C4H2+ 1 50.0151 0.37
  51.0229 C4H3+ 1 51.0229 0.26
  52.0182 C3H2N+ 1 52.0182 0.28
  56.0131 C2H2NO+ 1 56.0131 0
  65.0386 C5H5+ 1 65.0386 0.21
  72.0443 C3H6NO+ 1 72.0444 -0.56
  75.0229 C6H3+ 1 75.0229 -0.89
  77.0386 C6H5+ 1 77.0386 -0.22
  78.0338 C5H4N+ 1 78.0338 -0.33
  79.0178 C5H3O+ 1 79.0178 -0.52
  80.013 C4H2NO+ 1 80.0131 -0.63
  95.0492 C6H7O+ 2 95.0491 0.2
  106.0287 C6H4NO+ 2 106.0287 0
  125.9866 C6H3ClO+ 1 125.9867 -0.43
  129.0102 C6H6ClO+ 1 129.0102 -0.15
  134.0238 C7H4NO2+ 2 134.0237 0.71
  156.0209 C7H7ClNO+ 2 156.0211 -1.01
PK$NUM_PEAK: 17
PK$PEAK: m/z int. rel.int.
  50.0151 1165930.8 5
  51.0229 4245407 20
  52.0182 5903447 29
  56.0131 17896880 88
  65.0386 740850 3
  72.0443 202100720 999
  75.0229 626570.3 3
  77.0386 354684.5 1
  78.0338 9006828 44
  79.0178 4300782 21
  80.013 22207778 109
  95.0492 1251849.9 6
  106.0287 9364901 46
  125.9866 578536.6 2
  129.0102 522272.2 2
  134.0238 1351641.1 6
  156.0209 975901.3 4
//
