ACCESSION: MSBNK-Eawag-EQ01129606
RECORD_TITLE: Desmethyl-Pirimicarb; LC-ESI-QFT; MS2; CE: 90%; R=17500; [M+H]+
DATE: 2023.04.27
AUTHORS: B. Beck [dtc,com], J. Hollender [dtc]
LICENSE: CC BY-SA
COPYRIGHT: Copyright (C) Eawag 2023
COMMENT: CONFIDENCE standard compound
COMMENT: UCHEM_ID 11296
CH$NAME: Desmethyl-Pirimicarb
CH$NAME: 5,6-Dimethyl-2-(methylamino)-4-pyrimidinyl dimethylcarbamate
CH$NAME: [5,6-dimethyl-2-(methylamino)pyrimidin-4-yl] N,N-dimethylcarbamate
CH$COMPOUND_CLASS: N/A; Environmental Standard
CH$FORMULA: C10H16N4O2
CH$EXACT_MASS: 224.1273
CH$SMILES: CC1=C(N=C(N=C1OC(=O)N(C)C)NC)C
CH$IUPAC: InChI=1S/C10H16N4O2/c1-6-7(2)12-9(11-3)13-8(6)16-10(15)14(4)5/h1-5H3,(H,11,12,13)
CH$LINK: CAS 31786-65-9
CH$LINK: PUBCHEM CID:93139
CH$LINK: INCHIKEY GTKRZJVAXAQBMB-UHFFFAOYSA-N
CH$LINK: CHEMSPIDER 84084
AC$INSTRUMENT: Exploris 240 Orbitrap Thermo Scientific
AC$INSTRUMENT_TYPE: LC-ESI-QFT
AC$MASS_SPECTROMETRY: MS_TYPE MS2
AC$MASS_SPECTROMETRY: ION_MODE POSITIVE
AC$MASS_SPECTROMETRY: IONIZATION ESI
AC$MASS_SPECTROMETRY: FRAGMENTATION_MODE HCD
AC$MASS_SPECTROMETRY: COLLISION_ENERGY 90 % (nominal)
AC$MASS_SPECTROMETRY: RESOLUTION 17500
AC$MASS_SPECTROMETRY: MASS_RANGE_M/Z 50-251
AC$CHROMATOGRAPHY: COLUMN_NAME XBridge C18 3.5um, 2.1x50mm, Waters
AC$CHROMATOGRAPHY: FLOW_GRADIENT 90/10 at 0 min, 50/50 at 4 min, 5/95 at 17 min, 5/95 at 25 min, 90/10 at 25.1 min, 90/10 at 30 min
AC$CHROMATOGRAPHY: FLOW_RATE 200 uL/min
AC$CHROMATOGRAPHY: RETENTION_TIME 2.964 min
MS$FOCUSED_ION: BASE_PEAK 225.1343
MS$FOCUSED_ION: PRECURSOR_M/Z 225.1346
MS$FOCUSED_ION: PRECURSOR_TYPE [M+H]+
MS$DATA_PROCESSING: RECALIBRATE loess on assigned fragments and MS1
MS$DATA_PROCESSING: REANALYZE Peaks with additional N2/O included
MS$DATA_PROCESSING: WHOLE RMassBank 3.11.0.1
PK$SPLASH: splash10-00di-9000000000-9e93ddd670a40cc94f04
PK$ANNOTATION: m/z tentative_formula formula_count mass error(ppm)
  56.0132 C2H2NO+ 1 56.0131 1.15
  70.0651 C4H8N+ 1 70.0651 -0.14
  71.0605 C3H7N2+ 1 71.0604 1.15
  72.0444 C3H6NO+ 1 72.0444 0.19
  83.0241 C3H3N2O+ 1 83.024 1.55
  95.0604 C5H7N2+ 1 95.0604 0.41
  98.0602 C5H8NO+ 1 98.06 1.98
  109.0763 C6H9N2+ 1 109.076 2.96
  124.0394 C6H6NO2+ 1 124.0393 0.6
  137.0711 C7H9N2O+ 1 137.0709 0.88
  168.1128 C8H14N3O+ 1 168.1131 -2.09
PK$NUM_PEAK: 11
PK$PEAK: m/z int. rel.int.
  56.0132 4382811.5 18
  70.0651 2804135.5 11
  71.0605 10720222 44
  72.0444 238064784 999
  83.0241 6722864 28
  95.0604 7834484.5 32
  98.0602 10223065 42
  109.0763 4225159 17
  124.0394 1665564.1 6
  137.0711 2752753.5 11
  168.1128 2419946.5 10
//
