ACCESSION: MSBNK-Eawag-EQ319005
RECORD_TITLE: 2-Mercaptobenzothiazole; LC-ESI-QFT; MS2; CE: 75; R=35000; [M+H]+
DATE: 2015.08.25
AUTHORS: Beck B, Stravs M, Schymanski E, Singer H, Department of Environmental Chemistry, Eawag
LICENSE: CC BY
COPYRIGHT: Copyright (C) 2015 Eawag, Duebendorf, Switzerland
COMMENT: CONFIDENCE standard compound
COMMENT: EAWAG_UCHEM_ID 3190
CH$NAME: 2-Mercaptobenzothiazole
CH$NAME: 1,3-Benzothiazole-2(3H)-thione
CH$NAME: 3H-1,3-benzothiazole-2-thione
CH$COMPOUND_CLASS: N/A; Environmental Standard
CH$FORMULA: C7H5NS2
CH$EXACT_MASS: 166.98634
CH$SMILES: S=C2Sc1ccccc1N2
CH$IUPAC: InChI=1S/C7H5NS2/c9-7-8-5-3-1-2-4-6(5)10-7/h1-4H,(H,8,9)
CH$LINK: CAS 149-30-4
CH$LINK: CHEBI CHEBI:34292
CH$LINK: KEGG C14437
CH$LINK: PUBCHEM CID:697993
CH$LINK: INCHIKEY YXIWHUQXZSMYRE-UHFFFAOYSA-N
CH$LINK: CHEMSPIDER 608157
CH$LINK: COMPTOX DTXSID1020807
AC$INSTRUMENT: Q Exactive Plus Orbitrap Thermo Scientific
AC$INSTRUMENT_TYPE: LC-ESI-QFT
AC$MASS_SPECTROMETRY: MS_TYPE MS2
AC$MASS_SPECTROMETRY: ION_MODE POSITIVE
AC$MASS_SPECTROMETRY: IONIZATION ESI
AC$MASS_SPECTROMETRY: FRAGMENTATION_MODE HCD
AC$MASS_SPECTROMETRY: COLLISION_ENERGY 75 (nominal)
AC$MASS_SPECTROMETRY: RESOLUTION 35000
AC$CHROMATOGRAPHY: COLUMN_NAME XBridge C18 3.5um, 2.1x50mm, Waters
AC$CHROMATOGRAPHY: FLOW_GRADIENT 90/10 at 0 min, 50/50 at 4 min, 5/95 at 17 min, 5/95 at 25 min, 90/10 at 25.1 min, 90/10 at 30 min
AC$CHROMATOGRAPHY: FLOW_RATE 200 ul/min
AC$CHROMATOGRAPHY: RETENTION_TIME 6.7 min
AC$CHROMATOGRAPHY: SOLVENT A water with 0.1% formic acid
AC$CHROMATOGRAPHY: SOLVENT B methanol with 0.1% formic acid
MS$FOCUSED_ION: BASE_PEAK 167.9936
MS$FOCUSED_ION: PRECURSOR_M/Z 167.9936
MS$FOCUSED_ION: PRECURSOR_TYPE [M+H]+
MS$DATA_PROCESSING: RECALIBRATE loess on assigned fragments and MS1
MS$DATA_PROCESSING: REANALYZE Peaks with additional N2/O included
MS$DATA_PROCESSING: WHOLE RMassBank 1.9.6
PK$SPLASH: splash10-00kr-1900000000-70d04c4c5fa82c738125
PK$ANNOTATION: m/z tentative_formula formula_count mass error(ppm)
  51.0229 C4H3+ 1 51.0229 -0.72
  53.0386 C4H5+ 1 53.0386 0.63
  65.0386 C5H5+ 1 65.0386 -0.1
  66.0464 C5H6+ 1 66.0464 0.28
  68.9791 C3HS+ 1 68.9793 -3.73
  77.0384 C6H5+ 1 77.0386 -2.42
  80.0494 C5H6N+ 1 80.0495 -0.69
  84.0028 C4H4S+ 1 84.0028 0.09
  90.0339 C6H4N+ 1 90.0338 0.49
  91.0417 C6H5N+ 1 91.0417 0.1
  92.0495 C6H6N+ 1 92.0495 0.05
  97.0107 C5H5S+ 1 97.0106 0.95
  104.0495 C7H6N+ 1 104.0495 -0.15
  105.0448 C6H5N2+ 1 105.0447 0.43
  106.995 C6H3S+ 1 106.995 -0.16
  108.0028 C6H4S+ 1 108.0028 -0.39
  109.0107 C6H5S+ 1 109.0106 0.21
  110.0185 C6H6S+ 1 110.0185 0.16
  124.0216 C6H6NS+ 1 124.0215 0.35
  134.0059 C7H4NS+ 1 134.0059 0.18
  135.0137 C7H5NS+ 1 135.0137 -0.23
  136.0216 C7H6NS+ 1 136.0215 0.17
  140.9827 C6H5S2+ 1 140.9827 -0.34
  150.001 C7H4NOS+ 1 150.0008 1.19
  152.0163 C7H6NOS+ 1 152.0165 -0.86
  166.9857 C7H5NS2+ 1 166.9858 -0.55
  167.9936 C7H6NS2+ 1 167.9936 -0.16
PK$NUM_PEAK: 28
PK$PEAK: m/z int. rel.int.
  51.0229 224513.1 1
  53.0386 280004.1 2
  65.0386 17527318 150
  66.0464 464637.7 3
  68.9791 546053.1 4
  77.0384 1260928 10
  80.0494 4434920 38
  84.0028 205105.4 1
  90.0339 875528.2 7
  91.0417 268704.4 2
  92.0495 37915280 326
  95.0491 1277456.75 10
  97.0107 428258.3 3
  104.0495 1581154.2 13
  105.0448 699337.5 6
  106.995 223023 1
  108.0028 1243891.9 10
  109.0107 40938392 352
  110.0185 17685608 152
  124.0216 55757236 479
  134.0059 3505359.5 30
  135.0137 109879392 945
  136.0216 38542300 331
  140.9827 3235609.5 27
  150.001 290980.5 2
  152.0163 564819.7 4
  166.9857 622241.2 5
  167.9936 116089048 999
//
