ACCESSION: MSBNK-Eawag-EQ307601
RECORD_TITLE: Piracetam; LC-ESI-QFT; MS2; CE: 15; R=35000; [M+H]+
DATE: 2015.08.25
AUTHORS: Beck B, Stravs M, Schymanski E, Singer H, Department of Environmental Chemistry, Eawag
LICENSE: CC BY
COPYRIGHT: Copyright (C) 2015 Eawag, Duebendorf, Switzerland
COMMENT: CONFIDENCE standard compound
COMMENT: EAWAG_UCHEM_ID 3076
CH$NAME: Piracetam
CH$NAME: 1-Pyrrolidineacetamide, 2-oxo-
CH$NAME: 2-(2-ketopyrrolidino)acetamide
CH$COMPOUND_CLASS: N/A; Environmental Standard
CH$FORMULA: C6H10N2O2
CH$EXACT_MASS: 142.07423
CH$SMILES: O=C1N(CC(=O)N)CCC1
CH$IUPAC: InChI=1S/C6H10N2O2/c7-5(9)4-8-3-1-2-6(8)10/h1-4H2,(H2,7,9)
CH$LINK: CAS 7491-74-9
CH$LINK: KEGG D01914
CH$LINK: PUBCHEM CID:4843
CH$LINK: INCHIKEY GMZVRMREEHBGGF-UHFFFAOYSA-N
CH$LINK: CHEMSPIDER 4677
CH$LINK: COMPTOX DTXSID5044491
AC$INSTRUMENT: Q Exactive Orbitrap Thermo Scientific
AC$INSTRUMENT_TYPE: LC-ESI-QFT
AC$MASS_SPECTROMETRY: MS_TYPE MS2
AC$MASS_SPECTROMETRY: ION_MODE POSITIVE
AC$MASS_SPECTROMETRY: IONIZATION ESI
AC$MASS_SPECTROMETRY: FRAGMENTATION_MODE HCD
AC$MASS_SPECTROMETRY: COLLISION_ENERGY 15 (nominal)
AC$MASS_SPECTROMETRY: RESOLUTION 35000
AC$CHROMATOGRAPHY: COLUMN_NAME XBridge C18 3.5um, 2.1x50mm, Waters
AC$CHROMATOGRAPHY: FLOW_GRADIENT 90/10 at 0 min, 50/50 at 4 min, 5/95 at 17 min, 5/95 at 25 min, 90/10 at 25.1 min, 90/10 at 30 min
AC$CHROMATOGRAPHY: FLOW_RATE 200 ul/min
AC$CHROMATOGRAPHY: RETENTION_TIME 1.1 min
AC$CHROMATOGRAPHY: SOLVENT A water with 0.1% formic acid
AC$CHROMATOGRAPHY: SOLVENT B methanol with 0.1% formic acid
MS$FOCUSED_ION: BASE_PEAK 143.0815
MS$FOCUSED_ION: PRECURSOR_M/Z 143.0815
MS$FOCUSED_ION: PRECURSOR_TYPE [M+H]+
MS$DATA_PROCESSING: DEPROFILE Spline
MS$DATA_PROCESSING: RECALIBRATE loess on assigned fragments and MS1
MS$DATA_PROCESSING: REANALYZE Peaks with additional N2/O included
MS$DATA_PROCESSING: WHOLE RMassBank 1.9.6
PK$SPLASH: splash10-002b-9400000000-651dc28016b653b55d23
PK$ANNOTATION: m/z tentative_formula formula_count mass error(ppm)
  68.0494 C4H6N+ 1 68.0495 -1.26
  69.0334 C4H5O+ 1 69.0335 -1.32
  69.0699 C5H9+ 1 69.0699 -0.39
  70.0651 C4H8N+ 1 70.0651 -0.65
  83.0855 C6H11+ 1 83.0855 -0.56
  98.06 C5H8NO+ 1 98.06 0
  126.055 C6H8NO2+ 1 126.055 0.04
  143.0815 C6H11N2O2+ 1 143.0815 0.11
PK$NUM_PEAK: 8
PK$PEAK: m/z int. rel.int.
  68.0494 48053.4 2
  69.0334 212947.1 8
  69.0699 26739.3 1
  70.0651 728195.4 30
  83.0855 26383.9 1
  98.06 23965482 999
  126.055 12552941.9 523
  143.0815 690375.8 28
//
