ACCESSION: MSBNK-Eawag-EA292209
RECORD_TITLE: Bisperfluorooctyl phosphate; LC-ESI-ITFT; MS2; CE: 30%; R=15000; [M+H]+
DATE: 2014.01.14
AUTHORS: Stravs M, Schymanski E, Singer H, Department of Environmental Chemistry, Eawag
LICENSE: CC BY
COPYRIGHT: Copyright (C) 2012 Eawag, Duebendorf, Switzerland
COMMENT: CONFIDENCE standard compound
COMMENT: EAWAG_UCHEM_ID 2922
CH$NAME: Bisperfluorooctyl phosphate
CH$NAME: 6:2diPAP
CH$NAME: Bis(1H,1H,2H,2H-perfluorooctyl)phosphate
CH$COMPOUND_CLASS: N/A; Environmental Standard
CH$FORMULA: C16H9F26O4P
CH$EXACT_MASS: 789.9823
CH$SMILES: FC(F)(CCOP(=O)(OCCC(F)(F)C(F)(F)C(F)(F)C(F)(F)C(F)(F)C(F)(F)F)O)C(F)(F)C(F)(F)C(F)(F)C(F)(F)C(F)(F)F
CH$IUPAC: InChI=1S/C16H9F26O4P/c17-5(18,7(21,22)9(25,26)11(29,30)13(33,34)15(37,38)39)1-3-45-47(43,44)46-4-2-6(19,20)8(23,24)10(27,28)12(31,32)14(35,36)16(40,41)42/h1-4H2,(H,43,44)
CH$LINK: PUBCHEM CID:14550408
CH$LINK: INCHIKEY ZDYYWMSLMLTXDM-UHFFFAOYSA-N
CH$LINK: CHEMSPIDER 10330029
CH$LINK: COMPTOX DTXSID50561590
AC$INSTRUMENT: LTQ Orbitrap XL Thermo Scientific
AC$INSTRUMENT_TYPE: LC-ESI-ITFT
AC$MASS_SPECTROMETRY: MS_TYPE MS2
AC$MASS_SPECTROMETRY: ION_MODE POSITIVE
AC$MASS_SPECTROMETRY: IONIZATION ESI
AC$MASS_SPECTROMETRY: FRAGMENTATION_MODE HCD
AC$MASS_SPECTROMETRY: COLLISION_ENERGY 30 % (nominal)
AC$MASS_SPECTROMETRY: RESOLUTION 15000
AC$CHROMATOGRAPHY: COLUMN_NAME XBridge C18 3.5um, 2.1x50mm, Waters
AC$CHROMATOGRAPHY: FLOW_GRADIENT 90/10 at 0 min, 50/50 at 4 min, 5/95 at 17 min, 5/95 at 25 min, 90/10 at 25.1 min, 90/10 at 30 min
AC$CHROMATOGRAPHY: FLOW_RATE 200 ul/min
AC$CHROMATOGRAPHY: RETENTION_TIME 18.1 min
AC$CHROMATOGRAPHY: SOLVENT A water with 0.1% formic acid
AC$CHROMATOGRAPHY: SOLVENT B methanol with 0.1% formic acid
MS$FOCUSED_ION: BASE_PEAK 116.9852
MS$FOCUSED_ION: PRECURSOR_M/Z 790.9896
MS$FOCUSED_ION: PRECURSOR_TYPE [M+H]+
MS$DATA_PROCESSING: DEPROFILE Spline
MS$DATA_PROCESSING: RECALIBRATE loess on assigned fragments and MS1
MS$DATA_PROCESSING: REANALYZE Peaks with additional N2/O included
MS$DATA_PROCESSING: WHOLE RMassBank 1.3.1
PK$SPLASH: splash10-0002-9000200000-41b6364759462d6429a5
PK$ANNOTATION: m/z tentative_formula formula_count mass error(ppm)
  98.9839 H4O4P+ 1 98.9842 -3.05
  444.9857 C11H6F12O3P+ 4 444.9857 -0.22
PK$NUM_PEAK: 2
PK$PEAK: m/z int. rel.int.
  98.9839 65496.3 999
  444.9857 19689.2 300
//
