ACCESSION: MSBNK-Eawag-EA275810
RECORD_TITLE: Ephedrine; LC-ESI-ITFT; MS2; CE: 45%; R=15000; [M+H]+
DATE: 2014.01.14
AUTHORS: Stravs M, Schymanski E, Singer H, Department of Environmental Chemistry, Eawag
LICENSE: CC BY
COPYRIGHT: Copyright (C) 2012 Eawag, Duebendorf, Switzerland
COMMENT: CONFIDENCE standard compound
COMMENT: EAWAG_UCHEM_ID 2758
CH$NAME: Ephedrine
CH$NAME: (1R,2S)-2-(methylamino)-1-phenyl-1-propanol
CH$COMPOUND_CLASS: N/A; Environmental Standard
CH$FORMULA: C10H15NO
CH$EXACT_MASS: 165.1154
CH$SMILES: c1([C@H]([C@@H](NC)C)O)ccccc1
CH$IUPAC: InChI=1S/C10H15NO/c1-8(11-2)10(12)9-6-4-3-5-7-9/h3-8,10-12H,1-2H3/t8-,10-/m0/s1
CH$LINK: CAS 299-42-3
CH$LINK: CHEBI CHEBI:15407
CH$LINK: KEGG C01575
CH$LINK: PUBCHEM CID:9294
CH$LINK: INCHIKEY KWGRBVOPPLSCSI-WPRPVWTQSA-N
CH$LINK: CHEMSPIDER 8935
CH$LINK: COMPTOX DTXSID0022985
AC$INSTRUMENT: LTQ Orbitrap XL Thermo Scientific
AC$INSTRUMENT_TYPE: LC-ESI-ITFT
AC$MASS_SPECTROMETRY: MS_TYPE MS2
AC$MASS_SPECTROMETRY: ION_MODE POSITIVE
AC$MASS_SPECTROMETRY: IONIZATION ESI
AC$MASS_SPECTROMETRY: FRAGMENTATION_MODE HCD
AC$MASS_SPECTROMETRY: COLLISION_ENERGY 45 % (nominal)
AC$MASS_SPECTROMETRY: RESOLUTION 15000
AC$CHROMATOGRAPHY: COLUMN_NAME XBridge C18 3.5um, 2.1x50mm, Waters
AC$CHROMATOGRAPHY: FLOW_GRADIENT 90/10 at 0 min, 50/50 at 4 min, 5/95 at 17 min, 5/95 at 25 min, 90/10 at 25.1 min, 90/10 at 30 min
AC$CHROMATOGRAPHY: FLOW_RATE 200 ul/min
AC$CHROMATOGRAPHY: RETENTION_TIME 2.9 min
AC$CHROMATOGRAPHY: SOLVENT A water with 0.1% formic acid
AC$CHROMATOGRAPHY: SOLVENT B methanol with 0.1% formic acid
MS$FOCUSED_ION: BASE_PEAK 166.123
MS$FOCUSED_ION: PRECURSOR_M/Z 166.1226
MS$FOCUSED_ION: PRECURSOR_TYPE [M+H]+
MS$DATA_PROCESSING: DEPROFILE Spline
MS$DATA_PROCESSING: RECALIBRATE loess on assigned fragments and MS1
MS$DATA_PROCESSING: REANALYZE Peaks with additional N2/O included
MS$DATA_PROCESSING: WHOLE RMassBank 1.3.1
PK$SPLASH: splash10-0002-0900000000-553c930e0970a8c1a866
PK$ANNOTATION: m/z tentative_formula formula_count mass error(ppm)
  56.0494 C3H6N+ 1 56.0495 -1.35
  57.0335 C3H5O+ 1 57.0335 -0.37
  70.0651 C4H8N+ 1 70.0651 -0.22
  91.0542 C7H7+ 1 91.0542 0.15
  93.0696 C7H9+ 1 93.0699 -2.44
  115.054 C9H7+ 1 115.0542 -2.23
  117.0699 C9H9+ 1 117.0699 -0.23
  132.0812 C9H10N+ 1 132.0808 3.21
  133.0885 C9H11N+ 1 133.0886 -0.38
  135.0805 C9H11O+ 1 135.0804 0.14
  148.1121 C10H14N+ 1 148.1121 0.16
  166.1228 C10H16NO+ 1 166.1226 1.14
PK$NUM_PEAK: 12
PK$PEAK: m/z int. rel.int.
  56.0494 53483.1 5
  57.0335 9121 1
  70.0651 44951.4 4
  91.0542 35363.9 3
  93.0696 9570.2 1
  115.054 22556.6 2
  117.0699 445603 48
  132.0812 18235.8 2
  133.0885 293638.6 32
  135.0805 170394.2 18
  148.1121 9106909.5 999
  166.1228 333028.5 36
//
