ACCESSION: MSBNK-Eawag-EA295714
RECORD_TITLE: Myclobutanil; LC-ESI-ITFT; MS2; CE: 35%; R=15000; [M+H]+
DATE: 2014.01.14
AUTHORS: Stravs M, Schymanski E, Singer H, Department of Environmental Chemistry, Eawag
LICENSE: CC BY
COPYRIGHT: Copyright (C) 2012 Eawag, Duebendorf, Switzerland
COMMENT: CONFIDENCE standard compound
COMMENT: EAWAG_UCHEM_ID 2957
CH$NAME: Myclobutanil
CH$NAME: MYC
CH$NAME: 2-(4-chlorophenyl)-2-(1,2,4-triazol-1-ylmethyl)hexanenitrile
CH$COMPOUND_CLASS: N/A; Environmental Standard
CH$FORMULA: C15H17ClN4
CH$EXACT_MASS: 288.1142
CH$SMILES: Clc1ccc(cc1)C(C#N)(CCCC)Cn2ncnc2
CH$IUPAC: InChI=1S/C15H17ClN4/c1-2-3-8-15(9-17,10-20-12-18-11-19-20)13-4-6-14(16)7-5-13/h4-7,11-12H,2-3,8,10H2,1H3
CH$LINK: CAS 88671-89-0
CH$LINK: PUBCHEM CID:6336
CH$LINK: INCHIKEY HZJKXKUJVSEEFU-UHFFFAOYSA-N
CH$LINK: CHEMSPIDER 6096
CH$LINK: COMPTOX DTXSID8024315
AC$INSTRUMENT: LTQ Orbitrap XL Thermo Scientific
AC$INSTRUMENT_TYPE: LC-ESI-ITFT
AC$MASS_SPECTROMETRY: MS_TYPE MS2
AC$MASS_SPECTROMETRY: ION_MODE POSITIVE
AC$MASS_SPECTROMETRY: IONIZATION ESI
AC$MASS_SPECTROMETRY: FRAGMENTATION_MODE CID
AC$MASS_SPECTROMETRY: COLLISION_ENERGY 35 % (nominal)
AC$MASS_SPECTROMETRY: RESOLUTION 15000
AC$CHROMATOGRAPHY: COLUMN_NAME XBridge C18 3.5um, 2.1x50mm, Waters
AC$CHROMATOGRAPHY: FLOW_GRADIENT 90/10 at 0 min, 50/50 at 4 min, 5/95 at 17 min, 5/95 at 25 min, 90/10 at 25.1 min, 90/10 at 30 min
AC$CHROMATOGRAPHY: FLOW_RATE 200 ul/min
AC$CHROMATOGRAPHY: RETENTION_TIME 11.2 min
AC$CHROMATOGRAPHY: SOLVENT A water with 0.1% formic acid
AC$CHROMATOGRAPHY: SOLVENT B methanol with 0.1% formic acid
MS$FOCUSED_ION: BASE_PEAK 289.1218
MS$FOCUSED_ION: PRECURSOR_M/Z 289.1215
MS$FOCUSED_ION: PRECURSOR_TYPE [M+H]+
MS$DATA_PROCESSING: DEPROFILE Spline
MS$DATA_PROCESSING: RECALIBRATE loess on assigned fragments and MS1
MS$DATA_PROCESSING: REANALYZE Peaks with additional N2/O included
MS$DATA_PROCESSING: WHOLE RMassBank 1.3.1
PK$SPLASH: splash10-00di-0490000000-675e78d88597c35873fc
PK$ANNOTATION: m/z tentative_formula formula_count mass error(ppm)
  125.0153 C7H6Cl+ 1 125.0153 0.45
  151.031 C9H8Cl+ 1 151.0309 0.83
  164.0262 C9H7ClN+ 1 164.0262 0.22
  166.0417 C9H9ClN+ 1 166.0418 -0.8
  168.0931 C13H12+ 1 168.0934 -1.26
  178.0417 C10H9ClN+ 1 178.0418 -0.69
  185.1198 C13H15N+ 1 185.1199 -0.55
  191.0625 C12H12Cl+ 1 191.0622 1.29
  192.0575 C11H11ClN+ 1 192.0575 0.45
  193.0779 C12H14Cl+ 1 193.0779 0.08
  194.048 C9H9ClN3+ 1 194.048 0.1
  203.0622 C13H12Cl+ 1 203.0622 -0.27
  220.0887 C13H15ClN+ 1 220.0888 -0.47
PK$NUM_PEAK: 13
PK$PEAK: m/z int. rel.int.
  125.0153 655008.9 170
  151.031 185469.6 48
  164.0262 100360.9 26
  166.0417 159946.1 41
  168.0931 53077.4 13
  178.0417 255566.8 66
  185.1198 39506.6 10
  191.0625 39604.4 10
  192.0575 140469.4 36
  193.0779 212350.5 55
  194.048 215052.1 55
  203.0622 578202.9 150
  220.0887 3848957.3 999
//
