ACCESSION: MSBNK-Eawag-EQ301102
RECORD_TITLE: Acetazolamide; LC-ESI-QFT; MS2; CE: 30; R=35000; [M+H]+
DATE: 2015.08.25
AUTHORS: Beck B, Stravs M, Schymanski E, Singer H, Department of Environmental Chemistry, Eawag
LICENSE: CC BY
COPYRIGHT: Copyright (C) 2015 Eawag, Duebendorf, Switzerland
COMMENT: CONFIDENCE standard compound
COMMENT: EAWAG_UCHEM_ID 3011
CH$NAME: Acetazolamide
CH$NAME: AZM
CH$NAME: N-(5-sulfamoyl-1,3,4-thiadiazol-2-yl)acetamide
CH$COMPOUND_CLASS: N/A; Environmental Standard
CH$FORMULA: C4H6N4O3S2
CH$EXACT_MASS: 221.98813
CH$SMILES: O=S(=O)(c1nnc(s1)NC(=O)C)N
CH$IUPAC: InChI=1S/C4H6N4O3S2/c1-2(9)6-3-7-8-4(12-3)13(5,10)11/h1H3,(H2,5,10,11)(H,6,7,9)
CH$LINK: CAS 59-66-5
CH$LINK: CHEBI CHEBI:27690
CH$LINK: KEGG C06805
CH$LINK: PUBCHEM CID:1986
CH$LINK: INCHIKEY BZKPWHYZMXOIDC-UHFFFAOYSA-N
CH$LINK: CHEMSPIDER 1909
CH$LINK: COMPTOX DTXSID7022544
AC$INSTRUMENT: Q Exactive Orbitrap Thermo Scientific
AC$INSTRUMENT_TYPE: LC-ESI-QFT
AC$MASS_SPECTROMETRY: MS_TYPE MS2
AC$MASS_SPECTROMETRY: ION_MODE POSITIVE
AC$MASS_SPECTROMETRY: IONIZATION ESI
AC$MASS_SPECTROMETRY: FRAGMENTATION_MODE HCD
AC$MASS_SPECTROMETRY: COLLISION_ENERGY 30 (nominal)
AC$MASS_SPECTROMETRY: RESOLUTION 35000
AC$CHROMATOGRAPHY: COLUMN_NAME XBridge C18 3.5um, 2.1x50mm, Waters
AC$CHROMATOGRAPHY: FLOW_GRADIENT 90/10 at 0 min, 50/50 at 4 min, 5/95 at 17 min, 5/95 at 25 min, 90/10 at 25.1 min, 90/10 at 30 min
AC$CHROMATOGRAPHY: FLOW_RATE 200 ul/min
AC$CHROMATOGRAPHY: RETENTION_TIME 2.5 min
AC$CHROMATOGRAPHY: SOLVENT A water with 0.1% formic acid
AC$CHROMATOGRAPHY: SOLVENT B methanol with 0.1% formic acid
MS$FOCUSED_ION: BASE_PEAK 222.9955
MS$FOCUSED_ION: PRECURSOR_M/Z 222.9954
MS$FOCUSED_ION: PRECURSOR_TYPE [M+H]+
MS$DATA_PROCESSING: DEPROFILE Spline
MS$DATA_PROCESSING: RECALIBRATE loess on assigned fragments and MS1
MS$DATA_PROCESSING: REANALYZE Peaks with additional N2/O included
MS$DATA_PROCESSING: WHOLE RMassBank 1.9.6
PK$SPLASH: splash10-001i-0920000000-6dd62d0ae588814e0cf2
PK$ANNOTATION: m/z tentative_formula formula_count mass error(ppm)
  58.9823 CHNS+ 1 58.9824 -1.21
  71.9902 C2H2NS+ 1 71.9902 -0.92
  72.9852 CHN2S+ 1 72.9855 -4.05
  79.9799 H2NO2S+ 1 79.9801 -1.82
  99.9962 C2H2N3S+ 1 99.9964 -1.54
  101.0039 C2H3N3S+ 1 101.0042 -3.26
  142.007 C4H4N3OS+ 1 142.007 0.15
  149.0233 CH5N6OS+ 1 149.024 -4.6
  163.9574 N6OS2+ 1 163.957 3.04
  180.9847 C2H5N4O2S2+ 1 180.9848 -0.52
  181.9685 C2H4N3O3S2+ 1 181.9689 -1.98
  205.9689 C4H4N3O3S2+ 1 205.9689 -0.05
  222.9954 C4H7N4O3S2+ 1 222.9954 -0.22
PK$NUM_PEAK: 13
PK$PEAK: m/z int. rel.int.
  58.9823 131299.8 2
  71.9902 210475.9 4
  72.9852 255284 4
  79.9799 130187.1 2
  99.9962 183600.8 3
  101.0039 98259 1
  142.007 169127 3
  149.0233 262789.4 5
  163.9574 169648.3 3
  180.9847 51851561.3 999
  181.9685 6641211.7 127
  205.9689 176642.2 3
  222.9954 16980109.8 327
//
