ACCESSION: MSBNK-Eawag-EQ01137451
RECORD_TITLE: Ipconazole; LC-ESI-QFT; MS2; CE: 15%; R=17500; [M-H]-
DATE: 2023.04.27
AUTHORS: B. Beck [dtc,com], J. Hollender [dtc]
LICENSE: CC BY-SA
COPYRIGHT: Copyright (C) Eawag 2023
COMMENT: CONFIDENCE standard compound
COMMENT: UCHEM_ID 11374
CH$NAME: Ipconazole
CH$NAME: 2-[(4-chlorophenyl)methyl]-5-propan-2-yl-1-(1,2,4-triazol-1-ylmethyl)cyclopentan-1-ol
CH$COMPOUND_CLASS: N/A; Environmental Standard
CH$FORMULA: C18H24ClN3O
CH$EXACT_MASS: 333.1608
CH$SMILES: CC(C)C1CCC(C1(CN2C=NC=N2)O)CC3=CC=C(C=C3)Cl
CH$IUPAC: InChI=1S/C18H24ClN3O/c1-13(2)17-8-5-15(9-14-3-6-16(19)7-4-14)18(17,23)10-22-12-20-11-21-22/h3-4,6-7,11-13,15,17,23H,5,8-10H2,1-2H3
CH$LINK: CAS 125225-28-7
CH$LINK: CHEBI CHEBI:81770
CH$LINK: KEGG C18471
CH$LINK: PUBCHEM CID:86211
CH$LINK: INCHIKEY QTYCMDBMOLSEAM-UHFFFAOYSA-N
CH$LINK: CHEMSPIDER 77765
AC$INSTRUMENT: Exploris 240 Orbitrap Thermo Scientific
AC$INSTRUMENT_TYPE: LC-ESI-QFT
AC$MASS_SPECTROMETRY: MS_TYPE MS2
AC$MASS_SPECTROMETRY: ION_MODE NEGATIVE
AC$MASS_SPECTROMETRY: IONIZATION ESI
AC$MASS_SPECTROMETRY: FRAGMENTATION_MODE HCD
AC$MASS_SPECTROMETRY: COLLISION_ENERGY 15 % (nominal)
AC$MASS_SPECTROMETRY: RESOLUTION 17500
AC$MASS_SPECTROMETRY: MASS_RANGE_M/Z 50-360
AC$CHROMATOGRAPHY: COLUMN_NAME XBridge C18 3.5um, 2.1x50mm, Waters
AC$CHROMATOGRAPHY: FLOW_GRADIENT 90/10 at 0 min, 50/50 at 4 min, 5/95 at 17 min, 5/95 at 25 min, 90/10 at 25.1 min, 90/10 at 30 min
AC$CHROMATOGRAPHY: FLOW_RATE 200 uL/min
AC$CHROMATOGRAPHY: RETENTION_TIME 12.643 min
MS$FOCUSED_ION: BASE_PEAK 378.1588
MS$FOCUSED_ION: PRECURSOR_M/Z 332.1535
MS$FOCUSED_ION: PRECURSOR_TYPE [M-H]-
MS$DATA_PROCESSING: RECALIBRATE loess on assigned fragments and MS1
MS$DATA_PROCESSING: REANALYZE Peaks with additional N2/O included
MS$DATA_PROCESSING: WHOLE RMassBank 3.11.0.1
PK$SPLASH: splash10-00kb-6090000000-5b1dfcc9a56181231718
PK$ANNOTATION: m/z tentative_formula formula_count mass error(ppm)
  68.0254 C2H2N3- 1 68.0254 -0.32
  249.1053 C15H18ClO- 1 249.1052 0.58
PK$NUM_PEAK: 2
PK$PEAK: m/z int. rel.int.
  68.0254 59404.8 671
  249.1053 88420.2 999
//
