ACCESSION: MSBNK-Eawag-EA293808
RECORD_TITLE: Boscalid; LC-ESI-ITFT; MS2; CE: 15%; R=15000; [M+H]+
DATE: 2014.01.14
AUTHORS: Stravs M, Schymanski E, Singer H, Department of Environmental Chemistry, Eawag
LICENSE: CC BY
COPYRIGHT: Copyright (C) 2012 Eawag, Duebendorf, Switzerland
COMMENT: CONFIDENCE standard compound
COMMENT: EAWAG_UCHEM_ID 2938
CH$NAME: Boscalid
CH$NAME: 2-chloranyl-N-[2-(4-chlorophenyl)phenyl]pyridine-3-carboxamide
CH$COMPOUND_CLASS: N/A; Environmental Standard
CH$FORMULA: C18H12Cl2N2O
CH$EXACT_MASS: 342.0327
CH$SMILES: c1ccc(c(c1)c2ccc(cc2)Cl)NC(=O)c3cccnc3Cl
CH$IUPAC: InChI=1S/C18H12Cl2N2O/c19-13-9-7-12(8-10-13)14-4-1-2-6-16(14)22-18(23)15-5-3-11-21-17(15)20/h1-11H,(H,22,23)
CH$LINK: CAS 188425-85-6
CH$LINK: PUBCHEM CID:213013
CH$LINK: INCHIKEY WYEMLYFITZORAB-UHFFFAOYSA-N
CH$LINK: CHEMSPIDER 184713
CH$LINK: COMPTOX DTXSID6034392
AC$INSTRUMENT: LTQ Orbitrap XL Thermo Scientific
AC$INSTRUMENT_TYPE: LC-ESI-ITFT
AC$MASS_SPECTROMETRY: MS_TYPE MS2
AC$MASS_SPECTROMETRY: ION_MODE POSITIVE
AC$MASS_SPECTROMETRY: IONIZATION ESI
AC$MASS_SPECTROMETRY: FRAGMENTATION_MODE HCD
AC$MASS_SPECTROMETRY: COLLISION_ENERGY 15 % (nominal)
AC$MASS_SPECTROMETRY: RESOLUTION 15000
AC$CHROMATOGRAPHY: COLUMN_NAME XBridge C18 3.5um, 2.1x50mm, Waters
AC$CHROMATOGRAPHY: FLOW_GRADIENT 90/10 at 0 min, 50/50 at 4 min, 5/95 at 17 min, 5/95 at 25 min, 90/10 at 25.1 min, 90/10 at 30 min
AC$CHROMATOGRAPHY: FLOW_RATE 200 ul/min
AC$CHROMATOGRAPHY: RETENTION_TIME 10.5 min
AC$CHROMATOGRAPHY: SOLVENT A water with 0.1% formic acid
AC$CHROMATOGRAPHY: SOLVENT B methanol with 0.1% formic acid
MS$FOCUSED_ION: BASE_PEAK 343.0412
MS$FOCUSED_ION: PRECURSOR_M/Z 343.0399
MS$FOCUSED_ION: PRECURSOR_TYPE [M+H]+
MS$DATA_PROCESSING: DEPROFILE Spline
MS$DATA_PROCESSING: RECALIBRATE loess on assigned fragments and MS1
MS$DATA_PROCESSING: REANALYZE Peaks with additional N2/O included
MS$DATA_PROCESSING: WHOLE RMassBank 1.3.1
PK$SPLASH: splash10-0006-0009000000-85dda4095cd906af3a3a
PK$ANNOTATION: m/z tentative_formula formula_count mass error(ppm)
  139.9898 C6H3ClNO+ 2 139.9898 0.59
  307.0633 C18H12ClN2O+ 1 307.0633 0.04
  343.0398 C18H13Cl2N2O+ 1 343.0399 -0.39
PK$NUM_PEAK: 3
PK$PEAK: m/z int. rel.int.
  139.9898 182746 17
  307.0633 365684.8 34
  343.0398 10672469.5 999
//
