ACCESSION: MSBNK-Eawag-EA065304
RECORD_TITLE: 2-Naphthalenesulfonic acid; LC-ESI-ITFT; MS2; CE: 45%; R=7500; [M+H]+
DATE: 2014.01.14
AUTHORS: Stravs M, Schymanski E, Singer H, Department of Environmental Chemistry, Eawag
LICENSE: CC BY
COPYRIGHT: Copyright (C) 2012 Eawag, Duebendorf, Switzerland
COMMENT: CONFIDENCE standard compound
COMMENT: EAWAG_UCHEM_ID 653
CH$NAME: 2-Naphthalenesulfonic acid
CH$NAME: 2-naphthalenesulfonic acid
CH$COMPOUND_CLASS: N/A; Environmental Standard
CH$FORMULA: C10H8O3S
CH$EXACT_MASS: 208.0194
CH$SMILES: OS(C1=CC2=C(C=CC=C2)C=C1)(=O)=O
CH$IUPAC: InChI=1S/C10H8O3S/c11-14(12,13)10-6-5-8-3-1-2-4-9(8)7-10/h1-7H,(H,11,12,13)
CH$LINK: CAS 120-18-3
CH$LINK: KEGG C16202
CH$LINK: PUBCHEM CID:8420
CH$LINK: INCHIKEY KVBGVZZKJNLNJU-UHFFFAOYSA-N
CH$LINK: CHEMSPIDER 8113
CH$LINK: COMPTOX DTXSID5044788
AC$INSTRUMENT: LTQ Orbitrap XL Thermo Scientific
AC$INSTRUMENT_TYPE: LC-ESI-ITFT
AC$MASS_SPECTROMETRY: MS_TYPE MS2
AC$MASS_SPECTROMETRY: ION_MODE POSITIVE
AC$MASS_SPECTROMETRY: IONIZATION ESI
AC$MASS_SPECTROMETRY: FRAGMENTATION_MODE HCD
AC$MASS_SPECTROMETRY: COLLISION_ENERGY 45 % (nominal)
AC$MASS_SPECTROMETRY: RESOLUTION 7500
AC$CHROMATOGRAPHY: COLUMN_NAME XBridge C18 3.5um, 2.1x50mm, Waters
AC$CHROMATOGRAPHY: FLOW_GRADIENT 90/10 at 0 min, 50/50 at 4 min, 5/95 at 17 min, 5/95 at 25 min, 90/10 at 25.1 min, 90/10 at 30 min
AC$CHROMATOGRAPHY: FLOW_RATE 200 ul/min
AC$CHROMATOGRAPHY: RETENTION_TIME 5.2 min
AC$CHROMATOGRAPHY: SOLVENT A water with 0.1% formic acid
AC$CHROMATOGRAPHY: SOLVENT B methanol with 0.1% formic acid
MS$FOCUSED_ION: BASE_PEAK 149.0023
MS$FOCUSED_ION: PRECURSOR_M/Z 209.0267
MS$FOCUSED_ION: PRECURSOR_TYPE [M+H]+
MS$DATA_PROCESSING: DEPROFILE Spline
MS$DATA_PROCESSING: RECALIBRATE loess on assigned fragments and MS1
MS$DATA_PROCESSING: REANALYZE Peaks with additional N2/O included
MS$DATA_PROCESSING: WHOLE RMassBank 1.3.1
PK$SPLASH: splash10-004i-0900000000-e6ec48af7e6c597fcb29
PK$ANNOTATION: m/z tentative_formula formula_count mass error(ppm)
  103.0542 C8H7+ 1 103.0542 0.23
  127.0544 C10H7+ 1 127.0542 1.44
  128.062 C10H8+ 1 128.0621 -0.09
  144.0564 C10H8O+ 1 144.057 -4.07
  145.065 C10H9O+ 1 145.0648 1.71
  155.0604 C10H7N2+ 1 155.0604 -0.03
  195.9904 C10N2O3+ 1 195.9903 0.39
  209.0275 C10H9O3S+ 1 209.0267 4.06
PK$NUM_PEAK: 8
PK$PEAK: m/z int. rel.int.
  103.0542 17099 17
  127.0544 2383.4 2
  128.062 955999.6 999
  144.0564 2430.3 2
  145.065 18453.4 19
  155.0604 107688.7 112
  195.9904 2822.3 2
  209.0275 3595.9 3
//
