ACCESSION: MSBNK-Eawag-EQ332502
RECORD_TITLE: Epinephrine; LC-ESI-QFT; MS2; CE: 30; R=35000; [M+H]+
DATE: 2015.08.25
AUTHORS: Otto J, Stravs M, Schymanski E, Singer H, Department of Environmental Chemistry, Eawag
LICENSE: CC BY
COPYRIGHT: Copyright (C) 2015 Eawag, Duebendorf, Switzerland
COMMENT: CONFIDENCE standard compound
COMMENT: EAWAG_UCHEM_ID 3325
CH$NAME: Epinephrine
CH$NAME: 4-[(1R)-1-hydroxy-2-(methylamino)ethyl]benzene-1,2-diol
CH$COMPOUND_CLASS: N/A; Environmental Standard
CH$FORMULA: C9H13NO3
CH$EXACT_MASS: 183.08954
CH$SMILES: CNC[C@@H](C1=CC(=C(C=C1)O)O)O
CH$IUPAC: InChI=1S/C9H13NO3/c1-10-5-9(13)6-2-3-7(11)8(12)4-6/h2-4,9-13H,5H2,1H3/t9-/m0/s1
CH$LINK: CAS 51-43-4
CH$LINK: KEGG C00788
CH$LINK: PUBCHEM CID:5816
CH$LINK: INCHIKEY UCTWMZQNUQWSLP-VIFPVBQESA-N
CH$LINK: CHEMSPIDER 5611
CH$LINK: COMPTOX DTXSID5022986
AC$INSTRUMENT: Q Exactive Orbitrap Thermo Scientific
AC$INSTRUMENT_TYPE: LC-ESI-QFT
AC$MASS_SPECTROMETRY: MS_TYPE MS2
AC$MASS_SPECTROMETRY: ION_MODE POSITIVE
AC$MASS_SPECTROMETRY: IONIZATION ESI
AC$MASS_SPECTROMETRY: FRAGMENTATION_MODE HCD
AC$MASS_SPECTROMETRY: COLLISION_ENERGY 30 (nominal)
AC$MASS_SPECTROMETRY: RESOLUTION 35000
AC$CHROMATOGRAPHY: COLUMN_NAME XBridge C18 3.5um, 2.1x50mm, Waters
AC$CHROMATOGRAPHY: FLOW_GRADIENT 90/10 at 0 min, 50/50 at 4 min, 5/95 at 17 min, 5/95 at 25 min, 90/10 at 25.1 min, 90/10 at 30 min
AC$CHROMATOGRAPHY: FLOW_RATE 200 ul/min
AC$CHROMATOGRAPHY: RETENTION_TIME 0.8 min
AC$CHROMATOGRAPHY: SOLVENT A water with 0.1% formic acid
AC$CHROMATOGRAPHY: SOLVENT B methanol with 0.1% formic acid
MS$FOCUSED_ION: BASE_PEAK 166.0863
MS$FOCUSED_ION: PRECURSOR_M/Z 184.0968
MS$FOCUSED_ION: PRECURSOR_TYPE [M+H]+
MS$DATA_PROCESSING: DEPROFILE vendor picking in Proteowizard
MS$DATA_PROCESSING: RECALIBRATE loess on assigned fragments and MS1
MS$DATA_PROCESSING: REANALYZE Peaks with additional N2/O included
MS$DATA_PROCESSING: WHOLE RMassBank 1.9.6
PK$SPLASH: splash10-014i-0900000000-764cb0c1210c346e8bd3
PK$ANNOTATION: m/z tentative_formula formula_count mass error(ppm)
  57.0573 C3H7N+ 1 57.0573 0.87
  58.0652 C3H8N+ 1 58.0651 0.94
  91.0543 C7H7+ 1 91.0542 0.37
  107.0492 C7H7O+ 1 107.0491 0.27
  109.0285 C6H5O2+ 1 109.0284 0.77
  119.0491 C8H7O+ 1 119.0491 -0.68
  120.0808 C8H10N+ 1 120.0808 0.12
  123.0436 C7H7O2+ 1 123.0441 -3.38
  125.0598 C7H9O2+ 1 125.0597 0.75
  133.0522 C8H7NO+ 1 133.0522 -0.11
  135.0441 C8H7O2+ 1 135.0441 0.03
  137.0597 C8H9O2+ 1 137.0597 -0.12
  148.0757 C9H10NO+ 1 148.0757 0.4
  151.0628 C8H9NO2+ 1 151.0628 0.27
  166.0864 C9H12NO2+ 1 166.0863 1.11
  184.097 C9H14NO3+ 1 184.0968 0.98
PK$NUM_PEAK: 16
PK$PEAK: m/z int. rel.int.
  57.0573 766282.5 6
  58.0652 941639.1 8
  91.0543 136194.4 1
  107.0492 2402156 21
  109.0285 279742.7 2
  119.0491 122848.8 1
  120.0808 1527217.6 13
  123.0436 263671.8 2
  125.0598 239552 2
  133.0522 319122.3 2
  135.0441 5492511 48
  137.0597 1110471.2 9
  148.0757 2182716 19
  151.0628 1706929.6 15
  166.0864 112149384 999
  184.097 178440.3 1
//
