ACCESSION: MSBNK-Eawag-EQ363509
RECORD_TITLE: Topiramate; LC-ESI-QFT; MS2; CE: 180; R=35000; [M+H]+
DATE: 2015.08.25
AUTHORS: Stravs M, Schymanski E, Singer H, Department of Environmental Chemistry, Eawag and Thomaidis N, University of Athens
LICENSE: CC BY
COPYRIGHT: Copyright (C) 2015 Eawag, Duebendorf, Switzerland
COMMENT: CONFIDENCE standard compound
COMMENT: EAWAG_UCHEM_ID 3635
CH$NAME: Topiramate
CH$NAME: Topamax
CH$NAME: (2,2,7,7-tetramethyl-5,5a,8a,8b-tetrahydrodi[1,3]dioxolo[4,5-a:5`,3`-d]pyran-3a-yl)methyl sulfamate
CH$COMPOUND_CLASS: N/A; Environmental Standard
CH$FORMULA: C12H21NO8S
CH$EXACT_MASS: 339.09879
CH$SMILES: CC1(OC2COC3(C(C2O1)OC(O3)(C)C)COS(=O)(=O)N)C
CH$IUPAC: InChI=1S/C12H21NO8S/c1-10(2)18-7-5-16-12(6-17-22(13,14)15)9(8(7)19-10)20-11(3,4)21-12/h7-9H,5-6H2,1-4H3,(H2,13,14,15)
CH$LINK: CAS 97240-79-4
CH$LINK: PUBCHEM CID:5514
CH$LINK: INCHIKEY KJADKKWYZYXHBB-UHFFFAOYSA-N
CH$LINK: CHEMSPIDER 5313
AC$INSTRUMENT: Q Exactive Plus Orbitrap Thermo Scientific
AC$INSTRUMENT_TYPE: LC-ESI-QFT
AC$MASS_SPECTROMETRY: MS_TYPE MS2
AC$MASS_SPECTROMETRY: ION_MODE POSITIVE
AC$MASS_SPECTROMETRY: IONIZATION ESI
AC$MASS_SPECTROMETRY: FRAGMENTATION_MODE HCD
AC$MASS_SPECTROMETRY: COLLISION_ENERGY 180 (nominal)
AC$MASS_SPECTROMETRY: RESOLUTION 35000
AC$CHROMATOGRAPHY: COLUMN_NAME XBridge C18 3.5um, 2.1x50mm, Waters
AC$CHROMATOGRAPHY: FLOW_GRADIENT 90/10 at 0 min, 50/50 at 4 min, 5/95 at 17 min, 5/95 at 25 min, 90/10 at 25.1 min, 90/10 at 30 min
AC$CHROMATOGRAPHY: FLOW_RATE 200 ul/min
AC$CHROMATOGRAPHY: RETENTION_TIME 6.1 min
AC$CHROMATOGRAPHY: SOLVENT A water with 0.1% formic acid
AC$CHROMATOGRAPHY: SOLVENT B methanol with 0.1% formic acid
MS$FOCUSED_ION: BASE_PEAK 357.132
MS$FOCUSED_ION: PRECURSOR_M/Z 340.1061
MS$FOCUSED_ION: PRECURSOR_TYPE [M+H]+
MS$DATA_PROCESSING: RECALIBRATE loess on assigned fragments and MS1
MS$DATA_PROCESSING: REANALYZE Peaks with additional N2/O included
MS$DATA_PROCESSING: WHOLE RMassBank 1.9.6
PK$SPLASH: splash10-0kdi-9000000000-5a6e40375b62b79f8b42
PK$ANNOTATION: m/z tentative_formula formula_count mass error(ppm)
  50.0152 C4H2+ 1 50.0151 1.77
  51.023 C4H3+ 1 51.0229 1.64
  53.0022 C3HO+ 1 53.0022 1.11
  53.0386 C4H5+ 1 53.0386 1.01
  53.9975 C2NO+ 1 53.9974 0.37
  55.0179 C3H3O+ 1 55.0178 0.89
  56.0495 C3H6N+ 1 56.0495 0.08
  57.0336 C3H5O+ 1 57.0335 1.38
  59.0492 C3H7O+ 1 59.0491 0.83
  65.0386 C5H5+ 1 65.0386 0.98
  69.0335 C4H5O+ 1 69.0335 0.27
  71.0127 C3H3O2+ 1 71.0128 -0.79
  79.9801 H2NO2S+ 1 79.9801 0.05
  81.0336 C5H5O+ 1 81.0335 1.59
  95.0492 C6H7O+ 1 95.0491 0.41
PK$NUM_PEAK: 15
PK$PEAK: m/z int. rel.int.
  50.0152 36676.2 98
  51.023 69822.1 187
  53.0022 66710.4 178
  53.0386 101788.2 272
  53.9975 8064.8 21
  55.0179 57107.2 153
  56.0495 6297.6 16
  57.0336 10303.8 27
  59.0492 144137.2 386
  65.0386 6565.5 17
  69.0335 25419.5 68
  71.0127 9574.2 25
  79.9801 372619.3 999
  81.0336 8308.8 22
  95.0492 6665 17
//
