ACCESSION: MSBNK-Eawag-EQ332052
RECORD_TITLE: Niclosamide; LC-ESI-QFT; MS2; CE: 30; R=35000; [M-H]-
DATE: 2015.08.25
AUTHORS: Otto J, Stravs M, Schymanski E, Singer H, Department of Environmental Chemistry, Eawag
LICENSE: CC BY
COPYRIGHT: Copyright (C) 2015 Eawag, Duebendorf, Switzerland
COMMENT: CONFIDENCE standard compound
COMMENT: EAWAG_UCHEM_ID 3320
CH$NAME: Niclosamide
CH$NAME: 5-chloro-N-(2-chloro-4-nitrophenyl)-2-hydroxybenzamide
CH$COMPOUND_CLASS: N/A; Environmental Standard
CH$FORMULA: C13H8Cl2N2O4
CH$EXACT_MASS: 325.98611
CH$SMILES: C1=CC(=C(C=C1[N+](=O)[O-])Cl)NC(=O)C2=C(C=CC(=C2)Cl)O
CH$IUPAC: InChI=1S/C13H8Cl2N2O4/c14-7-1-4-12(18)9(5-7)13(19)16-11-3-2-8(17(20)21)6-10(11)15/h1-6,18H,(H,16,19)
CH$LINK: CAS 50-65-7
CH$LINK: KEGG D00436
CH$LINK: PUBCHEM CID:4477
CH$LINK: INCHIKEY RJMUSRYZPJIFPJ-UHFFFAOYSA-N
CH$LINK: CHEMSPIDER 4322
CH$LINK: COMPTOX DTXSID7040362
AC$INSTRUMENT: Q Exactive Orbitrap Thermo Scientific
AC$INSTRUMENT_TYPE: LC-ESI-QFT
AC$MASS_SPECTROMETRY: MS_TYPE MS2
AC$MASS_SPECTROMETRY: ION_MODE NEGATIVE
AC$MASS_SPECTROMETRY: IONIZATION ESI
AC$MASS_SPECTROMETRY: FRAGMENTATION_MODE HCD
AC$MASS_SPECTROMETRY: COLLISION_ENERGY 30 (nominal)
AC$MASS_SPECTROMETRY: RESOLUTION 35000
AC$CHROMATOGRAPHY: COLUMN_NAME XBridge C18 3.5um, 2.1x50mm, Waters
AC$CHROMATOGRAPHY: FLOW_GRADIENT 90/10 at 0 min, 50/50 at 4 min, 5/95 at 17 min, 5/95 at 25 min, 90/10 at 25.1 min, 90/10 at 30 min
AC$CHROMATOGRAPHY: FLOW_RATE 200 ul/min
AC$CHROMATOGRAPHY: RETENTION_TIME 15.6 min
AC$CHROMATOGRAPHY: SOLVENT A water with 0.1% formic acid
AC$CHROMATOGRAPHY: SOLVENT B methanol with 0.1% formic acid
MS$FOCUSED_ION: BASE_PEAK 324.9794
MS$FOCUSED_ION: PRECURSOR_M/Z 324.9788
MS$FOCUSED_ION: PRECURSOR_TYPE [M-H]-
MS$DATA_PROCESSING: DEPROFILE vendor picking in Proteowizard
MS$DATA_PROCESSING: RECALIBRATE loess on assigned fragments and MS1
MS$DATA_PROCESSING: REANALYZE Peaks with additional N2/O included
MS$DATA_PROCESSING: WHOLE RMassBank 1.9.6
PK$SPLASH: splash10-00dr-0982000000-be44b0c8755c752ba0f3
PK$ANNOTATION: m/z tentative_formula formula_count mass error(ppm)
  80.0462 H6N3O2- 1 80.0466 -4.62
  105.0221 C6H3NO- 2 105.022 1.31
  126.9957 C6H4ClO- 2 126.9956 0.35
  135.02 C6H3N2O2- 1 135.02 0.36
  140.9987 C6H4ClNO- 3 140.9987 0.07
  151.9908 C7H3ClNO- 3 151.9909 -0.56
  170.9968 C6H4ClN2O2- 2 170.9967 0.65
  171.9809 C6H3ClNO3- 3 171.9807 0.91
  179.0098 C7H3N2O4- 1 179.0098 -0.34
  215.0144 C12H6ClNO- 1 215.0143 0.28
  216.0098 C11H5ClN2O- 1 216.0096 0.93
  223.0276 C13H5NO3- 1 223.0275 0.67
  228.0101 C12H5ClN2O- 1 228.0096 2.02
  231.0095 C12H6ClNO2- 1 231.0093 0.89
  243.0093 C13H6ClNO2- 1 243.0093 0.19
  245.0127 C12H6ClN2O2- 1 245.0123 1.56
  257.9963 C13H5ClNO3- 1 257.9963 -0.29
  259.0043 C13H6ClNO3- 1 259.0042 0.47
  289.0023 C13H6ClN2O4- 1 289.0022 0.56
  324.9791 C13H7Cl2N2O4- 1 324.9788 0.81
PK$NUM_PEAK: 20
PK$PEAK: m/z int. rel.int.
  80.0462 118215.4 1
  105.0221 105727 1
  126.9957 103265.4 1
  135.02 315817.2 4
  140.9987 83165.6 1
  151.9908 457166.5 6
  170.9968 71373464 999
  171.9809 552430.1 7
  179.0098 1030843.4 14
  215.0144 1039591.3 14
  216.0098 252280.6 3
  223.0276 619913.3 8
  228.0101 115903.6 1
  231.0095 467755.4 6
  243.0093 890297.1 12
  245.0127 445051.1 6
  257.9963 117403.2 1
  259.0043 383412.5 5
  289.0023 66365776 928
  324.9791 16652011 233
//
