ACCESSION: MSBNK-Eawag-EQ01132705
RECORD_TITLE: Anthraquinone; LC-ESI-QFT; MS2; CE: 75%; R=17500; [M+H]+
DATE: 2023.04.27
AUTHORS: B. Beck [dtc,com], J. Hollender [dtc]
LICENSE: CC BY-SA
COPYRIGHT: Copyright (C) Eawag 2023
COMMENT: CONFIDENCE standard compound
COMMENT: UCHEM_ID 11327
CH$NAME: Anthraquinone
CH$NAME: anthracene-9,10-dione
CH$COMPOUND_CLASS: N/A; Environmental Standard
CH$FORMULA: C14H8O2
CH$EXACT_MASS: 208.0524
CH$SMILES: C1=CC=C2C(=C1)C(=O)C3=CC=CC=C3C2=O
CH$IUPAC: InChI=1S/C14H8O2/c15-13-9-5-1-2-6-10(9)14(16)12-8-4-3-7-11(12)13/h1-8H
CH$LINK: CAS 84-65-1
CH$LINK: CHEBI CHEBI:40448
CH$LINK: KEGG C16207
CH$LINK: PUBCHEM CID:6780
CH$LINK: INCHIKEY RZVHIXYEVGDQDX-UHFFFAOYSA-N
CH$LINK: CHEMSPIDER 13835294
AC$INSTRUMENT: Exploris 240 Orbitrap Thermo Scientific
AC$INSTRUMENT_TYPE: LC-ESI-QFT
AC$MASS_SPECTROMETRY: MS_TYPE MS2
AC$MASS_SPECTROMETRY: ION_MODE POSITIVE
AC$MASS_SPECTROMETRY: IONIZATION ESI
AC$MASS_SPECTROMETRY: FRAGMENTATION_MODE HCD
AC$MASS_SPECTROMETRY: COLLISION_ENERGY 75 % (nominal)
AC$MASS_SPECTROMETRY: RESOLUTION 17500
AC$MASS_SPECTROMETRY: MASS_RANGE_M/Z 46-234
AC$CHROMATOGRAPHY: COLUMN_NAME XBridge C18 3.5um, 2.1x50mm, Waters
AC$CHROMATOGRAPHY: FLOW_GRADIENT 90/10 at 0 min, 50/50 at 4 min, 5/95 at 17 min, 5/95 at 25 min, 90/10 at 25.1 min, 90/10 at 30 min
AC$CHROMATOGRAPHY: FLOW_RATE 200 uL/min
AC$CHROMATOGRAPHY: RETENTION_TIME 9.212 min
MS$FOCUSED_ION: BASE_PEAK 132.9582
MS$FOCUSED_ION: PRECURSOR_M/Z 209.0597
MS$FOCUSED_ION: PRECURSOR_TYPE [M+H]+
MS$DATA_PROCESSING: RECALIBRATE loess on assigned fragments and MS1
MS$DATA_PROCESSING: REANALYZE Peaks with additional N2/O included
MS$DATA_PROCESSING: WHOLE RMassBank 3.11.0.1
PK$SPLASH: splash10-0udi-0910000000-28faa3ae0d16a774e756
PK$ANNOTATION: m/z tentative_formula formula_count mass error(ppm)
  105.0335 C7H5O+ 1 105.0335 -0.01
  152.062 C12H8+ 1 152.0621 -0.57
  153.0698 C12H9+ 1 153.0699 -0.65
  169.0646 C12H9O+ 1 169.0648 -1.16
  181.065 C13H9O+ 1 181.0648 1.22
  209.0598 C14H9O2+ 1 209.0597 0.52
PK$NUM_PEAK: 6
PK$PEAK: m/z int. rel.int.
  105.0335 116298.5 209
  152.062 553653.8 999
  153.0698 423563.6 764
  169.0646 28631 51
  181.065 7526.3 13
  209.0598 244948.8 441
//
