ACCESSION: MSBNK-Eawag-EQ356202
RECORD_TITLE: Haloxyfop; LC-ESI-QFT; MS2; CE: 30; R=35000; [M+H]+
DATE: 2015.08.25
AUTHORS: Stravs M, Schymanski E, Singer H, Department of Environmental Chemistry, Eawag and Thomaidis N, University of Athens
LICENSE: CC BY
COPYRIGHT: Copyright (C) 2015 Eawag, Duebendorf, Switzerland
COMMENT: CONFIDENCE standard compound
COMMENT: EAWAG_UCHEM_ID 3562
CH$NAME: Haloxyfop
CH$NAME: 2-[4-[3-chloro-5-(trifluoromethyl)pyridin-2-yl]oxyphenoxy]propanoic acid
CH$COMPOUND_CLASS: N/A; Environmental Standard
CH$FORMULA: C15H11ClF3NO4
CH$EXACT_MASS: 361.03287
CH$SMILES: CC(C(=O)O)OC1=CC=C(C=C1)OC2=C(C=C(C=N2)C(F)(F)F)Cl
CH$IUPAC: InChI=1S/C15H11ClF3NO4/c1-8(14(21)22)23-10-2-4-11(5-3-10)24-13-12(16)6-9(7-20-13)15(17,18)19/h2-8H,1H3,(H,21,22)
CH$LINK: CAS 69806-34-4
CH$LINK: CHEBI CHEBI:365
CH$LINK: KEGG C04871
CH$LINK: PUBCHEM CID:50895
CH$LINK: INCHIKEY GOCUAJYOYBLQRH-UHFFFAOYSA-N
CH$LINK: CHEMSPIDER 46140
CH$LINK: COMPTOX DTXSID7042019
AC$INSTRUMENT: Q Exactive Plus Orbitrap Thermo Scientific
AC$INSTRUMENT_TYPE: LC-ESI-QFT
AC$MASS_SPECTROMETRY: MS_TYPE MS2
AC$MASS_SPECTROMETRY: ION_MODE POSITIVE
AC$MASS_SPECTROMETRY: IONIZATION ESI
AC$MASS_SPECTROMETRY: FRAGMENTATION_MODE HCD
AC$MASS_SPECTROMETRY: COLLISION_ENERGY 30 (nominal)
AC$MASS_SPECTROMETRY: RESOLUTION 35000
AC$CHROMATOGRAPHY: COLUMN_NAME XBridge C18 3.5um, 2.1x50mm, Waters
AC$CHROMATOGRAPHY: FLOW_GRADIENT 90/10 at 0 min, 50/50 at 4 min, 5/95 at 17 min, 5/95 at 25 min, 90/10 at 25.1 min, 90/10 at 30 min
AC$CHROMATOGRAPHY: FLOW_RATE 200 ul/min
AC$CHROMATOGRAPHY: RETENTION_TIME 13.6 min
AC$CHROMATOGRAPHY: SOLVENT A water with 0.1% formic acid
AC$CHROMATOGRAPHY: SOLVENT B methanol with 0.1% formic acid
MS$FOCUSED_ION: BASE_PEAK 391.2839
MS$FOCUSED_ION: PRECURSOR_M/Z 362.0401
MS$FOCUSED_ION: PRECURSOR_TYPE [M+H]+
MS$DATA_PROCESSING: RECALIBRATE loess on assigned fragments and MS1
MS$DATA_PROCESSING: REANALYZE Peaks with additional N2/O included
MS$DATA_PROCESSING: WHOLE RMassBank 1.9.6
PK$SPLASH: splash10-014i-0029000000-d7a6b507cde3d2d317a5
PK$ANNOTATION: m/z tentative_formula formula_count mass error(ppm)
  65.0386 C5H5+ 1 65.0386 0.67
  91.0543 C7H7+ 1 91.0542 0.92
  98.9844 CH4ClO3+ 1 98.9843 0.02
  111.044 C6H7O2+ 2 111.0441 -0.14
  119.0493 C8H7O+ 2 119.0491 1.17
  121.0285 C7H5O2+ 2 121.0284 0.94
  166.0626 C9H10O3+ 1 166.0624 0.75
  197.993 C6H4ClF3NO+ 2 197.9928 1.2
  247.0401 C13H8FO4+ 3 247.0401 0.03
  252.0637 C13H9F3NO+ 1 252.0631 2.64
  260.0452 C12H10ClF3N+ 2 260.0448 1.55
  272.0082 C15H3F3O2+ 3 272.008 0.94
  288.04 C13H10ClF3NO+ 1 288.0398 0.96
  289.0114 C12H7ClF3NO2+ 3 289.0112 0.82
  290.0192 C12H8ClF3NO2+ 3 290.019 0.7
  298.0241 C14H8ClF3NO+ 1 298.0241 0.06
  316.0349 C14H10ClF3NO2+ 1 316.0347 0.83
  362.0405 C15H12ClF3NO4+ 1 362.0401 0.92
PK$NUM_PEAK: 18
PK$PEAK: m/z int. rel.int.
  65.0386 2999.8 1
  91.0543 218061.2 112
  98.9844 2056.1 1
  111.044 6139.3 3
  119.0493 56691.2 29
  121.0285 82523.8 42
  166.0626 2020.3 1
  197.993 7397.4 3
  247.0401 8279.2 4
  252.0637 3492.4 1
  260.0452 9649.8 4
  272.0082 28631.6 14
  288.04 264547.6 136
  289.0114 183188 94
  290.0192 47551.7 24
  298.0241 6221.4 3
  316.0349 1929184.4 999
  362.0405 220000.4 113
//
