ACCESSION: MSBNK-Eawag-EQ332706
RECORD_TITLE: Carisoprodol; LC-ESI-QFT; MS2; CE: 90; R=35000; [M+H]+
DATE: 2015.08.25
AUTHORS: Otto J, Stravs M, Schymanski E, Singer H, Department of Environmental Chemistry, Eawag
LICENSE: CC BY
COPYRIGHT: Copyright (C) 2015 Eawag, Duebendorf, Switzerland
COMMENT: CONFIDENCE standard compound
COMMENT: EAWAG_UCHEM_ID 3327
CH$NAME: Carisoprodol
CH$NAME: [2-(carbamoyloxymethyl)-2-methylpentyl] N-propan-2-ylcarbamate
CH$COMPOUND_CLASS: N/A; Environmental Standard
CH$FORMULA: C12H24N2O4
CH$EXACT_MASS: 260.17361
CH$SMILES: CCCC(C)(COC(=O)N)COC(=O)NC(C)C
CH$IUPAC: InChI=1S/C12H24N2O4/c1-5-6-12(4,7-17-10(13)15)8-18-11(16)14-9(2)3/h9H,5-8H2,1-4H3,(H2,13,15)(H,14,16)
CH$LINK: CAS 78-44-4
CH$LINK: KEGG D00768
CH$LINK: PUBCHEM CID:2576
CH$LINK: INCHIKEY OFZCIYFFPZCNJE-UHFFFAOYSA-N
CH$LINK: CHEMSPIDER 2478
CH$LINK: COMPTOX DTXSID8024733
AC$INSTRUMENT: Q Exactive Orbitrap Thermo Scientific
AC$INSTRUMENT_TYPE: LC-ESI-QFT
AC$MASS_SPECTROMETRY: MS_TYPE MS2
AC$MASS_SPECTROMETRY: ION_MODE POSITIVE
AC$MASS_SPECTROMETRY: IONIZATION ESI
AC$MASS_SPECTROMETRY: FRAGMENTATION_MODE HCD
AC$MASS_SPECTROMETRY: COLLISION_ENERGY 90 (nominal)
AC$MASS_SPECTROMETRY: RESOLUTION 35000
AC$CHROMATOGRAPHY: COLUMN_NAME XBridge C18 3.5um, 2.1x50mm, Waters
AC$CHROMATOGRAPHY: FLOW_GRADIENT 90/10 at 0 min, 50/50 at 4 min, 5/95 at 17 min, 5/95 at 25 min, 90/10 at 25.1 min, 90/10 at 30 min
AC$CHROMATOGRAPHY: FLOW_RATE 200 ul/min
AC$CHROMATOGRAPHY: RETENTION_TIME 8.8 min
AC$CHROMATOGRAPHY: SOLVENT A water with 0.1% formic acid
AC$CHROMATOGRAPHY: SOLVENT B methanol with 0.1% formic acid
MS$FOCUSED_ION: BASE_PEAK 261.1812
MS$FOCUSED_ION: PRECURSOR_M/Z 261.1809
MS$FOCUSED_ION: PRECURSOR_TYPE [M+H]+
MS$DATA_PROCESSING: DEPROFILE vendor picking in Proteowizard
MS$DATA_PROCESSING: RECALIBRATE loess on assigned fragments and MS1
MS$DATA_PROCESSING: REANALYZE Peaks with additional N2/O included
MS$DATA_PROCESSING: WHOLE RMassBank 1.9.6
PK$SPLASH: splash10-03di-9000000000-007521fa65c254bad2b6
PK$ANNOTATION: m/z tentative_formula formula_count mass error(ppm)
  51.023 C4H3+ 1 51.0229 2.22
  53.0024 C3HO+ 1 53.0022 3.56
  53.0388 C4H5+ 1 53.0386 3.27
  53.9976 C2NO+ 1 53.9974 2.59
  55.0544 C4H7+ 1 55.0542 2.6
  57.07 C4H9+ 1 57.0699 1.99
  59.0493 C3H7O+ 1 59.0491 1.84
  62.0237 CH4NO2+ 1 62.0237 1.37
  67.0543 C5H7+ 1 67.0542 0.94
  69.0699 C5H9+ 1 69.0699 0.77
  71.0855 C5H11+ 1 71.0855 0.19
  73.0649 C4H9O+ 1 73.0648 0.8
  97.1013 C7H13+ 1 97.1012 1.47
  104.0708 C4H10NO2+ 1 104.0706 1.78
PK$NUM_PEAK: 14
PK$PEAK: m/z int. rel.int.
  51.023 77986.9 1
  53.0024 646344.6 12
  53.0388 1960966.8 37
  53.9976 87531.5 1
  55.0544 24876328 481
  57.07 64429.1 1
  59.0493 3202062.5 61
  62.0237 51617960 999
  67.0543 164234.8 3
  69.0699 5506930.5 106
  71.0855 142922.9 2
  73.0649 147874.5 2
  97.1013 380408.8 7
  104.0708 155818.3 3
//
