ACCESSION: MSBNK-Eawag-EA025962
RECORD_TITLE: Dimethenamid OXA; LC-ESI-ITFT; MS2; CE: 75%; R=15000; [M-H]-
DATE: 2014.01.14
AUTHORS: Stravs M, Schymanski E, Singer H, Department of Environmental Chemistry, Eawag
LICENSE: CC BY
COPYRIGHT: Copyright (C) 2012 Eawag, Duebendorf, Switzerland
COMMENT: CONFIDENCE standard compound
COMMENT: EAWAG_UCHEM_ID 259
CH$NAME: Dimethenamid OXA
CH$NAME: [(2,4-dimethylthiophen-3-yl)(1-methoxypropan-2-yl)amino](oxo)acetic acid
CH$COMPOUND_CLASS: N/A; Environmental Standard
CH$FORMULA: C12H17NO4S
CH$EXACT_MASS: 271.0878
CH$SMILES: S(C=C1C)C(C)=C1N(C(=O)C(=O)O)C(COC)C
CH$IUPAC: InChI=1S/C12H17NO4S/c1-7-6-18-9(3)10(7)13(8(2)5-17-4)11(14)12(15)16/h6,8H,5H2,1-4H3,(H,15,16)
CH$LINK: CAS 380412-59-9
CH$LINK: INCHIKEY HOYCASTVMCEOTP-UHFFFAOYSA-N
CH$LINK: CHEMSPIDER 28290255
CH$LINK: COMPTOX DTXSID4037530
AC$INSTRUMENT: LTQ Orbitrap XL Thermo Scientific
AC$INSTRUMENT_TYPE: LC-ESI-ITFT
AC$MASS_SPECTROMETRY: MS_TYPE MS2
AC$MASS_SPECTROMETRY: ION_MODE NEGATIVE
AC$MASS_SPECTROMETRY: IONIZATION ESI
AC$MASS_SPECTROMETRY: FRAGMENTATION_MODE HCD
AC$MASS_SPECTROMETRY: COLLISION_ENERGY 75 % (nominal)
AC$MASS_SPECTROMETRY: RESOLUTION 15000
AC$CHROMATOGRAPHY: COLUMN_NAME XBridge C18 3.5um, 2.1x50mm, Waters
AC$CHROMATOGRAPHY: FLOW_GRADIENT 90/10 at 0 min, 50/50 at 4 min, 5/95 at 17 min, 5/95 at 25 min, 90/10 at 25.1 min, 90/10 at 30 min
AC$CHROMATOGRAPHY: FLOW_RATE 200 ul/min
AC$CHROMATOGRAPHY: RETENTION_TIME 7.2 min
AC$CHROMATOGRAPHY: SOLVENT A water with 0.1% formic acid
AC$CHROMATOGRAPHY: SOLVENT B methanol with 0.1% formic acid
MS$FOCUSED_ION: BASE_PEAK 270.0801
MS$FOCUSED_ION: PRECURSOR_M/Z 270.0806
MS$FOCUSED_ION: PRECURSOR_TYPE [M-H]-
MS$DATA_PROCESSING: DEPROFILE Spline
MS$DATA_PROCESSING: RECALIBRATE loess on assigned fragments and MS1
MS$DATA_PROCESSING: REANALYZE Peaks with additional N2/O included
MS$DATA_PROCESSING: WHOLE RMassBank 1.3.1
PK$SPLASH: splash10-0f6t-6900000000-6c169f222b3207e4e289
PK$ANNOTATION: m/z tentative_formula formula_count mass error(ppm)
  98.0066 C4H4NS- 1 98.007 -4.22
  148.0223 C8H6NS- 1 148.0226 -2.59
  150.0382 C8H8NS- 1 150.0383 -0.76
  152.0542 C8H10NS- 1 152.0539 1.75
PK$NUM_PEAK: 4
PK$PEAK: m/z int. rel.int.
  98.0066 13521.7 999
  148.0223 4577.3 338
  150.0382 8809.1 650
  152.0542 4293.3 317
//
