ACCESSION: MSBNK-Eawag-EQ301251
RECORD_TITLE: Atazanavir; LC-ESI-QFT; MS2; CE: 15; R=35000; [M-H]-
DATE: 2015.08.25
AUTHORS: Beck B, Stravs M, Schymanski E, Singer H, Department of Environmental Chemistry, Eawag
LICENSE: CC BY
COPYRIGHT: Copyright (C) 2015 Eawag, Duebendorf, Switzerland
COMMENT: CONFIDENCE standard compound
COMMENT: EAWAG_UCHEM_ID 3012
CH$NAME: Atazanavir
CH$NAME: N-[(1S)-1-[[(1S,2S)-1-benzyl-3-[[[(2S)-2-(carbomethoxyamino)-3,3-dimethyl-butanoyl]amino]-[4-(2-pyridyl)benzyl]amino]-2-hydroxy-propyl]carbamoyl]-2,2-dimethyl-propyl]carbamic acid methyl ester
CH$COMPOUND_CLASS: N/A; Environmental Standard
CH$FORMULA: C38H52N6O7
CH$EXACT_MASS: 704.38975
CH$SMILES: CC(C)(C)C(C(=O)NC(CC1=CC=CC=C1)C(CN(CC2=CC=C(C=C2)C3=CC=CC=N3)NC(=O)C(C(C)(C)C)NC(=O)OC)O)NC(=O)OC
CH$IUPAC: InChI=1S/C38H52N6O7/c1-37(2,3)31(41-35(48)50-7)33(46)40-29(22-25-14-10-9-11-15-25)30(45)24-44(43-34(47)32(38(4,5)6)42-36(49)51-8)23-26-17-19-27(20-18-26)28-16-12-13-21-39-28/h9-21,29-32,45H,22-24H2,1-8H3,(H,40,46)(H,41,48)(H,42,49)(H,43,47)/t29-,30-,31+,32+/m0/s1
CH$LINK: CAS 198904-31-3
CH$LINK: KEGG D07471
CH$LINK: PUBCHEM CID:148192
CH$LINK: INCHIKEY AXRYRYVKAWYZBR-GASGPIRDSA-N
CH$LINK: CHEMSPIDER 130642
CH$LINK: COMPTOX DTXSID9048691
AC$INSTRUMENT: Q Exactive Orbitrap Thermo Scientific
AC$INSTRUMENT_TYPE: LC-ESI-QFT
AC$MASS_SPECTROMETRY: MS_TYPE MS2
AC$MASS_SPECTROMETRY: ION_MODE NEGATIVE
AC$MASS_SPECTROMETRY: IONIZATION ESI
AC$MASS_SPECTROMETRY: FRAGMENTATION_MODE HCD
AC$MASS_SPECTROMETRY: COLLISION_ENERGY 15 (nominal)
AC$MASS_SPECTROMETRY: RESOLUTION 35000
AC$CHROMATOGRAPHY: COLUMN_NAME XBridge C18 3.5um, 2.1x50mm, Waters
AC$CHROMATOGRAPHY: FLOW_GRADIENT 90/10 at 0 min, 50/50 at 4 min, 5/95 at 17 min, 5/95 at 25 min, 90/10 at 25.1 min, 90/10 at 30 min
AC$CHROMATOGRAPHY: FLOW_RATE 200 ul/min
AC$CHROMATOGRAPHY: RETENTION_TIME 11.8 min
AC$CHROMATOGRAPHY: SOLVENT A water with 0.1% formic acid
AC$CHROMATOGRAPHY: SOLVENT B methanol with 0.1% formic acid
MS$FOCUSED_ION: BASE_PEAK 703.3829
MS$FOCUSED_ION: PRECURSOR_M/Z 703.3825
MS$FOCUSED_ION: PRECURSOR_TYPE [M-H]-
MS$DATA_PROCESSING: DEPROFILE Spline
MS$DATA_PROCESSING: RECALIBRATE loess on assigned fragments and MS1
MS$DATA_PROCESSING: REANALYZE Peaks with additional N2/O included
MS$DATA_PROCESSING: WHOLE RMassBank 1.9.6
PK$SPLASH: splash10-052r-0400109000-34888fbaf35d6a59436b
PK$ANNOTATION: m/z tentative_formula formula_count mass error(ppm)
  98.0121 C3H2N2O2- 1 98.0122 -1.28
  155.0826 C7H11N2O2- 1 155.0826 -0.07
  195.0926 C13H11N2- 1 195.0928 -0.98
  287.1401 C16H19N2O3- 2 287.1401 -0.2
  483.2401 C29H31N4O3- 3 483.2402 -0.15
  639.3298 C36H43N6O5- 2 639.33 -0.43
PK$NUM_PEAK: 7
PK$PEAK: m/z int. rel.int.
  98.0121 88613 3
  155.0826 13327305.8 506
  195.0926 293187.3 11
  287.1401 386353.2 14
  483.2401 3734096.7 141
  639.3298 26276360.4 999
  671.3561 849242.7681 32
//
