ACCESSION: MSBNK-Eawag-EQ348802
RECORD_TITLE: Isoxaflutole; LC-ESI-QFT; MS2; CE: 30; R=35000; [M+H]+
DATE: 2015.08.25
AUTHORS: Stravs M, Schymanski E, Singer H, Department of Environmental Chemistry, Eawag and Thomaidis N, University of Athens
LICENSE: CC BY
COPYRIGHT: Copyright (C) 2015 Eawag, Duebendorf, Switzerland
COMMENT: CONFIDENCE standard compound
COMMENT: EAWAG_UCHEM_ID 3488
CH$NAME: Isoxaflutole
CH$NAME: (5-cyclopropyl-1,2-oxazol-4-yl)-[2-methylsulfonyl-4-(trifluoromethyl)phenyl]methanone
CH$COMPOUND_CLASS: N/A; Environmental Standard
CH$FORMULA: C15H12F3NO4S
CH$EXACT_MASS: 359.04391
CH$SMILES: O=C(c1c(onc1)C2CC2)c3ccc(cc3S(=O)(=O)C)C(F)(F)F
CH$IUPAC: InChI=1S/C15H12F3NO4S/c1-24(21,22)12-6-9(15(16,17)18)4-5-10(12)13(20)11-7-19-23-14(11)8-2-3-8/h4-8H,2-3H2,1H3
CH$LINK: CAS 141112-29-0
CH$LINK: PUBCHEM CID:84098
CH$LINK: INCHIKEY OYIKARCXOQLFHF-UHFFFAOYSA-N
CH$LINK: CHEMSPIDER 75869
CH$LINK: COMPTOX DTXSID5034723
AC$INSTRUMENT: Q Exactive Plus Orbitrap Thermo Scientific
AC$INSTRUMENT_TYPE: LC-ESI-QFT
AC$MASS_SPECTROMETRY: MS_TYPE MS2
AC$MASS_SPECTROMETRY: ION_MODE POSITIVE
AC$MASS_SPECTROMETRY: IONIZATION ESI
AC$MASS_SPECTROMETRY: FRAGMENTATION_MODE HCD
AC$MASS_SPECTROMETRY: COLLISION_ENERGY 30 (nominal)
AC$MASS_SPECTROMETRY: RESOLUTION 35000
AC$CHROMATOGRAPHY: COLUMN_NAME XBridge C18 3.5um, 2.1x50mm, Waters
AC$CHROMATOGRAPHY: FLOW_GRADIENT 90/10 at 0 min, 50/50 at 4 min, 5/95 at 17 min, 5/95 at 25 min, 90/10 at 25.1 min, 90/10 at 30 min
AC$CHROMATOGRAPHY: FLOW_RATE 200 ul/min
AC$CHROMATOGRAPHY: RETENTION_TIME 8.7 min
AC$CHROMATOGRAPHY: SOLVENT A water with 0.1% formic acid
AC$CHROMATOGRAPHY: SOLVENT B methanol with 0.1% formic acid
MS$FOCUSED_ION: BASE_PEAK 360.0506
MS$FOCUSED_ION: PRECURSOR_M/Z 360.0512
MS$FOCUSED_ION: PRECURSOR_TYPE [M+H]+
MS$DATA_PROCESSING: RECALIBRATE loess on assigned fragments and MS1
MS$DATA_PROCESSING: REANALYZE Peaks with additional N2/O included
MS$DATA_PROCESSING: WHOLE RMassBank 1.9.6
PK$SPLASH: splash10-0udi-0090000000-512447190c1396368865
PK$ANNOTATION: m/z tentative_formula formula_count mass error(ppm)
  69.0335 C4H5O+ 1 69.0335 0.13
  172.0123 C8H3F3O+ 2 172.0131 -4.25
  250.9985 C9H6F3O3S+ 3 250.9984 0.13
  263.0559 C14H8F3NO+ 2 263.0552 2.47
  283.0248 C10H10F3O4S+ 2 283.0246 0.53
PK$NUM_PEAK: 5
PK$PEAK: m/z int. rel.int.
  69.0335 1224578 6
  172.0123 491119.1 2
  250.9985 183691600 999
  263.0559 199820.3 1
  283.0248 1349317.2 7
//
