ACCESSION: MSBNK-Eawag-EQ01126505
RECORD_TITLE: Dicrotophos; LC-ESI-QFT; MS2; CE: 75%; R=17500; [M+H]+
DATE: 2023.04.27
AUTHORS: B. Beck [dtc,com], J. Hollender [dtc]
LICENSE: CC BY-SA
COPYRIGHT: Copyright (C) Eawag 2023
COMMENT: CONFIDENCE standard compound
COMMENT: UCHEM_ID 11265
CH$NAME: Dicrotophos
CH$NAME: 3-Hydroxy-N,N-dimethylcrotonamide dimethyl phosphate
CH$NAME: [4-(dimethylamino)-4-oxobut-2-en-2-yl] dimethyl phosphate
CH$COMPOUND_CLASS: N/A; Environmental Standard
CH$FORMULA: C8H16NO5P
CH$EXACT_MASS: 237.0766
CH$SMILES: CC(=CC(=O)N(C)C)OP(=O)(OC)OC
CH$IUPAC: InChI=1S/C8H16NO5P/c1-7(6-8(10)9(2)3)14-15(11,12-4)13-5/h6H,1-5H3
CH$LINK: CAS 141-66-2
CH$LINK: PUBCHEM CID:8854
CH$LINK: INCHIKEY VEENJGZXVHKXNB-UHFFFAOYSA-N
CH$LINK: CHEMSPIDER 8522
AC$INSTRUMENT: Exploris 240 Orbitrap Thermo Scientific
AC$INSTRUMENT_TYPE: LC-ESI-QFT
AC$MASS_SPECTROMETRY: MS_TYPE MS2
AC$MASS_SPECTROMETRY: ION_MODE POSITIVE
AC$MASS_SPECTROMETRY: IONIZATION ESI
AC$MASS_SPECTROMETRY: FRAGMENTATION_MODE HCD
AC$MASS_SPECTROMETRY: COLLISION_ENERGY 75 % (nominal)
AC$MASS_SPECTROMETRY: RESOLUTION 17500
AC$MASS_SPECTROMETRY: MASS_RANGE_M/Z 50-264
AC$CHROMATOGRAPHY: COLUMN_NAME XBridge C18 3.5um, 2.1x50mm, Waters
AC$CHROMATOGRAPHY: FLOW_GRADIENT 90/10 at 0 min, 50/50 at 4 min, 5/95 at 17 min, 5/95 at 25 min, 90/10 at 25.1 min, 90/10 at 30 min
AC$CHROMATOGRAPHY: FLOW_RATE 200 uL/min
AC$CHROMATOGRAPHY: RETENTION_TIME 3.436 min
MS$FOCUSED_ION: BASE_PEAK 238.0837
MS$FOCUSED_ION: PRECURSOR_M/Z 238.0839
MS$FOCUSED_ION: PRECURSOR_TYPE [M+H]+
MS$DATA_PROCESSING: RECALIBRATE loess on assigned fragments and MS1
MS$DATA_PROCESSING: REANALYZE Peaks with additional N2/O included
MS$DATA_PROCESSING: WHOLE RMassBank 3.11.0.1
PK$SPLASH: splash10-00di-9300000000-53c0ae53c3eb3209c2c8
PK$ANNOTATION: m/z tentative_formula formula_count mass error(ppm)
  55.0177 C3H3O+ 1 55.0178 -1.92
  55.0417 C3H5N+ 1 55.0417 1.09
  58.0287 C2H4NO+ 1 58.0287 -0.94
  58.0651 C3H8N+ 1 58.0651 0.1
  67.0178 C4H3O+ 1 67.0178 -0.45
  69.0334 C4H5O+ 1 69.0335 -1.09
  70.0651 C4H8N+ 1 70.0651 0.1
  72.0444 C3H6NO+ 1 72.0444 -0.43
  84.0807 C5H10N+ 1 84.0808 -0.45
  94.9896 CH4O3P+ 1 94.9893 3.9
  109.0048 C2H6O3P+ 1 109.0049 -1.17
  112.0756 C6H10NO+ 1 112.0757 -0.47
  113.0001 CH6O4P+ 1 112.9998 2.12
  127.0154 C2H8O4P+ 1 127.0155 -0.21
PK$NUM_PEAK: 14
PK$PEAK: m/z int. rel.int.
  55.0177 2594622.5 11
  55.0417 2215121.5 9
  58.0287 1513963.6 6
  58.0651 2286336.5 9
  67.0178 41919420 179
  69.0334 2180227.8 9
  70.0651 21058688 90
  72.0444 233696240 999
  84.0807 3962357.8 16
  94.9896 1840538.5 7
  109.0048 9369704 40
  112.0756 25700652 109
  113.0001 4445092.5 19
  127.0154 94341184 403
//
