ACCESSION: MSBNK-Eawag-EA257909
RECORD_TITLE: Cyclophosphamide; LC-ESI-ITFT; MS2; CE: 30%; R=15000; [M+H]+
DATE: 2014.01.14
AUTHORS: Stravs M, Schymanski E, Singer H, Department of Environmental Chemistry, Eawag
LICENSE: CC BY
COPYRIGHT: Copyright (C) 2012 Eawag, Duebendorf, Switzerland
COMMENT: CONFIDENCE standard compound
COMMENT: EAWAG_UCHEM_ID 2579
CH$NAME: Cyclophosphamide
CH$NAME: N,N-bis(2-chloroethyl)-2-oxidanylidene-1,3,2$l^{5}-oxazaphosphinan-2-amine
CH$COMPOUND_CLASS: N/A; Environmental Standard
CH$FORMULA: C7H15Cl2N2O2P
CH$EXACT_MASS: 260.0248
CH$SMILES: ClCCN(CCCl)P1(=O)NCCCO1
CH$IUPAC: InChI=1S/C7H15Cl2N2O2P/c8-2-5-11(6-3-9)14(12)10-4-1-7-13-14/h1-7H2,(H,10,12)
CH$LINK: CAS 50-18-0
CH$LINK: CHEBI CHEBI:4027
CH$LINK: KEGG D07760
CH$LINK: PUBCHEM CID:2907
CH$LINK: INCHIKEY CMSMOCZEIVJLDB-UHFFFAOYSA-N
CH$LINK: CHEMSPIDER 2804
CH$LINK: COMPTOX DTXSID5020364
AC$INSTRUMENT: LTQ Orbitrap XL Thermo Scientific
AC$INSTRUMENT_TYPE: LC-ESI-ITFT
AC$MASS_SPECTROMETRY: MS_TYPE MS2
AC$MASS_SPECTROMETRY: ION_MODE POSITIVE
AC$MASS_SPECTROMETRY: IONIZATION ESI
AC$MASS_SPECTROMETRY: FRAGMENTATION_MODE HCD
AC$MASS_SPECTROMETRY: COLLISION_ENERGY 30 % (nominal)
AC$MASS_SPECTROMETRY: RESOLUTION 15000
AC$CHROMATOGRAPHY: COLUMN_NAME XBridge C18 3.5um, 2.1x50mm, Waters
AC$CHROMATOGRAPHY: FLOW_GRADIENT 90/10 at 0 min, 50/50 at 4 min, 5/95 at 17 min, 5/95 at 25 min, 90/10 at 25.1 min, 90/10 at 30 min
AC$CHROMATOGRAPHY: FLOW_RATE 200 ul/min
AC$CHROMATOGRAPHY: RETENTION_TIME 6.3 min
AC$CHROMATOGRAPHY: SOLVENT A water with 0.1% formic acid
AC$CHROMATOGRAPHY: SOLVENT B methanol with 0.1% formic acid
MS$FOCUSED_ION: BASE_PEAK 261.0328
MS$FOCUSED_ION: PRECURSOR_M/Z 261.0321
MS$FOCUSED_ION: PRECURSOR_TYPE [M+H]+
MS$DATA_PROCESSING: DEPROFILE Spline
MS$DATA_PROCESSING: RECALIBRATE loess on assigned fragments and MS1
MS$DATA_PROCESSING: REANALYZE Peaks with additional N2/O included
MS$DATA_PROCESSING: WHOLE RMassBank 1.3.1
PK$SPLASH: splash10-03di-0190000000-a6fa921df18384671a7c
PK$ANNOTATION: m/z tentative_formula formula_count mass error(ppm)
  56.0494 C3H6N+ 1 56.0495 -0.64
  58.0652 C3H8N+ 1 58.0651 0.94
  106.0419 C4H9ClN+ 2 106.0418 0.82
  110.0002 C2H5ClNO2+ 1 110.0003 -1.2
  120.021 C3H7NO2P+ 4 120.0209 0.57
  138.0315 C4H9ClNO2+ 1 138.0316 -0.74
  140.003 C4H8Cl2N+ 3 140.0028 1.06
  142.0186 C4H10Cl2N+ 3 142.0185 0.49
  185.0241 C4H11ClN2O2P+ 2 185.0241 -0.04
  233.001 C5H12Cl2N2O2P+ 1 233.0008 0.83
  261.0321 C7H16Cl2N2O2P+ 1 261.0321 0.01
PK$NUM_PEAK: 11
PK$PEAK: m/z int. rel.int.
  56.0494 28343.8 1
  58.0652 38670.7 1
  106.0419 1567709.4 61
  110.0002 57788.2 2
  120.021 200538.1 7
  138.0315 197224.1 7
  140.003 2324313.8 91
  142.0186 1023698.3 40
  185.0241 50737.5 1
  233.001 2233359.3 87
  261.0321 25450828.7 999
//
