ACCESSION: MSBNK-Eawag-EA070001
RECORD_TITLE: Pethoxamide; LC-ESI-ITFT; MS2; CE: 35%; R=7500; [M+H]+
DATE: 2014.01.14
AUTHORS: Stravs M, Schymanski E, Singer H, Department of Environmental Chemistry, Eawag
LICENSE: CC BY
COPYRIGHT: Copyright (C) 2012 Eawag, Duebendorf, Switzerland
COMMENT: CONFIDENCE standard compound
COMMENT: EAWAG_UCHEM_ID 700
CH$NAME: Pethoxamide
CH$NAME: 2-chloro-N-(2-ethoxyethyl)-N-(2-methyl-1-phenylprop-1-enyl)acetamide
CH$COMPOUND_CLASS: N/A; Environmental Standard
CH$FORMULA: C16H22ClNO2
CH$EXACT_MASS: 295.1334
CH$SMILES: ClCC(=O)N(CCOCC)\C(=C(\C)C)c1ccccc1
CH$IUPAC: InChI=1S/C16H22ClNO2/c1-4-20-11-10-18(15(19)12-17)16(13(2)3)14-8-6-5-7-9-14/h5-9H,4,10-12H2,1-3H3
CH$LINK: CAS 106700-29-2
CH$LINK: PUBCHEM CID:6450826
CH$LINK: INCHIKEY CSWIKHNSBZVWNQ-UHFFFAOYSA-N
CH$LINK: CHEMSPIDER 4953376
CH$LINK: COMPTOX DTXSID4057928
AC$INSTRUMENT: LTQ Orbitrap XL Thermo Scientific
AC$INSTRUMENT_TYPE: LC-ESI-ITFT
AC$MASS_SPECTROMETRY: MS_TYPE MS2
AC$MASS_SPECTROMETRY: ION_MODE POSITIVE
AC$MASS_SPECTROMETRY: IONIZATION ESI
AC$MASS_SPECTROMETRY: FRAGMENTATION_MODE CID
AC$MASS_SPECTROMETRY: COLLISION_ENERGY 35 % (nominal)
AC$MASS_SPECTROMETRY: RESOLUTION 7500
AC$CHROMATOGRAPHY: COLUMN_NAME XBridge C18 3.5um, 2.1x50mm, Waters
AC$CHROMATOGRAPHY: FLOW_GRADIENT 90/10 at 0 min, 50/50 at 4 min, 5/95 at 17 min, 5/95 at 25 min, 90/10 at 25.1 min, 90/10 at 30 min
AC$CHROMATOGRAPHY: FLOW_RATE 200 ul/min
AC$CHROMATOGRAPHY: RETENTION_TIME 11.5 min
AC$CHROMATOGRAPHY: SOLVENT A water with 0.1% formic acid
AC$CHROMATOGRAPHY: SOLVENT B methanol with 0.1% formic acid
MS$FOCUSED_ION: BASE_PEAK 296.1418
MS$FOCUSED_ION: PRECURSOR_M/Z 296.1412
MS$FOCUSED_ION: PRECURSOR_TYPE [M+H]+
MS$DATA_PROCESSING: DEPROFILE Spline
MS$DATA_PROCESSING: RECALIBRATE loess on assigned fragments and MS1
MS$DATA_PROCESSING: REANALYZE Peaks with additional N2/O included
MS$DATA_PROCESSING: WHOLE RMassBank 1.3.1
PK$SPLASH: splash10-0udi-0190000000-724a9416faaadbf789e3
PK$ANNOTATION: m/z tentative_formula formula_count mass error(ppm)
  73.0648 C4H9O+ 1 73.0648 0.53
  91.054 C7H7+ 1 91.0542 -2.82
  116.062 C9H8+ 1 116.0621 -0.79
  120.0212 C4H7ClNO+ 1 120.0211 1.52
  129.0699 C10H9+ 1 129.0699 -0.05
  131.0856 C10H11+ 1 131.0855 0.94
  134.0368 C5H9ClNO+ 2 134.0367 0.46
  148.0525 C6H11ClNO+ 2 148.0524 0.76
  176.1071 C11H14NO+ 1 176.107 0.39
  220.1697 C14H22NO+ 1 220.1696 0.54
  250.0998 C14H17ClNO+ 1 250.0993 1.73
PK$NUM_PEAK: 11
PK$PEAK: m/z int. rel.int.
  73.0648 15635.4 2
  91.054 41545.8 6
  116.062 15290.8 2
  120.0212 13000.7 2
  129.0699 25859.8 4
  131.0856 703818.8 114
  134.0368 206752.5 33
  148.0525 50753.4 8
  176.1071 42027.9 6
  220.1697 99075.1 16
  250.0998 6115418.1 999
//
