ACCESSION: MSBNK-Eawag-EQ372004
RECORD_TITLE: Quinmerac; LC-ESI-QFT; MS2; CE: 60; R=35000; [M+H]+
DATE: 2015.08.25
AUTHORS: Stravs M, Schymanski E, Singer H, Department of Environmental Chemistry, Eawag and Thomaidis N, University of Athens
LICENSE: CC BY
COPYRIGHT: Copyright (C) 2015 Eawag, Duebendorf, Switzerland
COMMENT: CONFIDENCE standard compound
COMMENT: EAWAG_UCHEM_ID 3720
CH$NAME: Quinmerac
CH$NAME: 7-chloro-3-methyl-quinoline-8-carboxylic acid
CH$NAME: 7-chloro-3-methylquinoline-8-carboxylic acid
CH$COMPOUND_CLASS: N/A; Environmental Standard
CH$FORMULA: C11H8ClNO2
CH$EXACT_MASS: 221.02436
CH$SMILES: CC1=CN=C2C(=C1)C=CC(=C2C(=O)O)Cl
CH$IUPAC: InChI=1S/C11H8ClNO2/c1-6-4-7-2-3-8(12)9(11(14)15)10(7)13-5-6/h2-5H,1H3,(H,14,15)
CH$LINK: CAS 90717-03-6
CH$LINK: CHEBI CHEBI:82039
CH$LINK: KEGG C18891
CH$LINK: PUBCHEM CID:91749
CH$LINK: INCHIKEY ALZOLUNSQWINIR-UHFFFAOYSA-N
CH$LINK: CHEMSPIDER 82847
CH$LINK: COMPTOX DTXSID1042364
AC$INSTRUMENT: Q Exactive Plus Orbitrap Thermo Scientific
AC$INSTRUMENT_TYPE: LC-ESI-QFT
AC$MASS_SPECTROMETRY: MS_TYPE MS2
AC$MASS_SPECTROMETRY: ION_MODE POSITIVE
AC$MASS_SPECTROMETRY: IONIZATION ESI
AC$MASS_SPECTROMETRY: FRAGMENTATION_MODE HCD
AC$MASS_SPECTROMETRY: COLLISION_ENERGY 60 (nominal)
AC$MASS_SPECTROMETRY: RESOLUTION 35000
AC$CHROMATOGRAPHY: COLUMN_NAME XBridge C18 3.5um, 2.1x50mm, Waters
AC$CHROMATOGRAPHY: FLOW_GRADIENT 90/10 at 0 min, 50/50 at 4 min, 5/95 at 17 min, 5/95 at 25 min, 90/10 at 25.1 min, 90/10 at 30 min
AC$CHROMATOGRAPHY: FLOW_RATE 200 ul/min
AC$CHROMATOGRAPHY: RETENTION_TIME 5.2 min
AC$CHROMATOGRAPHY: SOLVENT A water with 0.1% formic acid
AC$CHROMATOGRAPHY: SOLVENT B methanol with 0.1% formic acid
MS$FOCUSED_ION: BASE_PEAK 222.0312
MS$FOCUSED_ION: PRECURSOR_M/Z 222.0316
MS$FOCUSED_ION: PRECURSOR_TYPE [M+H]+
MS$DATA_PROCESSING: RECALIBRATE loess on assigned fragments and MS1
MS$DATA_PROCESSING: REANALYZE Peaks with additional N2/O included
MS$DATA_PROCESSING: WHOLE RMassBank 1.9.6
PK$SPLASH: splash10-0udi-0390000000-2c26a9ec852fd8a3b466
PK$ANNOTATION: m/z tentative_formula formula_count mass error(ppm)
  140.0495 C10H6N+ 1 140.0495 -0.11
  141.0573 C10H7N+ 1 141.0573 -0.29
  149.0153 C9H6Cl+ 1 149.0153 0.24
  158.0602 C10H8NO+ 1 158.06 0.88
  168.0556 C10H6N3+ 1 168.0556 -0.08
  176.0262 C10H7ClN+ 1 176.0262 0.09
  194.0368 C10H9ClNO+ 1 194.0367 0.37
  204.0211 C11H7ClNO+ 1 204.0211 -0.04
  222.0317 C11H9ClNO2+ 1 222.0316 0.17
PK$NUM_PEAK: 9
PK$PEAK: m/z int. rel.int.
  140.0495 2705311.8 47
  141.0573 5435707.5 96
  149.0153 3452964.5 60
  158.0602 126995.8 2
  168.0556 61182.4 1
  176.0262 9180846 162
  194.0368 5342490.5 94
  204.0211 56557920 999
  222.0317 5508666 97
//
