ACCESSION: MSBNK-Eawag-EQ01107204
RECORD_TITLE: 4,4`-Oxydianiline; LC-ESI-QFT; MS2; CE: 60%; R=15000; [M+H]+
DATE: 2024.06.14
AUTHORS: F. Jud [dtc], K. Arturi [dtc], J. Hollender [dtc], A. Dax [com]
LICENSE: CC BY-SA
COPYRIGHT: Copyright (C) Eawag 2024
COMMENT: CONFIDENCE standard compound
COMMENT: UCHEM_ID 11072
CH$NAME: 4,4`-Oxydianiline
CH$NAME: 4-(4-aminophenoxy)aniline
CH$COMPOUND_CLASS: N/A
CH$FORMULA: C12H12N2O
CH$EXACT_MASS: 200.094963
CH$SMILES: NC1=CC=C(OC2=CC=C(N)C=C2)C=C1
CH$IUPAC: InChI=1S/C12H12N2O/c13-9-1-5-11(6-2-9)15-12-7-3-10(14)4-8-12/h1-8H,13-14H2
CH$LINK: CAS 101-80-4
CH$LINK: CHEBI CHEBI:34384
CH$LINK: KEGG C14759
CH$LINK: PUBCHEM CID:7579
CH$LINK: INCHIKEY HLBLWEWZXPIGSM-UHFFFAOYSA-N
CH$LINK: CHEMSPIDER 7298
AC$INSTRUMENT: Exploris 240 Thermo Scientific
AC$INSTRUMENT_TYPE: LC-ESI-QFT
AC$MASS_SPECTROMETRY: MS_TYPE MS2
AC$MASS_SPECTROMETRY: ION_MODE POSITIVE
AC$MASS_SPECTROMETRY: IONIZATION ESI
AC$MASS_SPECTROMETRY: FRAGMENTATION_MODE HCD
AC$MASS_SPECTROMETRY: COLLISION_ENERGY 60 % (nominal)
AC$MASS_SPECTROMETRY: RESOLUTION 15000
AC$MASS_SPECTROMETRY: MASS_RANGE_M/Z 45-226
AC$CHROMATOGRAPHY: COLUMN_NAME XBridge C18 3.5um, 2.1x50mm, Waters
AC$CHROMATOGRAPHY: FLOW_GRADIENT 90/10 at 0 min, 50/50 at 4 min, 5/95 at 17 min, 5/95 at 25 min, 90/10 at 25.1 min, 90/10 at 30 min
AC$CHROMATOGRAPHY: FLOW_RATE 200 uL/min
AC$CHROMATOGRAPHY: RETENTION_TIME 1.535 min
MS$FOCUSED_ION: BASE_PEAK 201.1018
MS$FOCUSED_ION: PRECURSOR_M/Z 201.1022
MS$FOCUSED_ION: PRECURSOR_TYPE [M+H]+
MS$DATA_PROCESSING: RECALIBRATE loess on assigned fragments and MS1
MS$DATA_PROCESSING: REANALYZE Peaks with additional N2/O included
MS$DATA_PROCESSING: WHOLE RMassBank 3.15.1.1
PK$SPLASH: splash10-0a4i-1920000000-62fdaa319f6f86910113
PK$ANNOTATION: m/z tentative_formula formula_count mass error(ppm)
  80.0494 C5H6N+ 1 80.0495 -1
  93.0572 C6H7N+ 1 93.0573 -1.37
  94.0651 C6H8N+ 1 94.0651 -0.6
  108.0442 C6H6NO+ 1 108.0444 -1.32
  109.0523 C6H7NO+ 1 109.0522 1.06
  129.07 C10H9+ 1 129.0699 0.67
  156.0808 C11H10N+ 1 156.0808 -0.09
  184.0754 C12H10NO+ 1 184.0757 -1.32
  201.1021 C12H13N2O+ 1 201.1022 -0.62
PK$NUM_PEAK: 9
PK$PEAK: m/z int. rel.int.
  80.0494 13237487 115
  93.0572 6859723.5 59
  94.0651 2174868.2 18
  108.0442 114958792 999
  109.0523 1343349.5 11
  129.07 2385409 20
  156.0808 9635314 83
  184.0754 8636086 75
  201.1021 33640240 292
//
