ACCESSION: MSBNK-Eawag-EQ00350202
RECORD_TITLE: Acibenzolar-S-methyl; LC-ESI-QFT; MS2; CE: 30%; R=15000; [M+H]+
DATE: 2024.06.14
AUTHORS: F. Jud [dtc], K. Arturi [dtc], J. Hollender [dtc], A. Dax [com]
LICENSE: CC BY-SA
COPYRIGHT: Copyright (C) Eawag 2024
COMMENT: CONFIDENCE standard compound
COMMENT: UCHEM_ID 3502
CH$NAME: Acibenzolar-S-methyl
CH$NAME: S-methyl 1,2,3-benzothiadiazole-7-carbothioate
CH$COMPOUND_CLASS: N/A
CH$FORMULA: C8H6N2OS2
CH$EXACT_MASS: 209.9921548
CH$SMILES: CSC(=O)C1=C2C(=CC=C1)N=NS2
CH$IUPAC: InChI=1S/C8H6N2OS2/c1-12-8(11)5-3-2-4-6-7(5)13-10-9-6/h2-4H,1H3
CH$LINK: CAS 135158-54-2
CH$LINK: CHEBI CHEBI:73178
CH$LINK: PUBCHEM CID:86412
CH$LINK: INCHIKEY UELITFHSCLAHKR-UHFFFAOYSA-N
CH$LINK: CHEMSPIDER 77928
AC$INSTRUMENT: Exploris 240 Thermo Scientific
AC$INSTRUMENT_TYPE: LC-ESI-QFT
AC$MASS_SPECTROMETRY: MS_TYPE MS2
AC$MASS_SPECTROMETRY: ION_MODE POSITIVE
AC$MASS_SPECTROMETRY: IONIZATION ESI
AC$MASS_SPECTROMETRY: FRAGMENTATION_MODE HCD
AC$MASS_SPECTROMETRY: COLLISION_ENERGY 30 % (nominal)
AC$MASS_SPECTROMETRY: RESOLUTION 15000
AC$MASS_SPECTROMETRY: MASS_RANGE_M/Z 47-236
AC$CHROMATOGRAPHY: COLUMN_NAME XBridge C18 3.5um, 2.1x50mm, Waters
AC$CHROMATOGRAPHY: FLOW_GRADIENT 90/10 at 0 min, 50/50 at 4 min, 5/95 at 17 min, 5/95 at 25 min, 90/10 at 25.1 min, 90/10 at 30 min
AC$CHROMATOGRAPHY: FLOW_RATE 200 uL/min
AC$CHROMATOGRAPHY: RETENTION_TIME 8.455 min
MS$FOCUSED_ION: BASE_PEAK 210.9989
MS$FOCUSED_ION: PRECURSOR_M/Z 210.9994
MS$FOCUSED_ION: PRECURSOR_TYPE [M+H]+
MS$DATA_PROCESSING: RECALIBRATE loess on assigned fragments and MS1
MS$DATA_PROCESSING: REANALYZE Peaks with additional N2/O included
MS$DATA_PROCESSING: WHOLE RMassBank 3.15.1.1
PK$SPLASH: splash10-03di-0090000000-98961ec29f849ad2e7f3
PK$ANNOTATION: m/z tentative_formula formula_count mass error(ppm)
  91.0541 C7H7+ 1 91.0542 -1.93
  210.999 C8H7N2OS2+ 1 210.9994 -2.27
PK$NUM_PEAK: 2
PK$PEAK: m/z int. rel.int.
  91.0541 1124429.6 16
  210.999 68781056 999
//
