ACCESSION: MSBNK-Eawag-EQ307301
RECORD_TITLE: Ofloxacin; LC-ESI-QFT; MS2; CE: 15; R=35000; [M+H]+
DATE: 2015.08.25
AUTHORS: Beck B, Stravs M, Schymanski E, Singer H, Department of Environmental Chemistry, Eawag
LICENSE: CC BY
COPYRIGHT: Copyright (C) 2015 Eawag, Duebendorf, Switzerland
COMMENT: CONFIDENCE standard compound
COMMENT: EAWAG_UCHEM_ID 3073
CH$NAME: Ofloxacin
CH$NAME: DL-8280
CH$COMPOUND_CLASS: N/A; Environmental Standard
CH$FORMULA: C18H20FN3O4
CH$EXACT_MASS: 361.14378
CH$SMILES: Fc4cc1c2N(/C=C(\C1=O)C(=O)O)C(COc2c4N3CCN(C)CC3)C
CH$IUPAC: InChI=1S/C18H20FN3O4/c1-10-9-26-17-14-11(16(23)12(18(24)25)8-22(10)14)7-13(19)15(17)21-5-3-20(2)4-6-21/h7-8,10H,3-6,9H2,1-2H3,(H,24,25)
CH$LINK: CAS 82419-36-1
CH$LINK: CHEBI CHEBI:7731
CH$LINK: KEGG C07321
CH$LINK: PUBCHEM CID:3288597
CH$LINK: INCHIKEY GSDSWSVVBLHKDQ-UHFFFAOYSA-N
CH$LINK: CHEMSPIDER 4422
CH$LINK: COMPTOX DTXSID3041085
AC$INSTRUMENT: Q Exactive Orbitrap Thermo Scientific
AC$INSTRUMENT_TYPE: LC-ESI-QFT
AC$MASS_SPECTROMETRY: MS_TYPE MS2
AC$MASS_SPECTROMETRY: ION_MODE POSITIVE
AC$MASS_SPECTROMETRY: IONIZATION ESI
AC$MASS_SPECTROMETRY: FRAGMENTATION_MODE HCD
AC$MASS_SPECTROMETRY: COLLISION_ENERGY 15 (nominal)
AC$MASS_SPECTROMETRY: RESOLUTION 35000
AC$CHROMATOGRAPHY: COLUMN_NAME XBridge C18 3.5um, 2.1x50mm, Waters
AC$CHROMATOGRAPHY: FLOW_GRADIENT 90/10 at 0 min, 50/50 at 4 min, 5/95 at 17 min, 5/95 at 25 min, 90/10 at 25.1 min, 90/10 at 30 min
AC$CHROMATOGRAPHY: FLOW_RATE 200 ul/min
AC$CHROMATOGRAPHY: RETENTION_TIME 4.1 min
AC$CHROMATOGRAPHY: SOLVENT A water with 0.1% formic acid
AC$CHROMATOGRAPHY: SOLVENT B methanol with 0.1% formic acid
MS$FOCUSED_ION: BASE_PEAK 362.151
MS$FOCUSED_ION: PRECURSOR_M/Z 362.1511
MS$FOCUSED_ION: PRECURSOR_TYPE [M+H]+
MS$DATA_PROCESSING: DEPROFILE Spline
MS$DATA_PROCESSING: RECALIBRATE loess on assigned fragments and MS1
MS$DATA_PROCESSING: REANALYZE Peaks with additional N2/O included
MS$DATA_PROCESSING: WHOLE RMassBank 1.9.6
PK$SPLASH: splash10-03di-0009000000-8ca4d2a7e1305755f3d3
PK$ANNOTATION: m/z tentative_formula formula_count mass error(ppm)
  261.1033 C14H14FN2O2+ 2 261.1034 -0.28
  318.1612 C17H21FN3O2+ 1 318.1612 -0.07
  362.1509 C18H21FN3O4+ 1 362.1511 -0.53
PK$NUM_PEAK: 3
PK$PEAK: m/z int. rel.int.
  261.1033 1239920.7 5
  318.1612 22635255 101
  362.1509 222666807.1 999
//
