ACCESSION: MSBNK-Eawag-EQ311801
RECORD_TITLE: Triflumuron; LC-ESI-QFT; MS2; CE: 15; R=35000; [M+H]+
DATE: 2015.08.25
AUTHORS: Beck B, Stravs M, Schymanski E, Singer H, Department of Environmental Chemistry, Eawag
LICENSE: CC BY
COPYRIGHT: Copyright (C) 2015 Eawag, Duebendorf, Switzerland
COMMENT: CONFIDENCE standard compound
COMMENT: EAWAG_UCHEM_ID 3118
CH$NAME: Triflumuron
CH$NAME: 2-chloranyl-N-[[4-(trifluoromethyloxy)phenyl]carbamoyl]benzamide
CH$COMPOUND_CLASS: N/A; Environmental Standard
CH$FORMULA: C15H10ClF3N2O3
CH$EXACT_MASS: 358.03320
CH$SMILES: O=C(c1ccccc1Cl)NC(=O)Nc2ccc(OC(F)(F)F)cc2
CH$IUPAC: InChI=1S/C15H10ClF3N2O3/c16-12-4-2-1-3-11(12)13(22)21-14(23)20-9-5-7-10(8-6-9)24-15(17,18)19/h1-8H,(H2,20,21,22,23)
CH$LINK: CAS 64628-44-0
CH$LINK: PUBCHEM CID:47445
CH$LINK: INCHIKEY XAIPTRIXGHTTNT-UHFFFAOYSA-N
CH$LINK: CHEMSPIDER 43172
CH$LINK: COMPTOX DTXSID5034355
AC$INSTRUMENT: Q Exactive Orbitrap Thermo Scientific
AC$INSTRUMENT_TYPE: LC-ESI-QFT
AC$MASS_SPECTROMETRY: MS_TYPE MS2
AC$MASS_SPECTROMETRY: ION_MODE POSITIVE
AC$MASS_SPECTROMETRY: IONIZATION ESI
AC$MASS_SPECTROMETRY: FRAGMENTATION_MODE HCD
AC$MASS_SPECTROMETRY: COLLISION_ENERGY 15 (nominal)
AC$MASS_SPECTROMETRY: RESOLUTION 35000
AC$CHROMATOGRAPHY: COLUMN_NAME XBridge C18 3.5um, 2.1x50mm, Waters
AC$CHROMATOGRAPHY: FLOW_GRADIENT 90/10 at 0 min, 50/50 at 4 min, 5/95 at 17 min, 5/95 at 25 min, 90/10 at 25.1 min, 90/10 at 30 min
AC$CHROMATOGRAPHY: FLOW_RATE 200 ul/min
AC$CHROMATOGRAPHY: RETENTION_TIME 13.8 min
AC$CHROMATOGRAPHY: SOLVENT A water with 0.1% formic acid
AC$CHROMATOGRAPHY: SOLVENT B methanol with 0.1% formic acid
MS$FOCUSED_ION: BASE_PEAK 359.0407
MS$FOCUSED_ION: PRECURSOR_M/Z 359.0405
MS$FOCUSED_ION: PRECURSOR_TYPE [M+H]+
MS$DATA_PROCESSING: DEPROFILE Spline
MS$DATA_PROCESSING: RECALIBRATE loess on assigned fragments and MS1
MS$DATA_PROCESSING: REANALYZE Peaks with additional N2/O included
MS$DATA_PROCESSING: WHOLE RMassBank 1.9.6
PK$SPLASH: splash10-0a4i-0904000000-f386e954d3a55bb7c04b
PK$ANNOTATION: m/z tentative_formula formula_count mass error(ppm)
  110.9993 C6H4Cl+ 2 110.9996 -2.83
  113.0151 C6H6Cl+ 2 113.0153 -1.54
  138.9944 C7H4ClO+ 3 138.9945 -1.14
  156.0211 C7H7ClNO+ 3 156.0211 0.08
  178.0474 C7H7F3NO+ 2 178.0474 -0.31
  359.0403 C15H11ClF3N2O3+ 1 359.0405 -0.42
PK$NUM_PEAK: 6
PK$PEAK: m/z int. rel.int.
  110.9993 301348.8 1
  113.0151 358196.3 1
  138.9944 14599835.7 71
  156.0211 203662501.1 999
  178.0474 4292428.9 21
  359.0403 113632339.7 557
//
