ACCESSION: MSBNK-Eawag-EQ01150606
RECORD_TITLE: 1-Methylxanthine; LC-ESI-QFT; MS2; CE: 90%; R=17500; [M+H]+
DATE: 2024.05.08
AUTHORS: C. Meyer [dtc], B. Beck [dtc,com], J. Hollender [dtc]
LICENSE: CC BY-SA
COPYRIGHT: Copyright (C) Eawag 2023
PUBLICATION: Meyer, C., Stravs, M., Hollender, J.. How Wastewater Reflects Human Metabolism - Suspect Screening of Pharmaceutical Metabolites in Wastewater Influent. doi:10.1021/acs.est.4c00968
COMMENT: CONFIDENCE standard compound
COMMENT: UCHEM_ID 11506
CH$NAME: 1-Methylxanthine
CH$NAME: 1-methyl-3,7-dihydropurine-2,6-dione
CH$COMPOUND_CLASS: N/A; Environmental Standard
CH$FORMULA: C6H6N4O2
CH$EXACT_MASS: 166.0490754
CH$SMILES: CN1C(=O)C2=C(NC1=O)N=CN2
CH$IUPAC: InChI=1S/C6H6N4O2/c1-10-5(11)3-4(8-2-7-3)9-6(10)12/h2H,1H3,(H,7,8)(H,9,12)
CH$LINK: CHEBI CHEBI:68444
CH$LINK: PUBCHEM CID:80220
CH$LINK: INCHIKEY MVOYJPOZRLFTCP-UHFFFAOYSA-N
CH$LINK: CHEMSPIDER 72464
AC$INSTRUMENT: Exploris 240 Orbitrap Thermo Scientific
AC$INSTRUMENT_TYPE: LC-ESI-QFT
AC$MASS_SPECTROMETRY: MS_TYPE MS2
AC$MASS_SPECTROMETRY: ION_MODE POSITIVE
AC$MASS_SPECTROMETRY: IONIZATION ESI
AC$MASS_SPECTROMETRY: FRAGMENTATION_MODE HCD
AC$MASS_SPECTROMETRY: COLLISION_ENERGY 90 % (nominal)
AC$MASS_SPECTROMETRY: RESOLUTION 17500
AC$MASS_SPECTROMETRY: MASS_RANGE_M/Z 40-191
AC$CHROMATOGRAPHY: COLUMN_NAME XBridge C18 3.5um, 2.1x50mm, Waters
AC$CHROMATOGRAPHY: FLOW_GRADIENT 90/10 at 0 min, 50/50 at 4 min, 5/95 at 17 min, 5/95 at 25 min, 90/10 at 25.1 min, 90/10 at 30 min
AC$CHROMATOGRAPHY: FLOW_RATE 200 uL/min
AC$CHROMATOGRAPHY: RETENTION_TIME 1.738 min
MS$FOCUSED_ION: BASE_PEAK 167.0562
MS$FOCUSED_ION: PRECURSOR_M/Z 167.0564
MS$FOCUSED_ION: PRECURSOR_TYPE [M+H]+
MS$DATA_PROCESSING: RECALIBRATE loess on assigned fragments and MS1
MS$DATA_PROCESSING: REANALYZE Peaks with additional N2/O included
MS$DATA_PROCESSING: WHOLE RMassBank 3.15.1
PK$SPLASH: splash10-03di-5900000000-573786c8bb6f665798de
PK$ANNOTATION: m/z tentative_formula formula_count mass error(ppm)
  55.0291 C2H3N2+ 1 55.0291 -0.26
  81.0081 C3HN2O+ 1 81.0083 -2.96
  82.04 C3H4N3+ 1 82.04 -0.06
  83.024 C3H3N2O+ 1 83.024 0.32
  110.0348 C4H4N3O+ 1 110.0349 -0.39
  136.0143 C5H2N3O2+ 1 136.0142 0.91
  167.056 C6H7N4O2+ 1 167.0564 -1.93
PK$NUM_PEAK: 7
PK$PEAK: m/z int. rel.int.
  55.0291 6042967 343
  81.0081 88320.8 5
  82.04 3443665.5 195
  83.024 888832.6 50
  110.0348 17552790 999
  136.0143 361771.5 20
  167.056 519620.8 29
//
