ACCESSION: MSBNK-Eawag-EA258001
RECORD_TITLE: Ritonavir; LC-ESI-ITFT; MS2; CE: 35%; R=7500; [M+H]+
DATE: 2014.01.14
AUTHORS: Stravs M, Schymanski E, Singer H, Department of Environmental Chemistry, Eawag
LICENSE: CC BY
COPYRIGHT: Copyright (C) 2012 Eawag, Duebendorf, Switzerland
COMMENT: CONFIDENCE standard compound
COMMENT: EAWAG_UCHEM_ID 2580
CH$NAME: Ritonavir
CH$NAME: 1,3-thiazol-5-ylmethyl N-[(2S,5S)-3-hydroxy-5-[[3-methyl-2-[[methyl-[(2-propan-2-yl-1,3-thiazol-4-yl)methyl]carbamoyl]amino]butanoyl]amino]-1,6-diphenylhexan-2-yl]carbamate
CH$COMPOUND_CLASS: N/A; Environmental Standard
CH$FORMULA: C37H48N6O5S2
CH$EXACT_MASS: 720.3128
CH$SMILES: CC(C)C(NC(=O)N(C)CC1=CSC(=N1)C(C)C)C(=O)N[C@H](CC(O)[C@H](CC2=CC=CC=C2)NC(=O)OCC3=CN=CS3)CC4=CC=CC=C4
CH$IUPAC: InChI=1S/C37H48N6O5S2/c1-24(2)33(42-36(46)43(5)20-29-22-49-35(40-29)25(3)4)34(45)39-28(16-26-12-8-6-9-13-26)18-32(44)31(17-27-14-10-7-11-15-27)41-37(47)48-21-30-19-38-23-50-30/h6-15,19,22-25,28,31-33,44H,16-18,20-21H2,1-5H3,(H,39,45)(H,41,47)(H,42,46)/t28-,31-,32?,33?/m0/s1
CH$LINK: CAS 155213-67-5
CH$LINK: PUBCHEM CID:60954
CH$LINK: INCHIKEY NCDNCNXCDXHOMX-FDEOAKKQSA-N
CH$LINK: CHEMSPIDER 54917
AC$INSTRUMENT: LTQ Orbitrap XL Thermo Scientific
AC$INSTRUMENT_TYPE: LC-ESI-ITFT
AC$MASS_SPECTROMETRY: MS_TYPE MS2
AC$MASS_SPECTROMETRY: ION_MODE POSITIVE
AC$MASS_SPECTROMETRY: IONIZATION ESI
AC$MASS_SPECTROMETRY: FRAGMENTATION_MODE CID
AC$MASS_SPECTROMETRY: COLLISION_ENERGY 35 % (nominal)
AC$MASS_SPECTROMETRY: RESOLUTION 7500
AC$CHROMATOGRAPHY: COLUMN_NAME XBridge C18 3.5um, 2.1x50mm, Waters
AC$CHROMATOGRAPHY: FLOW_GRADIENT 90/10 at 0 min, 50/50 at 4 min, 5/95 at 17 min, 5/95 at 25 min, 90/10 at 25.1 min, 90/10 at 30 min
AC$CHROMATOGRAPHY: FLOW_RATE 200 ul/min
AC$CHROMATOGRAPHY: RETENTION_TIME 13.6 min
AC$CHROMATOGRAPHY: SOLVENT A water with 0.1% formic acid
AC$CHROMATOGRAPHY: SOLVENT B methanol with 0.1% formic acid
MS$FOCUSED_ION: BASE_PEAK 721.3214
MS$FOCUSED_ION: PRECURSOR_M/Z 721.32
MS$FOCUSED_ION: PRECURSOR_TYPE [M+H]+
MS$DATA_PROCESSING: DEPROFILE Spline
MS$DATA_PROCESSING: RECALIBRATE loess on assigned fragments and MS1
MS$DATA_PROCESSING: REANALYZE Peaks with additional N2/O included
MS$DATA_PROCESSING: WHOLE RMassBank 1.3.1
PK$SPLASH: splash10-004j-0080920100-7fb443cb7affea469ad3
PK$ANNOTATION: m/z tentative_formula formula_count mass error(ppm)
  250.1598 C12H26O3S+ 3 250.1597 0.25
  268.1476 C13H22N3OS+ 5 268.1478 -0.6
  270.2674 C11H36N5S+ 2 270.2686 -4.27
  296.1426 C14H22N3O2S+ 5 296.1427 -0.49
  426.1841 C23H28N3O3S+ 7 426.1846 -1.1
  507.2405 C33H33NO4+ 7 507.2404 0.18
  533.2211 C35H27N5O+ 6 533.221 0.22
  703.3082 C37H47N6O4S2+ 1 703.3095 -1.82
PK$NUM_PEAK: 8
PK$PEAK: m/z int. rel.int.
  250.1598 5273.4 18
  268.1476 72062.4 258
  270.2674 2596.8 9
  296.1426 169983.3 609
  426.1841 278526.9 999
  507.2405 10350.3 37
  533.2211 59100.6 211
  703.3082 32330.4 115
//
