ACCESSION: MSBNK-Eawag-EA271064
RECORD_TITLE: MCPB; LC-ESI-ITFT; MS2; CE: 35%; R=30000; [M-H]-
DATE: 2014.01.14
AUTHORS: Stravs M, Schymanski E, Singer H, Department of Environmental Chemistry, Eawag
LICENSE: CC BY
COPYRIGHT: Copyright (C) 2012 Eawag, Duebendorf, Switzerland
COMMENT: CONFIDENCE standard compound
COMMENT: EAWAG_UCHEM_ID 2710
CH$NAME: MCPB
CH$NAME: 4-(4-chloranyl-2-methyl-phenoxy)butanoic acid
CH$COMPOUND_CLASS: N/A; Environmental Standard
CH$FORMULA: C11H13ClO3
CH$EXACT_MASS: 228.0553
CH$SMILES: c1(c(cc(Cl)cc1)C)OCCCC(O)=O
CH$IUPAC: InChI=1S/C11H13ClO3/c1-8-7-9(12)4-5-10(8)15-6-2-3-11(13)14/h4-5,7H,2-3,6H2,1H3,(H,13,14)
CH$LINK: CAS 94-81-5
CH$LINK: PUBCHEM CID:7207
CH$LINK: INCHIKEY LLWADFLAOKUBDR-UHFFFAOYSA-N
CH$LINK: CHEMSPIDER 6938
CH$LINK: COMPTOX DTXSID4024193
AC$INSTRUMENT: LTQ Orbitrap XL Thermo Scientific
AC$INSTRUMENT_TYPE: LC-ESI-ITFT
AC$MASS_SPECTROMETRY: MS_TYPE MS2
AC$MASS_SPECTROMETRY: ION_MODE NEGATIVE
AC$MASS_SPECTROMETRY: IONIZATION ESI
AC$MASS_SPECTROMETRY: FRAGMENTATION_MODE CID
AC$MASS_SPECTROMETRY: COLLISION_ENERGY 35 % (nominal)
AC$MASS_SPECTROMETRY: RESOLUTION 30000
AC$CHROMATOGRAPHY: COLUMN_NAME XBridge C18 3.5um, 2.1x50mm, Waters
AC$CHROMATOGRAPHY: FLOW_GRADIENT 90/10 at 0 min, 50/50 at 4 min, 5/95 at 17 min, 5/95 at 25 min, 90/10 at 25.1 min, 90/10 at 30 min
AC$CHROMATOGRAPHY: FLOW_RATE 200 ul/min
AC$CHROMATOGRAPHY: RETENTION_TIME 11.9 min
AC$CHROMATOGRAPHY: SOLVENT A water with 0.1% formic acid
AC$CHROMATOGRAPHY: SOLVENT B methanol with 0.1% formic acid
MS$FOCUSED_ION: BASE_PEAK 141.0115
MS$FOCUSED_ION: PRECURSOR_M/Z 227.048
MS$FOCUSED_ION: PRECURSOR_TYPE [M-H]-
MS$DATA_PROCESSING: DEPROFILE Spline
MS$DATA_PROCESSING: RECALIBRATE loess on assigned fragments and MS1
MS$DATA_PROCESSING: REANALYZE Peaks with additional N2/O included
MS$DATA_PROCESSING: WHOLE RMassBank 1.3.1
PK$SPLASH: splash10-0a4l-0900000000-047ba7763a778ca2f346
PK$ANNOTATION: m/z tentative_formula formula_count mass error(ppm)
  141.0111 C7H6ClO- 1 141.0113 -1.11
PK$NUM_PEAK: 2
PK$PEAK: m/z int. rel.int.
  141.0111 38558.5 792
  158.9784 48591.91435 999
//
