ACCESSION: MSBNK-Eawag-EA050264
RECORD_TITLE: Metolachlor ESA; LC-ESI-ITFT; MS2; CE: 35%; R=30000; [M-H]-
DATE: 2014.01.14
AUTHORS: Stravs M, Schymanski E, Singer H, Department of Environmental Chemistry, Eawag
LICENSE: CC BY
COPYRIGHT: Copyright (C) 2012 Eawag, Duebendorf, Switzerland
COMMENT: CONFIDENCE standard compound
COMMENT: EAWAG_UCHEM_ID 502
CH$NAME: Metolachlor ESA
CH$NAME: 2-[(2-Ethyl-6-methylphenyl)(1-methoxy-2-propanyl)amino]-2-oxoethanesulfonic acid
CH$COMPOUND_CLASS: N/A; Environmental Standard
CH$FORMULA: C15H23NO5S
CH$EXACT_MASS: 329.1297
CH$SMILES: O=S(O)(CC(N(C(C)COC)C1=C(CC)C=CC=C1C)=O)=O
CH$IUPAC: InChI=1S/C15H23NO5S/c1-5-13-8-6-7-11(2)15(13)16(12(3)9-21-4)14(17)10-22(18,19)20/h6-8,12H,5,9-10H2,1-4H3,(H,18,19,20)
CH$LINK: CAS 171118-09-5
CH$LINK: PUBCHEM CID:6426849
CH$LINK: INCHIKEY CIGKZVUEZXGYSV-UHFFFAOYSA-N
CH$LINK: CHEMSPIDER 4932269
CH$LINK: COMPTOX DTXSID1037567
AC$INSTRUMENT: LTQ Orbitrap XL Thermo Scientific
AC$INSTRUMENT_TYPE: LC-ESI-ITFT
AC$MASS_SPECTROMETRY: MS_TYPE MS2
AC$MASS_SPECTROMETRY: ION_MODE NEGATIVE
AC$MASS_SPECTROMETRY: IONIZATION ESI
AC$MASS_SPECTROMETRY: FRAGMENTATION_MODE CID
AC$MASS_SPECTROMETRY: COLLISION_ENERGY 35 % (nominal)
AC$MASS_SPECTROMETRY: RESOLUTION 30000
AC$CHROMATOGRAPHY: COLUMN_NAME XBridge C18 3.5um, 2.1x50mm, Waters
AC$CHROMATOGRAPHY: FLOW_GRADIENT 90/10 at 0 min, 50/50 at 4 min, 5/95 at 17 min, 5/95 at 25 min, 90/10 at 25.1 min, 90/10 at 30 min
AC$CHROMATOGRAPHY: FLOW_RATE 200 ul/min
AC$CHROMATOGRAPHY: RETENTION_TIME 7.8 min
AC$CHROMATOGRAPHY: SOLVENT A water with 0.1% formic acid
AC$CHROMATOGRAPHY: SOLVENT B methanol with 0.1% formic acid
MS$FOCUSED_ION: BASE_PEAK 328.1225
MS$FOCUSED_ION: PRECURSOR_M/Z 328.1224
MS$FOCUSED_ION: PRECURSOR_TYPE [M-H]-
MS$DATA_PROCESSING: DEPROFILE Spline
MS$DATA_PROCESSING: RECALIBRATE loess on assigned fragments and MS1
MS$DATA_PROCESSING: REANALYZE Peaks with additional N2/O included
MS$DATA_PROCESSING: WHOLE RMassBank 1.3.1
PK$SPLASH: splash10-00di-0910000000-d18dfb32cf8c4b95b012
PK$ANNOTATION: m/z tentative_formula formula_count mass error(ppm)
  118.9684 C2HNO3S- 1 118.9683 1.49
  119.9763 C2H2NO3S- 1 119.9761 1.44
  120.9603 C2HO4S- 1 120.9601 1.88
  135.0817 C9H11O- 1 135.0815 1.12
  158.097 C11H12N- 1 158.0975 -3.56
  174.1288 C12H16N- 1 174.1288 0.15
  177.0103 C5H7NO4S- 1 177.0101 1.15
  192.0338 C6H10NO4S- 1 192.0336 1.13
  206.1553 C13H20NO- 1 206.155 1.32
  232.135 C14H18NO2- 1 232.1343 2.79
  238.0548 C11H12NO3S- 1 238.0543 1.9
  248.1653 C15H22NO2- 1 248.1656 -1.18
  256.065 C11H14NO4S- 1 256.0649 0.46
  264.1607 C15H22NO3- 1 264.1605 0.54
  296.0964 C14H18NO4S- 1 296.0962 0.6
PK$NUM_PEAK: 15
PK$PEAK: m/z int. rel.int.
  118.9684 218567.2 44
  119.9763 606019.4 124
  120.9603 4877925.2 999
  135.0817 259666.2 53
  158.097 16709.4 3
  174.1288 104699.8 21
  177.0103 54506.2 11
  192.0338 1970320.9 403
  206.1553 28532.3 5
  232.135 38896.1 7
  238.0548 49322.3 10
  248.1653 27492.9 5
  256.065 311425.6 63
  264.1607 73248.8 15
  296.0964 623742.7 127
//
