ACCESSION: MSBNK-Eawag-EQ418604
RECORD_TITLE: Terbuthylazine-TP MT24 (LM1); LC-ESI-QFT; MS2; CE: 60%; R=17500; [M+H]+
DATE: 2019.12.03
AUTHORS: K. Kiefer [dtc], J. Hollender [dtc], H. Singer [dtc], M. Stravs [com]
LICENSE: CC BY-SA
COPYRIGHT: Copyright (C) Eawag 2019
PUBLICATION: Kiefer, K.; Mueller, A.; Singer, H.; Hollender, J. New relevant pesticide transformation products in groundwater detected using target and suspect screening for agricultural and urban micropollutants with LC-HRMS. Water Research 2019, 165. DOI: https://doi.org/10.1016/j.watres.2019.114972
COMMENT: CONFIDENCE standard compound
COMMENT: UCHEM_ID 4186
CH$NAME: Terbuthylazine-TP MT24 (LM1)
CH$NAME: Ammelide
CH$NAME: 6-amino-1H-1,3,5-triazine-2,4-dione
CH$COMPOUND_CLASS: N/A; Environmental Standard
CH$FORMULA: C3H4N4O2
CH$EXACT_MASS: 128.0334
CH$SMILES: NC1=NC(O)=NC(O)=N1
CH$IUPAC: InChI=1S/C3H4N4O2/c4-1-5-2(8)7-3(9)6-1/h(H4,4,5,6,7,8,9)
CH$LINK: CAS 645-93-2
CH$LINK: CHEBI CHEBI:28134
CH$LINK: KEGG C08734
CH$LINK: PUBCHEM CID:12584
CH$LINK: INCHIKEY YSKUZVBSHIWEFK-UHFFFAOYSA-N
CH$LINK: CHEMSPIDER 12064
AC$INSTRUMENT: Q Exactive Plus Orbitrap Thermo Scientific
AC$INSTRUMENT_TYPE: LC-ESI-QFT
AC$MASS_SPECTROMETRY: MS_TYPE MS2
AC$MASS_SPECTROMETRY: ION_MODE POSITIVE
AC$MASS_SPECTROMETRY: IONIZATION ESI
AC$MASS_SPECTROMETRY: FRAGMENTATION_MODE HCD
AC$MASS_SPECTROMETRY: COLLISION_ENERGY 60 % (nominal)
AC$MASS_SPECTROMETRY: RESOLUTION 17500
AC$CHROMATOGRAPHY: COLUMN_NAME XBridge C18 3.5um, 2.1x50mm, Waters
AC$CHROMATOGRAPHY: FLOW_GRADIENT 90/10 at 0 min, 50/50 at 4 min, 5/95 at 17 min, 5/95 at 25 min, 90/10 at 25.1 min, 90/10 at 30 min
AC$CHROMATOGRAPHY: FLOW_RATE 200 uL/min
AC$CHROMATOGRAPHY: RETENTION_TIME 0.899 min
AC$CHROMATOGRAPHY: SOLVENT A water with 0.1% formic acid
AC$CHROMATOGRAPHY: SOLVENT B MeOH with 0.1% formic acid
MS$FOCUSED_ION: BASE_PEAK 157.0352
MS$FOCUSED_ION: PRECURSOR_M/Z 129.0407
MS$FOCUSED_ION: PRECURSOR_TYPE [M+H]+
MS$DATA_PROCESSING: RECALIBRATE loess on assigned fragments and MS1
MS$DATA_PROCESSING: REANALYZE Peaks with additional N2/O included
MS$DATA_PROCESSING: WHOLE RMassBank 2.99.1
PK$SPLASH: splash10-000i-9200000000-dd4def08bde4f1f75f2d
PK$ANNOTATION: m/z tentative_formula formula_count mass error(ppm)
  69.0083 C2HN2O+ 1 69.0083 -0.12
  69.9924 C2NO2+ 1 69.9924 0
  86.0349 C2H4N3O+ 1 86.0349 -0.32
  87.0189 C2H3N2O2+ 1 87.0189 0.04
  129.0407 C3H5N4O2+ 1 129.0407 -0.3
PK$NUM_PEAK: 6
PK$PEAK: m/z int. rel.int.
  69.0083 1304594.4 129
  69.9924 1992033.1 197
  86.0349 7871491 780
  87.0189 10078466 999
  100.5047 272379.7 26
  129.0407 5628095 557
//
