ACCESSION: MSBNK-Eawag-EQ313254
RECORD_TITLE: Zonisamide; LC-ESI-QFT; MS2; CE: 60; R=35000; [M-H]-
DATE: 2015.08.25
AUTHORS: Beck B, Stravs M, Schymanski E, Singer H, Department of Environmental Chemistry, Eawag
LICENSE: CC BY
COPYRIGHT: Copyright (C) 2015 Eawag, Duebendorf, Switzerland
COMMENT: CONFIDENCE standard compound
COMMENT: EAWAG_UCHEM_ID 3132
CH$NAME: Zonisamide
CH$NAME: AD-810
CH$NAME: 1,2-benzoxazol-3-ylmethanesulfonamide
CH$COMPOUND_CLASS: N/A; Environmental Standard
CH$FORMULA: C8H8N2O3S
CH$EXACT_MASS: 212.02556
CH$SMILES: O=S(=O)(N)Cc2noc1ccccc12
CH$IUPAC: InChI=1S/C8H8N2O3S/c9-14(11,12)5-7-6-3-1-2-4-8(6)13-10-7/h1-4H,5H2,(H2,9,11,12)
CH$LINK: CAS 68291-97-4
CH$LINK: CHEBI CHEBI:10127
CH$LINK: KEGG C07504
CH$LINK: PUBCHEM CID:5734
CH$LINK: INCHIKEY UBQNRHZMVUUOMG-UHFFFAOYSA-N
CH$LINK: CHEMSPIDER 5532
CH$LINK: COMPTOX DTXSID9046023
AC$INSTRUMENT: Q Exactive Orbitrap Thermo Scientific
AC$INSTRUMENT_TYPE: LC-ESI-QFT
AC$MASS_SPECTROMETRY: MS_TYPE MS2
AC$MASS_SPECTROMETRY: ION_MODE NEGATIVE
AC$MASS_SPECTROMETRY: IONIZATION ESI
AC$MASS_SPECTROMETRY: FRAGMENTATION_MODE HCD
AC$MASS_SPECTROMETRY: COLLISION_ENERGY 60 (nominal)
AC$MASS_SPECTROMETRY: RESOLUTION 35000
AC$CHROMATOGRAPHY: COLUMN_NAME XBridge C18 3.5um, 2.1x50mm, Waters
AC$CHROMATOGRAPHY: FLOW_GRADIENT 90/10 at 0 min, 50/50 at 4 min, 5/95 at 17 min, 5/95 at 25 min, 90/10 at 25.1 min, 90/10 at 30 min
AC$CHROMATOGRAPHY: FLOW_RATE 200 ul/min
AC$CHROMATOGRAPHY: RETENTION_TIME 4.3 min
AC$CHROMATOGRAPHY: SOLVENT A water with 0.1% formic acid
AC$CHROMATOGRAPHY: SOLVENT B methanol with 0.1% formic acid
MS$FOCUSED_ION: BASE_PEAK 211.0183
MS$FOCUSED_ION: PRECURSOR_M/Z 211.0183
MS$FOCUSED_ION: PRECURSOR_TYPE [M-H]-
MS$DATA_PROCESSING: DEPROFILE Spline
MS$DATA_PROCESSING: RECALIBRATE loess on assigned fragments and MS1
MS$DATA_PROCESSING: REANALYZE Peaks with additional N2/O included
MS$DATA_PROCESSING: WHOLE RMassBank 1.9.6
PK$SPLASH: splash10-014i-1900000000-6359b9c8e68ec5477b26
PK$ANNOTATION: m/z tentative_formula formula_count mass error(ppm)
  61.9706 NOS- 1 61.9706 -0.13
  63.9624 O2S- 1 63.9624 -0.29
  64.9703 HO2S- 1 64.9703 1.17
  65.0397 C5H5- 1 65.0397 0.25
  77.9655 NO2S- 1 77.9655 0.35
  78.9733 HNO2S- 1 78.9733 0.03
  79.9813 H2NO2S- 1 79.9812 1.46
  90.035 C6H4N- 1 90.0349 0.53
  91.0553 C7H7- 1 91.0553 0.18
  93.0346 C6H5O- 1 93.0346 0.34
  93.9604 NO3S- 1 93.9604 -0.29
  107.0503 C7H7O- 1 107.0502 0.67
  117.0348 C8H5O- 1 117.0346 1.72
  118.0301 C7H4NO- 1 118.0298 1.8
  119.0502 C8H7O- 1 119.0502 -0.15
  120.0454 C7H6NO- 1 120.0455 -0.98
  130.0298 C8H4NO- 1 130.0298 -0.36
  131.0375 C8H5NO- 1 131.0377 -0.93
  132.0455 C8H6NO- 1 132.0455 0.02
  147.0563 C8H7N2O- 1 147.0564 -0.59
PK$NUM_PEAK: 20
PK$PEAK: m/z int. rel.int.
  61.9706 77265.1 5
  63.9624 334319.6 25
  64.9703 39568.7 2
  65.0397 95759.1 7
  77.9655 189404.8 14
  78.9733 1110137.2 83
  79.9813 49316.1 3
  90.035 294329.8 22
  91.0553 474382.3 35
  93.0346 960311.5 71
  93.9604 41842 3
  107.0503 589797.9 44
  117.0348 1361782.8 102
  118.0301 9339686.8 699
  119.0502 13334430 999
  120.0454 39088.7 2
  130.0298 29993 2
  131.0375 26965.1 2
  132.0455 66918.8 5
  147.0563 68816 5
//
