ACCESSION: MSBNK-Eawag-EA025354
RECORD_TITLE: Bentazone; LC-ESI-ITFT; MS2; CE: 45%; R=7500; [M-H]-
DATE: 2014.01.14
AUTHORS: Stravs M, Schymanski E, Singer H, Department of Environmental Chemistry, Eawag
LICENSE: CC BY
COPYRIGHT: Copyright (C) 2012 Eawag, Duebendorf, Switzerland
COMMENT: CONFIDENCE standard compound
COMMENT: EAWAG_UCHEM_ID 253
CH$NAME: Bentazone
CH$NAME: 2,2-bis(oxidanylidene)-3-propan-2-yl-1H-2$l^{6},1,3-benzothiadiazin-4-one
CH$COMPOUND_CLASS: N/A; Environmental Standard
CH$FORMULA: C10H12N2O3S
CH$EXACT_MASS: 240.0563
CH$SMILES: c12c(C(N(C(C)C)S(N1)(=O)=O)=O)cccc2
CH$IUPAC: InChI=1S/C10H12N2O3S/c1-7(2)12-10(13)8-5-3-4-6-9(8)11-16(12,14)15/h3-7,11H,1-2H3
CH$LINK: CAS 25057-89-0
CH$LINK: KEGG C10965
CH$LINK: PUBCHEM CID:2328
CH$LINK: INCHIKEY ZOMSMJKLGFBRBS-UHFFFAOYSA-N
CH$LINK: CHEMSPIDER 2238
CH$LINK: COMPTOX DTXSID0023901
AC$INSTRUMENT: LTQ Orbitrap XL Thermo Scientific
AC$INSTRUMENT_TYPE: LC-ESI-ITFT
AC$MASS_SPECTROMETRY: MS_TYPE MS2
AC$MASS_SPECTROMETRY: ION_MODE NEGATIVE
AC$MASS_SPECTROMETRY: IONIZATION ESI
AC$MASS_SPECTROMETRY: FRAGMENTATION_MODE HCD
AC$MASS_SPECTROMETRY: COLLISION_ENERGY 45 % (nominal)
AC$MASS_SPECTROMETRY: RESOLUTION 7500
AC$CHROMATOGRAPHY: COLUMN_NAME XBridge C18 3.5um, 2.1x50mm, Waters
AC$CHROMATOGRAPHY: FLOW_GRADIENT 90/10 at 0 min, 50/50 at 4 min, 5/95 at 17 min, 5/95 at 25 min, 90/10 at 25.1 min, 90/10 at 30 min
AC$CHROMATOGRAPHY: FLOW_RATE 200 ul/min
AC$CHROMATOGRAPHY: RETENTION_TIME 7.4 min
AC$CHROMATOGRAPHY: SOLVENT A water with 0.1% formic acid
AC$CHROMATOGRAPHY: SOLVENT B methanol with 0.1% formic acid
MS$FOCUSED_ION: BASE_PEAK 239.0497
MS$FOCUSED_ION: PRECURSOR_M/Z 239.0496
MS$FOCUSED_ION: PRECURSOR_TYPE [M-H]-
MS$DATA_PROCESSING: DEPROFILE Spline
MS$DATA_PROCESSING: RECALIBRATE loess on assigned fragments and MS1
MS$DATA_PROCESSING: REANALYZE Peaks with additional N2/O included
MS$DATA_PROCESSING: WHOLE RMassBank 1.3.1
PK$SPLASH: splash10-000i-0980000000-f16640c958d428394ea5
PK$ANNOTATION: m/z tentative_formula formula_count mass error(ppm)
  132.0329 C7H4N2O- 1 132.0329 -0.09
  133.0408 C7H5N2O- 1 133.0407 0.1
  175.0878 C10H11N2O- 1 175.0877 0.42
  195.9957 C7H4N2O3S- 1 195.9948 4.28
  197.0027 C7H5N2O3S- 1 197.0026 0.32
  239.0496 C10H11N2O3S- 1 239.0496 -0.03
PK$NUM_PEAK: 6
PK$PEAK: m/z int. rel.int.
  132.0329 852277.7 227
  133.0408 403249.6 107
  175.0878 1477751.3 394
  195.9957 104874 28
  197.0027 1230075.4 328
  239.0496 3740171.4 999
//
