ACCESSION: MSBNK-Eawag-EQ00270954
RECORD_TITLE: Imidacloprid; LC-ESI-QFT; MS2; CE: 60%; R=15000; [M-H]-
DATE: 2024.06.14
AUTHORS: F. Jud [dtc], K. Arturi [dtc], J. Hollender [dtc], A. Dax [com]
LICENSE: CC BY-SA
COPYRIGHT: Copyright (C) Eawag 2024
COMMENT: CONFIDENCE standard compound
COMMENT: UCHEM_ID 2709
CH$NAME: Imidacloprid
CH$NAME: N-[1-[(6-chloro-3-pyridinyl)methyl]-4,5-dihydroimidazol-2-yl]nitramide
CH$NAME: N-[1-[(6-chloropyridin-3-yl)methyl]-4,5-dihydroimidazol-2-yl]nitramide
CH$COMPOUND_CLASS: N/A
CH$FORMULA: C9H10ClN5O2
CH$EXACT_MASS: 255.0523022
CH$SMILES: [O-][N+](=O)\N=C1/NCCN1CC1=CN=C(Cl)C=C1
CH$IUPAC: InChI=1S/C9H10ClN5O2/c10-8-2-1-7(5-12-8)6-14-4-3-11-9(14)13-15(16)17/h1-2,5H,3-4,6H2,(H,11,13)
CH$LINK: CAS 937701-26-3
CH$LINK: KEGG C11110
CH$LINK: PUBCHEM CID:86418
CH$LINK: INCHIKEY YWTYJOPNNQFBPC-UHFFFAOYSA-N
CH$LINK: CHEMSPIDER 77934
AC$INSTRUMENT: Q Exactive Plus
AC$INSTRUMENT_TYPE: LC-ESI-QFT
AC$MASS_SPECTROMETRY: MS_TYPE MS2
AC$MASS_SPECTROMETRY: ION_MODE NEGATIVE
AC$MASS_SPECTROMETRY: IONIZATION ESI
AC$MASS_SPECTROMETRY: FRAGMENTATION_MODE HCD
AC$MASS_SPECTROMETRY: COLLISION_ENERGY 60 % (nominal)
AC$MASS_SPECTROMETRY: RESOLUTION 15000
AC$MASS_SPECTROMETRY: MASS_RANGE_M/Z 50-275
AC$CHROMATOGRAPHY: COLUMN_NAME XBridge C18 3.5um, 2.1x50mm, Waters
AC$CHROMATOGRAPHY: FLOW_GRADIENT 90/10 at 0 min, 50/50 at 4 min, 5/95 at 17 min, 5/95 at 25 min, 90/10 at 25.1 min, 90/10 at 30 min
AC$CHROMATOGRAPHY: FLOW_RATE 200 uL/min
AC$CHROMATOGRAPHY: RETENTION_TIME 4.068 min
MS$FOCUSED_ION: BASE_PEAK 254.0451
MS$FOCUSED_ION: PRECURSOR_M/Z 254.045
MS$FOCUSED_ION: PRECURSOR_TYPE [M-H]-
MS$FOCUSED_ION: PRECURSOR_INTENSITY 40930305.92
MS$DATA_PROCESSING: RECALIBRATE loess on assigned fragments and MS1
MS$DATA_PROCESSING: REANALYZE Peaks with additional N2/O included
MS$DATA_PROCESSING: WHOLE RMassBank 3.15.1.1
PK$SPLASH: splash10-000i-9100000000-e6a5110b1da77bc38c2d
PK$ANNOTATION: m/z tentative_formula formula_count mass error(ppm)
  67.0302 C3H3N2- 1 67.0302 0.15
  69.0094 C2HN2O- 1 69.0094 -0.62
  85.9996 CN3O2- 1 85.9996 0.17
  117.046 C7H5N2- 1 117.0458 1.67
  153.0224 C7H6ClN2- 1 153.0225 -0.49
PK$NUM_PEAK: 5
PK$PEAK: m/z int. rel.int.
  67.0302 30175.3 30
  69.0094 23465.3 23
  85.9996 983384.9 999
  117.046 33796.2 34
  153.0224 82589.5 83
//
