ACCESSION: MSBNK-Eawag-EQ363601
RECORD_TITLE: Varenicline; LC-ESI-QFT; MS2; CE: 15; R=35000; [M+H]+
DATE: 2015.08.25
AUTHORS: Beck B, Stravs M, Schymanski E, Singer H, Department of Environmental Chemistry, Eawag
LICENSE: CC BY
COPYRIGHT: Copyright (C) 2015 Eawag, Duebendorf, Switzerland
COMMENT: CONFIDENCE standard compound
COMMENT: EAWAG_UCHEM_ID 3636
CH$NAME: Varenicline
CH$NAME: 7,8,9,10-tetrahydro-6h-6,10-methanoazepino[4,5-g]quinoxaline
CH$NAME: 7,8,9,10-tetrahydro-6,10-Methano-6H-pyrazino[2,3-h][3]benzazepine
CH$COMPOUND_CLASS: N/A; Environmental Standard
CH$FORMULA: C13H13N3
CH$EXACT_MASS: 211.11095
CH$SMILES: C1C2CNCC1C3=CC4=NC=CN=C4C=C23
CH$IUPAC: InChI=1S/C13H13N3/c1-2-16-13-5-11-9-3-8(6-14-7-9)10(11)4-12(13)15-1/h1-2,4-5,8-9,14H,3,6-7H2
CH$LINK: CAS 249296-44-4
CH$LINK: PUBCHEM CID:170361
CH$LINK: INCHIKEY JQSHBVHOMNKWFT-UHFFFAOYSA-N
CH$LINK: CHEMSPIDER 148958
AC$INSTRUMENT: Q Exactive Plus Orbitrap Thermo Scientific
AC$INSTRUMENT_TYPE: LC-ESI-QFT
AC$MASS_SPECTROMETRY: MS_TYPE MS2
AC$MASS_SPECTROMETRY: ION_MODE POSITIVE
AC$MASS_SPECTROMETRY: IONIZATION ESI
AC$MASS_SPECTROMETRY: FRAGMENTATION_MODE HCD
AC$MASS_SPECTROMETRY: COLLISION_ENERGY 15 (nominal)
AC$MASS_SPECTROMETRY: RESOLUTION 35000
AC$CHROMATOGRAPHY: COLUMN_NAME XBridge C18 3.5um, 2.1x50mm, Waters
AC$CHROMATOGRAPHY: FLOW_GRADIENT 90/10 at 0 min, 50/50 at 4 min, 5/95 at 17 min, 5/95 at 25 min, 90/10 at 25.1 min, 90/10 at 30 min
AC$CHROMATOGRAPHY: FLOW_RATE 200 ul/min
AC$CHROMATOGRAPHY: RETENTION_TIME 2.7 min
AC$CHROMATOGRAPHY: SOLVENT A water with 0.1% formic acid
AC$CHROMATOGRAPHY: SOLVENT B methanol with 0.1% formic acid
MS$FOCUSED_ION: BASE_PEAK 212.118
MS$FOCUSED_ION: PRECURSOR_M/Z 212.1182
MS$FOCUSED_ION: PRECURSOR_TYPE [M+H]+
MS$DATA_PROCESSING: RECALIBRATE loess on assigned fragments and MS1
MS$DATA_PROCESSING: REANALYZE Peaks with additional N2/O included
MS$DATA_PROCESSING: WHOLE RMassBank 1.9.6
PK$SPLASH: splash10-03di-0090000000-0928469ff237e4d8c1d5
PK$ANNOTATION: m/z tentative_formula formula_count mass error(ppm)
  169.076 C11H9N2+ 1 169.076 0.09
  183.0913 C12H11N2+ 1 183.0917 -1.83
  212.1182 C13H14N3+ 1 212.1182 -0.21
PK$NUM_PEAK: 3
PK$PEAK: m/z int. rel.int.
  169.076 7244700 7
  183.0913 2714190.2 2
  212.1182 923769152 999
//
