ACCESSION: MSBNK-Eawag-EQ009104
RECORD_TITLE: Metribuzin-desamino; LC-ESI-QFT; MS2; CE: 60; R=35000; [M+H]+
DATE: 2015.08.25
AUTHORS: Beck B, Stravs M, Schymanski E, Singer H, Department of Environmental Chemistry, Eawag
LICENSE: CC BY
COPYRIGHT: Copyright (C) 2015 Eawag, Duebendorf, Switzerland
COMMENT: CONFIDENCE standard compound
COMMENT: EAWAG_UCHEM_ID 91
CH$NAME: Metribuzin-desamino
CH$NAME: Deaminometribuzin
CH$NAME: 6-tert-butyl-3-(methylthio)-2H-1,2,4-triazin-5-one
CH$COMPOUND_CLASS: N/A; Environmental Standard
CH$FORMULA: C8H13N3OS
CH$EXACT_MASS: 199.27332
CH$SMILES: CC(C)(C)C1=NNC(=NC1=O)SC
CH$IUPAC: InChI=1S/C8H13N3OS/c1-8(2,3)5-6(12)9-7(13-4)11-10-5/h1-4H3,(H,9,11,12)
CH$LINK: CAS 35045-02-4
CH$LINK: PUBCHEM CID:37208
CH$LINK: INCHIKEY MIWRSUQXSCLDNV-UHFFFAOYSA-N
CH$LINK: CHEMSPIDER 33978
CH$LINK: COMPTOX DTXSID0052839
AC$INSTRUMENT: Q Exactive Plus Orbitrap Thermo Scientific
AC$INSTRUMENT_TYPE: LC-ESI-QFT
AC$MASS_SPECTROMETRY: MS_TYPE MS2
AC$MASS_SPECTROMETRY: ION_MODE POSITIVE
AC$MASS_SPECTROMETRY: IONIZATION ESI
AC$MASS_SPECTROMETRY: FRAGMENTATION_MODE HCD
AC$MASS_SPECTROMETRY: COLLISION_ENERGY 60 (nominal)
AC$MASS_SPECTROMETRY: RESOLUTION 35000
AC$CHROMATOGRAPHY: COLUMN_NAME XBridge C18 3.5um, 2.1x50mm, Waters
AC$CHROMATOGRAPHY: FLOW_GRADIENT 90/10 at 0 min, 50/50 at 4 min, 5/95 at 17 min, 5/95 at 25 min, 90/10 at 25.1 min, 90/10 at 30 min
AC$CHROMATOGRAPHY: FLOW_RATE 200 ul/min
AC$CHROMATOGRAPHY: RETENTION_TIME 7.3 min
AC$CHROMATOGRAPHY: SOLVENT A water with 0.1% formic acid
AC$CHROMATOGRAPHY: SOLVENT B methanol with 0.1% formic acid
MS$FOCUSED_ION: BASE_PEAK 200.085
MS$FOCUSED_ION: PRECURSOR_M/Z 200.0852
MS$FOCUSED_ION: PRECURSOR_TYPE [M+H]+
MS$DATA_PROCESSING: RECALIBRATE loess on assigned fragments and MS1
MS$DATA_PROCESSING: REANALYZE Peaks with additional N2/O included
MS$DATA_PROCESSING: WHOLE RMassBank 1.9.6
PK$SPLASH: splash10-0600-4910000000-dab41ec473a9254f7e25
PK$ANNOTATION: m/z tentative_formula formula_count mass error(ppm)
  53.0022 C3HO+ 1 53.0022 0.73
  57.0699 C4H9+ 1 57.0699 -0.12
  58.0652 C3H8N+ 1 58.0651 0.42
  61.0106 C2H5S+ 1 61.0106 -0.45
  62.0059 CH4NS+ 1 62.0059 -0.11
  67.9892 C3O2+ 1 67.9893 -1.04
  68.0242 C2H2N3+ 1 68.0243 -1.08
  68.0495 C4H6N+ 1 68.0495 0.36
  69.0698 C5H9+ 1 69.0699 -0.53
  74.0058 C2H4NS+ 1 74.0059 -0.63
  74.9899 C2H3OS+ 1 74.9899 -0.43
  82.0651 C5H8N+ 1 82.0651 -0.07
  84.0808 C5H10N+ 1 84.0808 -0.19
  89.0168 C2H5N2S+ 1 89.0168 -0.29
  97.0648 C6H9O+ 1 97.0648 0.4
  101.0042 C2H3N3S+ 1 101.0042 -0.39
  112.0756 C6H10NO+ 1 112.0757 -0.54
  114.9962 C3H3N2OS+ 1 114.9961 1.39
  116.0277 C3H6N3S+ 1 116.0277 -0.21
  124.087 C6H10N3+ 1 124.0869 0.61
  126.1026 C6H12N3+ 1 126.1026 0.13
  127.0866 C6H11N2O+ 1 127.0866 0
  130.0434 C4H8N3S+ 1 130.0433 0.27
  142.0434 C5H8N3S+ 1 142.0433 0.18
  144.0226 C4H6N3OS+ 1 144.0226 0.07
  155.0639 C7H11N2S+ 1 155.0637 1.06
  156.059 C6H10N3S+ 1 156.059 -0.29
  157.0668 C6H11N3S+ 1 157.0668 0.13
  170.0385 C6H8N3OS+ 1 170.0383 1.42
  172.0902 C7H14N3S+ 1 172.0903 -0.32
  185.0618 C7H11N3OS+ 1 185.0617 0.14
  200.0852 C8H14N3OS+ 1 200.0852 0
PK$NUM_PEAK: 32
PK$PEAK: m/z int. rel.int.
  53.0022 1442653.1 3
  57.0699 210845792 492
  58.0652 969853.1 2
  61.0106 1595906.5 3
  62.0059 8261798 19
  67.9892 698267.1 1
  68.0242 1240341.2 2
  68.0495 745839.4 1
  69.0698 3183011.5 7
  74.0058 32033360 74
  74.9899 818776.9 1
  82.0651 1171862.9 2
  84.0808 28394238 66
  89.0168 145461184 340
  97.0648 3641144.2 8
  101.0042 3290383.2 7
  112.0756 1936385.5 4
  114.9962 2378975.5 5
  116.0277 277410976 648
  124.087 3316642 7
  126.1026 3530275.8 8
  127.0866 1317565 3
  130.0434 11054150 25
  142.0434 20338106 47
  144.0226 4006083.2 9
  155.0639 686985.1 1
  156.059 21787324 50
  157.0668 151849472 355
  170.0385 1508378.8 3
  172.0902 427292704 999
  185.0618 5530107.5 12
  200.0852 123816760 289
//
