ACCESSION: MSBNK-Eawag-EQ371301
RECORD_TITLE: Malaoxon; LC-ESI-QFT; MS2; CE: 15; R=35000; [M+H]+
DATE: 2015.08.25
AUTHORS: Stravs M, Schymanski E, Singer H, Department of Environmental Chemistry, Eawag and Thomaidis N, University of Athens
LICENSE: CC BY
COPYRIGHT: Copyright (C) 2015 Eawag, Duebendorf, Switzerland
COMMENT: CONFIDENCE standard compound
COMMENT: EAWAG_UCHEM_ID 3713
CH$NAME: Malaoxon
CH$NAME: Diethyl 2-dimethoxyphosphorylsulfanylbutanedioate
CH$COMPOUND_CLASS: N/A; Environmental Standard
CH$FORMULA: C10H19O7PS
CH$EXACT_MASS: 314.05891
CH$SMILES: CCOC(=O)CC(C(=O)OCC)SP(=O)(OC)OC
CH$IUPAC: InChI=1S/C10H19O7PS/c1-5-16-9(11)7-8(10(12)17-6-2)19-18(13,14-3)15-4/h8H,5-7H2,1-4H3
CH$LINK: CAS 1634-78-2
CH$LINK: CHEBI CHEBI:6649
CH$LINK: KEGG C07498
CH$LINK: PUBCHEM CID:15415
CH$LINK: INCHIKEY WSORODGWGUUOBO-UHFFFAOYSA-N
CH$LINK: CHEMSPIDER 14674
CH$LINK: COMPTOX DTXSID9020790
AC$INSTRUMENT: Q Exactive Plus Orbitrap Thermo Scientific
AC$INSTRUMENT_TYPE: LC-ESI-QFT
AC$MASS_SPECTROMETRY: MS_TYPE MS2
AC$MASS_SPECTROMETRY: ION_MODE POSITIVE
AC$MASS_SPECTROMETRY: IONIZATION ESI
AC$MASS_SPECTROMETRY: FRAGMENTATION_MODE HCD
AC$MASS_SPECTROMETRY: COLLISION_ENERGY 15 (nominal)
AC$MASS_SPECTROMETRY: RESOLUTION 35000
AC$CHROMATOGRAPHY: COLUMN_NAME XBridge C18 3.5um, 2.1x50mm, Waters
AC$CHROMATOGRAPHY: FLOW_GRADIENT 90/10 at 0 min, 50/50 at 4 min, 5/95 at 17 min, 5/95 at 25 min, 90/10 at 25.1 min, 90/10 at 30 min
AC$CHROMATOGRAPHY: FLOW_RATE 200 ul/min
AC$CHROMATOGRAPHY: RETENTION_TIME 7.1 min
AC$CHROMATOGRAPHY: SOLVENT A water with 0.1% formic acid
AC$CHROMATOGRAPHY: SOLVENT B methanol with 0.1% formic acid
MS$FOCUSED_ION: BASE_PEAK 315.0654
MS$FOCUSED_ION: PRECURSOR_M/Z 315.0662
MS$FOCUSED_ION: PRECURSOR_TYPE [M+H]+
MS$DATA_PROCESSING: RECALIBRATE loess on assigned fragments and MS1
MS$DATA_PROCESSING: REANALYZE Peaks with additional N2/O included
MS$DATA_PROCESSING: WHOLE RMassBank 1.9.6
PK$SPLASH: splash10-004i-1900000000-f245f9049a6ed189a87f
PK$ANNOTATION: m/z tentative_formula formula_count mass error(ppm)
  99.0076 C4H3O3+ 1 99.0077 -0.31
  113.0234 C5H5O3+ 1 113.0233 0.7
  127.0389 C6H7O3+ 1 127.039 -0.4
  142.9927 C2H8O3PS+ 1 142.9926 0.22
  145.0495 C6H9O4+ 1 145.0495 -0.1
  171.0239 C4H12O3PS+ 1 171.0239 -0.34
  173.0809 C8H13O4+ 1 173.0808 0.26
PK$NUM_PEAK: 8
PK$PEAK: m/z int. rel.int.
  99.0076 12416488 151
  113.0234 96372.4 1
  127.0389 82018256 999
  142.9927 11349957 138
  145.0495 245672 2
  171.0239 1096587.8 13
  173.0809 6254236.5 76
  269.0243 4156362.75 50
//
