ACCESSION: MSBNK-Eawag-EA029302
RECORD_TITLE: Diazinon; LC-ESI-ITFT; MS2; CE: 15%; R=7500; [M+H]+
DATE: 2014.01.14
AUTHORS: Stravs M, Schymanski E, Singer H, Department of Environmental Chemistry, Eawag
LICENSE: CC BY
COPYRIGHT: Copyright (C) 2012 Eawag, Duebendorf, Switzerland
COMMENT: CONFIDENCE standard compound
COMMENT: EAWAG_UCHEM_ID 293
CH$NAME: Diazinon
CH$NAME: diethoxy-(2-isopropyl-6-methyl-pyrimidin-4-yl)oxy-thioxo-phosphorane
CH$COMPOUND_CLASS: N/A; Environmental Standard
CH$FORMULA: C12H21N2O3PS
CH$EXACT_MASS: 304.1011
CH$SMILES: O(c1nc(nc(c1)C)C(C)C)P(OCC)(OCC)=S
CH$IUPAC: InChI=1S/C12H21N2O3PS/c1-6-15-18(19,16-7-2)17-11-8-10(5)13-12(14-11)9(3)4/h8-9H,6-7H2,1-5H3
CH$LINK: CAS 333-41-5
CH$LINK: CHEBI CHEBI:34682
CH$LINK: KEGG C14324
CH$LINK: PUBCHEM CID:3017
CH$LINK: INCHIKEY FHIVAFMUCKRCQO-UHFFFAOYSA-N
CH$LINK: CHEMSPIDER 2909
CH$LINK: COMPTOX DTXSID9020407
AC$INSTRUMENT: LTQ Orbitrap XL Thermo Scientific
AC$INSTRUMENT_TYPE: LC-ESI-ITFT
AC$MASS_SPECTROMETRY: MS_TYPE MS2
AC$MASS_SPECTROMETRY: ION_MODE POSITIVE
AC$MASS_SPECTROMETRY: IONIZATION ESI
AC$MASS_SPECTROMETRY: FRAGMENTATION_MODE HCD
AC$MASS_SPECTROMETRY: COLLISION_ENERGY 15 % (nominal)
AC$MASS_SPECTROMETRY: RESOLUTION 7500
AC$CHROMATOGRAPHY: COLUMN_NAME XBridge C18 3.5um, 2.1x50mm, Waters
AC$CHROMATOGRAPHY: FLOW_GRADIENT 90/10 at 0 min, 50/50 at 4 min, 5/95 at 17 min, 5/95 at 25 min, 90/10 at 25.1 min, 90/10 at 30 min
AC$CHROMATOGRAPHY: FLOW_RATE 200 ul/min
AC$CHROMATOGRAPHY: RETENTION_TIME 13.0 min
AC$CHROMATOGRAPHY: SOLVENT A water with 0.1% formic acid
AC$CHROMATOGRAPHY: SOLVENT B methanol with 0.1% formic acid
MS$FOCUSED_ION: BASE_PEAK 305.1095
MS$FOCUSED_ION: PRECURSOR_M/Z 305.1083
MS$FOCUSED_ION: PRECURSOR_TYPE [M+H]+
MS$DATA_PROCESSING: DEPROFILE Spline
MS$DATA_PROCESSING: RECALIBRATE loess on assigned fragments and MS1
MS$DATA_PROCESSING: REANALYZE Peaks with additional N2/O included
MS$DATA_PROCESSING: WHOLE RMassBank 1.3.1
PK$SPLASH: splash10-0a4i-0009000000-25cf20e874bc51155b11
PK$ANNOTATION: m/z tentative_formula formula_count mass error(ppm)
  169.0795 C8H13N2S+ 1 169.0794 0.32
  305.1087 C12H22N2O3PS+ 1 305.1083 1.22
PK$NUM_PEAK: 2
PK$PEAK: m/z int. rel.int.
  169.0795 201411.8 16
  305.1087 11847570.1 999
//
