ACCESSION: MSBNK-Eawag-EQ328953
RECORD_TITLE: Nateglinide; LC-ESI-QFT; MS2; CE: 45; R=35000; [M-H]-
DATE: 2015.08.25
AUTHORS: Otto J, Stravs M, Schymanski E, Singer H, Department of Environmental Chemistry, Eawag
LICENSE: CC BY
COPYRIGHT: Copyright (C) 2015 Eawag, Duebendorf, Switzerland
COMMENT: CONFIDENCE standard compound
COMMENT: EAWAG_UCHEM_ID 3289
CH$NAME: Nateglinide
CH$COMPOUND_CLASS: N/A; Environmental Standard
CH$FORMULA: C19H27NO3
CH$EXACT_MASS: 317.19909
CH$SMILES: CC([C@H]1CC[C@@H](CC1)C(=O)N[C@@H](C(=O)O)CC2=CC=CC=C2)C
CH$IUPAC: InChI=1S/C19H27NO3/c1-13(2)15-8-10-16(11-9-15)18(21)20-17(19(22)23)12-14-6-4-3-5-7-14/h3-7,13,15-17H,8-12H2,1-2H3,(H,20,21)(H,22,23)/t15-,16-,17-/m1/s1
CH$LINK: CAS 105816-04-4
CH$LINK: KEGG D01111
CH$LINK: PUBCHEM CID:5311309
CH$LINK: INCHIKEY OELFLUMRDSZNSF-BRWVUGGUSA-N
CH$LINK: CHEMSPIDER 10482084
CH$LINK: COMPTOX DTXSID9040687
AC$INSTRUMENT: Q Exactive Orbitrap Thermo Scientific
AC$INSTRUMENT_TYPE: LC-ESI-QFT
AC$MASS_SPECTROMETRY: MS_TYPE MS2
AC$MASS_SPECTROMETRY: ION_MODE NEGATIVE
AC$MASS_SPECTROMETRY: IONIZATION ESI
AC$MASS_SPECTROMETRY: FRAGMENTATION_MODE HCD
AC$MASS_SPECTROMETRY: COLLISION_ENERGY 45 (nominal)
AC$MASS_SPECTROMETRY: RESOLUTION 35000
AC$CHROMATOGRAPHY: COLUMN_NAME XBridge C18 3.5um, 2.1x50mm, Waters
AC$CHROMATOGRAPHY: FLOW_GRADIENT 90/10 at 0 min, 50/50 at 4 min, 5/95 at 17 min, 5/95 at 25 min, 90/10 at 25.1 min, 90/10 at 30 min
AC$CHROMATOGRAPHY: FLOW_RATE 200 ul/min
AC$CHROMATOGRAPHY: RETENTION_TIME 13.6 min
AC$CHROMATOGRAPHY: SOLVENT A water with 0.1% formic acid
AC$CHROMATOGRAPHY: SOLVENT B methanol with 0.1% formic acid
MS$FOCUSED_ION: BASE_PEAK 316.1918
MS$FOCUSED_ION: PRECURSOR_M/Z 316.1918
MS$FOCUSED_ION: PRECURSOR_TYPE [M-H]-
MS$DATA_PROCESSING: DEPROFILE vendor picking in Proteowizard
MS$DATA_PROCESSING: RECALIBRATE loess on assigned fragments and MS1
MS$DATA_PROCESSING: REANALYZE Peaks with additional N2/O included
MS$DATA_PROCESSING: WHOLE RMassBank 1.9.6
PK$SPLASH: splash10-0297-4900000000-249affd02e2091b02c4f
PK$ANNOTATION: m/z tentative_formula formula_count mass error(ppm)
  72.0091 C2H2NO2- 1 72.0091 -0.44
  91.0553 C7H7- 1 91.0553 0.18
  103.0553 C8H7- 1 103.0553 -0.52
  118.0662 C8H8N- 1 118.0662 0.23
  135.0451 C8H7O2- 1 135.0452 -0.39
  147.0451 C9H7O2- 1 147.0452 -0.16
  148.1132 C10H14N- 1 148.1132 -0.02
  150.1285 C10H16N- 1 150.1288 -1.95
  164.0717 C9H10NO2- 1 164.0717 0.05
  166.1236 C10H16NO- 1 166.1237 -0.95
  168.1393 C10H18NO- 1 168.1394 -0.64
  180.1394 C11H18NO- 1 180.1394 0.23
  194.1549 C12H20NO- 1 194.155 -0.5
  196.134 C11H18NO2- 1 196.1343 -1.49
  255.1758 C18H23O- 1 255.1754 1.41
  270.1862 C18H24NO- 1 270.1863 -0.51
  272.2021 C18H26NO- 1 272.202 0.52
  316.1917 C19H26NO3- 1 316.1918 -0.4
PK$NUM_PEAK: 18
PK$PEAK: m/z int. rel.int.
  72.0091 2188248.8 49
  91.0553 43786716 999
  103.0553 1861304.4 42
  118.0662 302123.7 6
  135.0451 113285.7 2
  147.0451 27782798 633
  148.1132 147502.6 3
  150.1285 142541 3
  164.0717 26350656 601
  166.1236 1385341.8 31
  168.1393 36952768 843
  180.1394 2355453.5 53
  194.1549 695615.6 15
  196.134 123529 2
  255.1758 259323.6 5
  270.1862 1122693.4 25
  272.2021 676016.1 15
  316.1917 3603142.8 82
//
