ACCESSION: MSBNK-Eawag-EA070813
RECORD_TITLE: Propachlor; LC-ESI-ITFT; MS2; CE: 90%; R=30000; [M+H]+
DATE: 2014.01.14
AUTHORS: Stravs M, Schymanski E, Singer H, Department of Environmental Chemistry, Eawag
LICENSE: CC BY
COPYRIGHT: Copyright (C) 2012 Eawag, Duebendorf, Switzerland
COMMENT: CONFIDENCE standard compound
COMMENT: EAWAG_UCHEM_ID 708
CH$NAME: Propachlor
CH$NAME: 2-chloranyl-N-phenyl-N-propan-2-yl-ethanamide
CH$COMPOUND_CLASS: N/A; Environmental Standard
CH$FORMULA: C11H14ClNO
CH$EXACT_MASS: 211.0758
CH$SMILES: CC(C)N(C(=O)CCl)c1ccccc1
CH$IUPAC: InChI=1S/C11H14ClNO/c1-9(2)13(11(14)8-12)10-6-4-3-5-7-10/h3-7,9H,8H2,1-2H3
CH$LINK: CAS 1918-16-7
CH$LINK: PUBCHEM CID:4931
CH$LINK: INCHIKEY MFOUDYKPLGXPGO-UHFFFAOYSA-N
CH$LINK: CHEMSPIDER 4762
CH$LINK: COMPTOX DTXSID4024274
AC$INSTRUMENT: LTQ Orbitrap XL Thermo Scientific
AC$INSTRUMENT_TYPE: LC-ESI-ITFT
AC$MASS_SPECTROMETRY: MS_TYPE MS2
AC$MASS_SPECTROMETRY: ION_MODE POSITIVE
AC$MASS_SPECTROMETRY: IONIZATION ESI
AC$MASS_SPECTROMETRY: FRAGMENTATION_MODE HCD
AC$MASS_SPECTROMETRY: COLLISION_ENERGY 90 % (nominal)
AC$MASS_SPECTROMETRY: RESOLUTION 30000
AC$CHROMATOGRAPHY: COLUMN_NAME XBridge C18 3.5um, 2.1x50mm, Waters
AC$CHROMATOGRAPHY: FLOW_GRADIENT 90/10 at 0 min, 50/50 at 4 min, 5/95 at 17 min, 5/95 at 25 min, 90/10 at 25.1 min, 90/10 at 30 min
AC$CHROMATOGRAPHY: FLOW_RATE 200 ul/min
AC$CHROMATOGRAPHY: RETENTION_TIME 8.6 min
AC$CHROMATOGRAPHY: SOLVENT A water with 0.1% formic acid
AC$CHROMATOGRAPHY: SOLVENT B methanol with 0.1% formic acid
MS$FOCUSED_ION: BASE_PEAK 212.0841
MS$FOCUSED_ION: PRECURSOR_M/Z 212.0837
MS$FOCUSED_ION: PRECURSOR_TYPE [M+H]+
MS$DATA_PROCESSING: DEPROFILE Spline
MS$DATA_PROCESSING: RECALIBRATE loess on assigned fragments and MS1
MS$DATA_PROCESSING: REANALYZE Peaks with additional N2/O included
MS$DATA_PROCESSING: WHOLE RMassBank 1.3.1
PK$SPLASH: splash10-0006-9400000000-a56afda114536a85e145
PK$ANNOTATION: m/z tentative_formula formula_count mass error(ppm)
  53.0385 C4H5+ 1 53.0386 -1.26
  75.9948 C2H3ClN+ 1 75.9949 -0.04
  76.9789 C2H2ClO+ 1 76.9789 0.41
  77.0386 C6H5+ 1 77.0386 0.56
  79.0543 C6H7+ 1 79.0542 0.42
  91.0542 C7H7+ 1 91.0542 -0.07
  92.0621 C7H8+ 1 92.0621 0.85
  93.0573 C6H7N+ 1 93.0573 0.1
  94.0652 C6H8N+ 1 94.0651 0.68
  95.0492 C6H7O+ 2 95.0491 0.3
  105.0447 C6H5N2+ 1 105.0447 0.15
  106.0652 C7H8N+ 1 106.0651 0.42
  112.0074 C6H5Cl+ 1 112.0074 -0.08
  117.0573 C8H7N+ 1 117.0573 -0.09
  125.0152 C7H6Cl+ 1 125.0153 -0.75
  134.06 C8H8NO+ 1 134.06 0
  152.0262 C11H4O+ 2 152.0257 3.45
  170.0367 C8H9ClNO+ 1 170.0367 0.07
PK$NUM_PEAK: 18
PK$PEAK: m/z int. rel.int.
  53.0385 10364.3 6
  75.9948 7043.1 4
  76.9789 48128.7 31
  77.0386 272865.5 180
  79.0543 102856.8 67
  91.0542 39351.8 26
  92.0621 6678.9 4
  93.0573 23204.4 15
  94.0652 1511569.3 999
  95.0492 135567.8 89
  105.0447 74097.5 48
  106.0652 683279.6 451
  112.0074 8623.9 5
  117.0573 12018.3 7
  125.0152 15277.7 10
  134.06 26471.4 17
  152.0262 116527.7 77
  170.0367 146529.7 96
//
