ACCESSION: MSBNK-Eawag-EA030911
RECORD_TITLE: Atrazine-desethyl; LC-ESI-ITFT; MS2; CE: 60%; R=15000; [M+H]+
DATE: 2014.01.14
AUTHORS: Stravs M, Schymanski E, Singer H, Department of Environmental Chemistry, Eawag
LICENSE: CC BY
COPYRIGHT: Copyright (C) 2012 Eawag, Duebendorf, Switzerland
COMMENT: CONFIDENCE standard compound
COMMENT: EAWAG_UCHEM_ID 309
CH$NAME: Atrazine-desethyl
CH$NAME: Deethylatrazine
CH$NAME: (4-amino-6-chloro-s-triazin-2-yl)-isopropyl-amine
CH$COMPOUND_CLASS: N/A; Environmental Standard
CH$FORMULA: C6H10ClN5
CH$EXACT_MASS: 187.0625
CH$SMILES: c1(nc(nc(n1)Cl)N)NC(C)C
CH$IUPAC: InChI=1S/C6H10ClN5/c1-3(2)9-6-11-4(7)10-5(8)12-6/h3H,1-2H3,(H3,8,9,10,11,12)
CH$LINK: CAS 6190-65-4
CH$LINK: CHEBI CHEBI:28212
CH$LINK: KEGG C06559
CH$LINK: PUBCHEM CID:22563
CH$LINK: INCHIKEY DFWFIQKMSFGDCQ-UHFFFAOYSA-N
CH$LINK: CHEMSPIDER 21157
CH$LINK: COMPTOX DTXSID5037494
AC$INSTRUMENT: LTQ Orbitrap XL Thermo Scientific
AC$INSTRUMENT_TYPE: LC-ESI-ITFT
AC$MASS_SPECTROMETRY: MS_TYPE MS2
AC$MASS_SPECTROMETRY: ION_MODE POSITIVE
AC$MASS_SPECTROMETRY: IONIZATION ESI
AC$MASS_SPECTROMETRY: FRAGMENTATION_MODE HCD
AC$MASS_SPECTROMETRY: COLLISION_ENERGY 60 % (nominal)
AC$MASS_SPECTROMETRY: RESOLUTION 15000
AC$CHROMATOGRAPHY: COLUMN_NAME XBridge C18 3.5um, 2.1x50mm, Waters
AC$CHROMATOGRAPHY: FLOW_GRADIENT 90/10 at 0 min, 50/50 at 4 min, 5/95 at 17 min, 5/95 at 25 min, 90/10 at 25.1 min, 90/10 at 30 min
AC$CHROMATOGRAPHY: FLOW_RATE 200 ul/min
AC$CHROMATOGRAPHY: RETENTION_TIME 5.6 min
AC$CHROMATOGRAPHY: SOLVENT A water with 0.1% formic acid
AC$CHROMATOGRAPHY: SOLVENT B methanol with 0.1% formic acid
MS$FOCUSED_ION: BASE_PEAK 188.07
MS$FOCUSED_ION: PRECURSOR_M/Z 188.0697
MS$FOCUSED_ION: PRECURSOR_TYPE [M+H]+
MS$DATA_PROCESSING: DEPROFILE Spline
MS$DATA_PROCESSING: RECALIBRATE loess on assigned fragments and MS1
MS$DATA_PROCESSING: REANALYZE Peaks with additional N2/O included
MS$DATA_PROCESSING: WHOLE RMassBank 1.3.1
PK$SPLASH: splash10-0002-1900000000-7c82d8c174a2f4a83036
PK$ANNOTATION: m/z tentative_formula formula_count mass error(ppm)
  61.979 CHClN+ 1 61.9792 -2.95
  68.0243 C2H2N3+ 1 68.0243 -0.49
  79.0057 CH4ClN2+ 1 79.0058 -0.15
  104.0009 C2H3ClN3+ 1 104.001 -0.68
  110.046 C3H4N5+ 1 110.0461 -0.65
  128.0565 C3H6N5O+ 1 128.0567 -1.45
  146.0228 C3H5ClN5+ 1 146.0228 -0.34
  188.0697 C6H11ClN5+ 1 188.0697 -0.26
PK$NUM_PEAK: 8
PK$PEAK: m/z int. rel.int.
  61.979 52832.9 2
  68.0243 1237779.7 63
  79.0057 2241102.2 114
  104.0009 3036479.6 155
  110.046 1060733.2 54
  128.0565 237383.8 12
  146.0228 19507065.6 999
  188.0697 5130597.3 262
//
