ACCESSION: MSBNK-Eawag-EQ331903
RECORD_TITLE: Phenytoin; LC-ESI-QFT; MS2; CE: 45; R=35000; [M+H]+
DATE: 2015.08.25
AUTHORS: Otto J, Stravs M, Schymanski E, Singer H, Department of Environmental Chemistry, Eawag
LICENSE: CC BY
COPYRIGHT: Copyright (C) 2015 Eawag, Duebendorf, Switzerland
COMMENT: CONFIDENCE standard compound
COMMENT: EAWAG_UCHEM_ID 3319
CH$NAME: Phenytoin
CH$NAME: 5,5-diphenylimidazolidine-2,4-dione
CH$COMPOUND_CLASS: N/A; Environmental Standard
CH$FORMULA: C15H12N2O2
CH$EXACT_MASS: 252.08988
CH$SMILES: C1=CC=C(C=C1)C2(C(=O)NC(=O)N2)C3=CC=CC=C3
CH$IUPAC: InChI=1S/C15H12N2O2/c18-13-15(17-14(19)16-13,11-7-3-1-4-8-11)12-9-5-2-6-10-12/h1-10H,(H2,16,17,18,19)
CH$LINK: CAS 630-93-3
CH$LINK: KEGG C07443
CH$LINK: PUBCHEM CID:1775
CH$LINK: INCHIKEY CXOFVDLJLONNDW-UHFFFAOYSA-N
CH$LINK: CHEMSPIDER 1710
CH$LINK: COMPTOX DTXSID8020541
AC$INSTRUMENT: Q Exactive Orbitrap Thermo Scientific
AC$INSTRUMENT_TYPE: LC-ESI-QFT
AC$MASS_SPECTROMETRY: MS_TYPE MS2
AC$MASS_SPECTROMETRY: ION_MODE POSITIVE
AC$MASS_SPECTROMETRY: IONIZATION ESI
AC$MASS_SPECTROMETRY: FRAGMENTATION_MODE HCD
AC$MASS_SPECTROMETRY: COLLISION_ENERGY 45 (nominal)
AC$MASS_SPECTROMETRY: RESOLUTION 35000
AC$CHROMATOGRAPHY: COLUMN_NAME XBridge C18 3.5um, 2.1x50mm, Waters
AC$CHROMATOGRAPHY: FLOW_GRADIENT 90/10 at 0 min, 50/50 at 4 min, 5/95 at 17 min, 5/95 at 25 min, 90/10 at 25.1 min, 90/10 at 30 min
AC$CHROMATOGRAPHY: FLOW_RATE 200 ul/min
AC$CHROMATOGRAPHY: RETENTION_TIME 7.6 min
AC$CHROMATOGRAPHY: SOLVENT A water with 0.1% formic acid
AC$CHROMATOGRAPHY: SOLVENT B methanol with 0.1% formic acid
MS$FOCUSED_ION: BASE_PEAK 253.0971
MS$FOCUSED_ION: PRECURSOR_M/Z 253.0972
MS$FOCUSED_ION: PRECURSOR_TYPE [M+H]+
MS$DATA_PROCESSING: DEPROFILE vendor picking in Proteowizard
MS$DATA_PROCESSING: RECALIBRATE loess on assigned fragments and MS1
MS$DATA_PROCESSING: REANALYZE Peaks with additional N2/O included
MS$DATA_PROCESSING: WHOLE RMassBank 1.9.6
PK$SPLASH: splash10-001i-0900000000-d4dde5db680fb7722a49
PK$ANNOTATION: m/z tentative_formula formula_count mass error(ppm)
  77.0385 C6H5+ 1 77.0386 -1.25
  79.0542 C6H7+ 1 79.0542 -0.34
  95.0491 C6H7O+ 1 95.0491 -0.85
  104.0494 C7H6N+ 1 104.0495 -0.53
  105.0334 C7H5O+ 1 105.0335 -0.68
  132.0443 C8H6NO+ 1 132.0444 -0.61
  165.0699 C13H9+ 1 165.0699 0.2
  175.0501 C9H7N2O2+ 1 175.0502 -0.65
  180.0807 C13H10N+ 1 180.0808 -0.48
  182.0964 C13H12N+ 1 182.0964 -0.36
  183.08 C13H11O+ 1 183.0804 -2.3
  208.0759 C14H10NO+ 1 208.0757 0.91
  210.0914 C14H12NO+ 1 210.0913 0.19
  225.1022 C14H13N2O+ 1 225.1022 0.05
PK$NUM_PEAK: 14
PK$PEAK: m/z int. rel.int.
  77.0385 1459064.4 3
  79.0542 442000.7 1
  95.0491 505429.8 1
  104.0494 79580976 187
  105.0334 8606534 20
  132.0443 11948730 28
  165.0699 736379.9 1
  175.0501 1776377.5 4
  180.0807 464433.4 1
  182.0964 423330464 999
  183.08 460883.3 1
  208.0759 1210958.8 2
  210.0914 1111686 2
  225.1022 1599503 3
//
