ACCESSION: MSBNK-Eawag-EQ01128302
RECORD_TITLE: Morphothion; LC-ESI-QFT; MS2; CE: 30%; R=17500; [M+H]+
DATE: 2023.04.27
AUTHORS: B. Beck [dtc,com], J. Hollender [dtc]
LICENSE: CC BY-SA
COPYRIGHT: Copyright (C) Eawag 2023
COMMENT: CONFIDENCE standard compound
COMMENT: UCHEM_ID 11283
CH$NAME: Morphothion
CH$NAME: 2-dimethoxyphosphinothioylsulfanyl-1-morpholin-4-ylethanone
CH$COMPOUND_CLASS: N/A; Environmental Standard
CH$FORMULA: C8H16NO4PS2
CH$EXACT_MASS: 285.0258
CH$SMILES: COP(=S)(OC)SCC(=O)N1CCOCC1
CH$IUPAC: InChI=1S/C8H16NO4PS2/c1-11-14(15,12-2)16-7-8(10)9-3-5-13-6-4-9/h3-7H2,1-2H3
CH$LINK: CAS 144-41-2
CH$LINK: PUBCHEM CID:8952
CH$LINK: INCHIKEY NTHGWXIWFHGPLK-UHFFFAOYSA-N
CH$LINK: CHEMSPIDER 8608
AC$INSTRUMENT: Exploris 240 Orbitrap Thermo Scientific
AC$INSTRUMENT_TYPE: LC-ESI-QFT
AC$MASS_SPECTROMETRY: MS_TYPE MS2
AC$MASS_SPECTROMETRY: ION_MODE POSITIVE
AC$MASS_SPECTROMETRY: IONIZATION ESI
AC$MASS_SPECTROMETRY: FRAGMENTATION_MODE HCD
AC$MASS_SPECTROMETRY: COLLISION_ENERGY 30 % (nominal)
AC$MASS_SPECTROMETRY: RESOLUTION 17500
AC$MASS_SPECTROMETRY: MASS_RANGE_M/Z 50-313
AC$CHROMATOGRAPHY: COLUMN_NAME XBridge C18 3.5um, 2.1x50mm, Waters
AC$CHROMATOGRAPHY: FLOW_GRADIENT 90/10 at 0 min, 50/50 at 4 min, 5/95 at 17 min, 5/95 at 25 min, 90/10 at 25.1 min, 90/10 at 30 min
AC$CHROMATOGRAPHY: FLOW_RATE 200 uL/min
AC$CHROMATOGRAPHY: RETENTION_TIME 4.868 min
MS$FOCUSED_ION: BASE_PEAK 286.033
MS$FOCUSED_ION: PRECURSOR_M/Z 286.0331
MS$FOCUSED_ION: PRECURSOR_TYPE [M+H]+
MS$DATA_PROCESSING: RECALIBRATE loess on assigned fragments and MS1
MS$DATA_PROCESSING: REANALYZE Peaks with additional N2/O included
MS$DATA_PROCESSING: WHOLE RMassBank 3.11.0.1
PK$SPLASH: splash10-006t-0900000000-3a5cfc670c3692919de3
PK$ANNOTATION: m/z tentative_formula formula_count mass error(ppm)
  88.0756 C4H10NO+ 1 88.0757 -0.54
  124.9821 C2H6O2PS+ 1 124.9821 0.22
  142.9926 C2H8O3PS+ 2 142.9926 -0.51
  144.0478 C6H10NOS+ 2 144.0478 0.32
  156.954 C2H6O2PS2+ 1 156.9541 -0.85
  157.008 C3H10O3PS+ 1 157.0083 -2.05
  160.0425 C6H10NO2S+ 1 160.0427 -1.2
  170.9698 C3H8O2PS2+ 1 170.9698 -0.13
  198.9647 C4H8O3PS2+ 1 198.9647 -0.25
  254.0067 C7H13NO3PS2+ 1 254.0069 -0.77
  286.0335 C8H17NO4PS2+ 1 286.0331 1.23
PK$NUM_PEAK: 11
PK$PEAK: m/z int. rel.int.
  88.0756 2485007 20
  124.9821 18728614 156
  142.9926 4220103 35
  144.0478 16988856 142
  156.954 2171001.2 18
  157.008 757723.5 6
  160.0425 2864374.2 24
  170.9698 56175356 470
  198.9647 119215656 999
  254.0067 4228856.5 35
  286.0335 3597885.2 30
//
