ACCESSION: MSBNK-Eawag-EA026502
RECORD_TITLE: Metolachlor OXA; LC-ESI-ITFT; MS2; CE: 15%; R=7500; [M+H]+
DATE: 2014.01.14
AUTHORS: Stravs M, Schymanski E, Singer H, Department of Environmental Chemistry, Eawag
LICENSE: CC BY
COPYRIGHT: Copyright (C) 2012 Eawag, Duebendorf, Switzerland
COMMENT: CONFIDENCE standard compound
COMMENT: EAWAG_UCHEM_ID 265
CH$NAME: Metolachlor OXA
CH$NAME: 2-(2-ethyl-N-(2-methoxy-1-methyl-ethyl)-6-methyl-anilino)-2-keto-acetic acid
CH$COMPOUND_CLASS: N/A; Environmental Standard
CH$FORMULA: C15H21NO4
CH$EXACT_MASS: 279.1471
CH$SMILES: CC1=CC=CC(CC)=C1N(C(C)COC)C(C(O)=O)=O
CH$IUPAC: InChI=1S/C15H21NO4/c1-5-12-8-6-7-10(2)13(12)16(11(3)9-20-4)14(17)15(18)19/h6-8,11H,5,9H2,1-4H3,(H,18,19)
CH$LINK: CAS 152019-73-3
CH$LINK: PUBCHEM CID:15842092
CH$LINK: INCHIKEY LNOOSYCKMKZOJB-UHFFFAOYSA-N
CH$LINK: CHEMSPIDER 21170688
CH$LINK: COMPTOX DTXSID6037568
AC$INSTRUMENT: LTQ Orbitrap XL Thermo Scientific
AC$INSTRUMENT_TYPE: LC-ESI-ITFT
AC$MASS_SPECTROMETRY: MS_TYPE MS2
AC$MASS_SPECTROMETRY: ION_MODE POSITIVE
AC$MASS_SPECTROMETRY: IONIZATION ESI
AC$MASS_SPECTROMETRY: FRAGMENTATION_MODE HCD
AC$MASS_SPECTROMETRY: COLLISION_ENERGY 15 % (nominal)
AC$MASS_SPECTROMETRY: RESOLUTION 7500
AC$CHROMATOGRAPHY: COLUMN_NAME XBridge C18 3.5um, 2.1x50mm, Waters
AC$CHROMATOGRAPHY: FLOW_GRADIENT 90/10 at 0 min, 50/50 at 4 min, 5/95 at 17 min, 5/95 at 25 min, 90/10 at 25.1 min, 90/10 at 30 min
AC$CHROMATOGRAPHY: FLOW_RATE 200 ul/min
AC$CHROMATOGRAPHY: RETENTION_TIME 9.3 min
AC$CHROMATOGRAPHY: SOLVENT A water with 0.1% formic acid
AC$CHROMATOGRAPHY: SOLVENT B methanol with 0.1% formic acid
MS$FOCUSED_ION: BASE_PEAK 280.1539
MS$FOCUSED_ION: PRECURSOR_M/Z 280.1543
MS$FOCUSED_ION: PRECURSOR_TYPE [M+H]+
MS$DATA_PROCESSING: DEPROFILE Spline
MS$DATA_PROCESSING: RECALIBRATE loess on assigned fragments and MS1
MS$DATA_PROCESSING: REANALYZE Peaks with additional N2/O included
MS$DATA_PROCESSING: WHOLE RMassBank 1.3.1
PK$SPLASH: splash10-000t-0090000000-dd94e5a16d095fa535c3
PK$ANNOTATION: m/z tentative_formula formula_count mass error(ppm)
  73.0648 C4H9O+ 1 73.0648 -0.02
  150.0275 C3H6N2O5+ 1 150.0271 2.38
  162.0916 C10H12NO+ 1 162.0913 1.35
  206.1538 C13H20NO+ 1 206.1539 -0.68
  208.0968 C11H14NO3+ 1 208.0968 -0.14
  234.1489 C14H20NO2+ 1 234.1489 0.19
  248.128 C14H18NO3+ 1 248.1281 -0.48
  280.1543 C15H22NO4+ 1 280.1543 -0.05
PK$NUM_PEAK: 8
PK$PEAK: m/z int. rel.int.
  73.0648 103436 8
  150.0275 14895.7 1
  162.0916 15937.6 1
  206.1538 20378.4 1
  208.0968 45750.4 3
  234.1489 249624.6 20
  248.128 12370007.6 999
  280.1543 7714705.3 623
//
