ACCESSION: MSBNK-Eawag-EA034752
RECORD_TITLE: Terbutylazine-2-hydroxy; LC-ESI-ITFT; MS2; CE: 15%; R=7500; [M-H]-
DATE: 2014.01.14
AUTHORS: Stravs M, Schymanski E, Singer H, Department of Environmental Chemistry, Eawag
LICENSE: CC BY
COPYRIGHT: Copyright (C) 2012 Eawag, Duebendorf, Switzerland
COMMENT: CONFIDENCE standard compound
COMMENT: EAWAG_UCHEM_ID 347
CH$NAME: Terbutylazine-2-hydroxy
CH$NAME: 4-(Ethylamino)-6-[(2-methyl-2-propanyl)amino]-1,3,5-triazin-2(5H)-one
CH$COMPOUND_CLASS: N/A; Environmental Standard
CH$FORMULA: C9H17N5O
CH$EXACT_MASS: 211.1433
CH$SMILES: CCNC1=NC(O)=NC(NC(C)(C)C)=N1
CH$IUPAC: InChI=1S/C9H17N5O/c1-5-10-6-11-7(13-8(15)12-6)14-9(2,3)4/h5H2,1-4H3,(H3,10,11,12,13,14,15)
CH$LINK: CAS 66753-07-9
CH$LINK: INCHIKEY OYTCZOJKXCTBHG-UHFFFAOYSA-N
CH$LINK: CHEMSPIDER 4324299
CH$LINK: COMPTOX DTXSID20216888
CH$LINK: PUBCHEM CID:135495928
AC$INSTRUMENT: LTQ Orbitrap XL Thermo Scientific
AC$INSTRUMENT_TYPE: LC-ESI-ITFT
AC$MASS_SPECTROMETRY: MS_TYPE MS2
AC$MASS_SPECTROMETRY: ION_MODE NEGATIVE
AC$MASS_SPECTROMETRY: IONIZATION ESI
AC$MASS_SPECTROMETRY: FRAGMENTATION_MODE HCD
AC$MASS_SPECTROMETRY: COLLISION_ENERGY 15 % (nominal)
AC$MASS_SPECTROMETRY: RESOLUTION 7500
AC$CHROMATOGRAPHY: COLUMN_NAME XBridge C18 3.5um, 2.1x50mm, Waters
AC$CHROMATOGRAPHY: FLOW_GRADIENT 90/10 at 0 min, 50/50 at 4 min, 5/95 at 17 min, 5/95 at 25 min, 90/10 at 25.1 min, 90/10 at 30 min
AC$CHROMATOGRAPHY: FLOW_RATE 200 ul/min
AC$CHROMATOGRAPHY: RETENTION_TIME 5.4 min
AC$CHROMATOGRAPHY: SOLVENT A water with 0.1% formic acid
AC$CHROMATOGRAPHY: SOLVENT B methanol with 0.1% formic acid
MS$FOCUSED_ION: BASE_PEAK 210.1367
MS$FOCUSED_ION: PRECURSOR_M/Z 210.136
MS$FOCUSED_ION: PRECURSOR_TYPE [M-H]-
MS$DATA_PROCESSING: DEPROFILE Spline
MS$DATA_PROCESSING: RECALIBRATE loess on assigned fragments and MS1
MS$DATA_PROCESSING: REANALYZE Peaks with additional N2/O included
MS$DATA_PROCESSING: WHOLE RMassBank 1.3.1
PK$SPLASH: splash10-03di-0090000000-65e5b0e9586a9e16f45f
PK$ANNOTATION: m/z tentative_formula formula_count mass error(ppm)
  154.0744 C7H10N2O2- 1 154.0748 -2.44
  210.1361 C9H16N5O- 1 210.136 0.27
PK$NUM_PEAK: 2
PK$PEAK: m/z int. rel.int.
  154.0744 11387.3 24
  210.1361 471859.2 999
//
