ACCESSION: MSBNK-Eawag-EQ330701
RECORD_TITLE: Dropropizine; LC-ESI-QFT; MS2; CE: 15; R=35000; [M+H]+
DATE: 2015.08.25
AUTHORS: Otto J, Stravs M, Schymanski E, Singer H, Department of Environmental Chemistry, Eawag
LICENSE: CC BY
COPYRIGHT: Copyright (C) 2015 Eawag, Duebendorf, Switzerland
COMMENT: CONFIDENCE standard compound
COMMENT: EAWAG_UCHEM_ID 3307
CH$NAME: Dropropizine
CH$NAME: 3-(4-phenylpiperazin-1-yl)propane-1,2-diol
CH$COMPOUND_CLASS: N/A; Environmental Standard
CH$FORMULA: C13H20N2O2
CH$EXACT_MASS: 236.15248
CH$SMILES: C1CN(CCN1CC(CO)O)C2=CC=CC=C2
CH$IUPAC: InChI=1S/C13H20N2O2/c16-11-13(17)10-14-6-8-15(9-7-14)12-4-2-1-3-5-12/h1-5,13,16-17H,6-11H2
CH$LINK: CAS 17692-31-8
CH$LINK: KEGG D07393
CH$LINK: PUBCHEM CID:3169
CH$LINK: INCHIKEY PTVWPYVOOKLBCG-UHFFFAOYSA-N
CH$LINK: CHEMSPIDER 3057
CH$LINK: COMPTOX DTXSID0045624
AC$INSTRUMENT: Q Exactive Orbitrap Thermo Scientific
AC$INSTRUMENT_TYPE: LC-ESI-QFT
AC$MASS_SPECTROMETRY: MS_TYPE MS2
AC$MASS_SPECTROMETRY: ION_MODE POSITIVE
AC$MASS_SPECTROMETRY: IONIZATION ESI
AC$MASS_SPECTROMETRY: FRAGMENTATION_MODE HCD
AC$MASS_SPECTROMETRY: COLLISION_ENERGY 15 (nominal)
AC$MASS_SPECTROMETRY: RESOLUTION 35000
AC$CHROMATOGRAPHY: COLUMN_NAME XBridge C18 3.5um, 2.1x50mm, Waters
AC$CHROMATOGRAPHY: FLOW_GRADIENT 90/10 at 0 min, 50/50 at 4 min, 5/95 at 17 min, 5/95 at 25 min, 90/10 at 25.1 min, 90/10 at 30 min
AC$CHROMATOGRAPHY: FLOW_RATE 200 ul/min
AC$CHROMATOGRAPHY: RETENTION_TIME 2.9 min
AC$CHROMATOGRAPHY: SOLVENT A water with 0.1% formic acid
AC$CHROMATOGRAPHY: SOLVENT B methanol with 0.1% formic acid
MS$FOCUSED_ION: BASE_PEAK 237.1598
MS$FOCUSED_ION: PRECURSOR_M/Z 237.1598
MS$FOCUSED_ION: PRECURSOR_TYPE [M+H]+
MS$DATA_PROCESSING: DEPROFILE vendor picking in Proteowizard
MS$DATA_PROCESSING: RECALIBRATE loess on assigned fragments and MS1
MS$DATA_PROCESSING: REANALYZE Peaks with additional N2/O included
MS$DATA_PROCESSING: WHOLE RMassBank 1.9.6
PK$SPLASH: splash10-000i-0090000000-ff021b3b696b9edeb6bb
PK$ANNOTATION: m/z tentative_formula formula_count mass error(ppm)
  70.065 C4H8N+ 1 70.0651 -1.65
  118.0862 C5H12NO2+ 1 118.0863 -0.55
  132.0807 C9H10N+ 1 132.0808 -0.8
  160.0994 C10H12N2+ 1 160.0995 -0.37
  175.1228 C11H15N2+ 1 175.123 -1
  189.1385 C12H17N2+ 1 189.1386 -0.61
  219.149 C13H19N2O+ 1 219.1492 -0.87
  237.1597 C13H21N2O2+ 1 237.1598 -0.36
PK$NUM_PEAK: 8
PK$PEAK: m/z int. rel.int.
  70.065 692120.8 1
  118.0862 2084475.8 3
  132.0807 725131.4 1
  160.0994 1310599.4 2
  175.1228 1239140.4 2
  189.1385 1404210.8 2
  219.149 2084488.6 3
  237.1597 609311040 999
//
