ACCESSION: MSBNK-Eawag-EQ301154
RECORD_TITLE: Acetazolamide; LC-ESI-QFT; MS2; CE: 60; R=35000; [M-H]-
DATE: 2015.08.25
AUTHORS: Beck B, Stravs M, Schymanski E, Singer H, Department of Environmental Chemistry, Eawag
LICENSE: CC BY
COPYRIGHT: Copyright (C) 2015 Eawag, Duebendorf, Switzerland
COMMENT: CONFIDENCE standard compound
COMMENT: EAWAG_UCHEM_ID 3011
CH$NAME: Acetazolamide
CH$NAME: AZM
CH$NAME: N-(5-sulfamoyl-1,3,4-thiadiazol-2-yl)acetamide
CH$COMPOUND_CLASS: N/A; Environmental Standard
CH$FORMULA: C4H6N4O3S2
CH$EXACT_MASS: 221.98813
CH$SMILES: O=S(=O)(c1nnc(s1)NC(=O)C)N
CH$IUPAC: InChI=1S/C4H6N4O3S2/c1-2(9)6-3-7-8-4(12-3)13(5,10)11/h1H3,(H2,5,10,11)(H,6,7,9)
CH$LINK: CAS 59-66-5
CH$LINK: CHEBI CHEBI:27690
CH$LINK: KEGG C06805
CH$LINK: PUBCHEM CID:1986
CH$LINK: INCHIKEY BZKPWHYZMXOIDC-UHFFFAOYSA-N
CH$LINK: CHEMSPIDER 1909
CH$LINK: COMPTOX DTXSID7022544
AC$INSTRUMENT: Q Exactive Orbitrap Thermo Scientific
AC$INSTRUMENT_TYPE: LC-ESI-QFT
AC$MASS_SPECTROMETRY: MS_TYPE MS2
AC$MASS_SPECTROMETRY: ION_MODE NEGATIVE
AC$MASS_SPECTROMETRY: IONIZATION ESI
AC$MASS_SPECTROMETRY: FRAGMENTATION_MODE HCD
AC$MASS_SPECTROMETRY: COLLISION_ENERGY 60 (nominal)
AC$MASS_SPECTROMETRY: RESOLUTION 35000
AC$CHROMATOGRAPHY: COLUMN_NAME XBridge C18 3.5um, 2.1x50mm, Waters
AC$CHROMATOGRAPHY: FLOW_GRADIENT 90/10 at 0 min, 50/50 at 4 min, 5/95 at 17 min, 5/95 at 25 min, 90/10 at 25.1 min, 90/10 at 30 min
AC$CHROMATOGRAPHY: FLOW_RATE 200 ul/min
AC$CHROMATOGRAPHY: RETENTION_TIME 2.4 min
AC$CHROMATOGRAPHY: SOLVENT A water with 0.1% formic acid
AC$CHROMATOGRAPHY: SOLVENT B methanol with 0.1% formic acid
MS$FOCUSED_ION: BASE_PEAK 220.9809
MS$FOCUSED_ION: PRECURSOR_M/Z 220.9809
MS$FOCUSED_ION: PRECURSOR_TYPE [M-H]-
MS$DATA_PROCESSING: DEPROFILE Spline
MS$DATA_PROCESSING: RECALIBRATE loess on assigned fragments and MS1
MS$DATA_PROCESSING: REANALYZE Peaks with additional N2/O included
MS$DATA_PROCESSING: WHOLE RMassBank 1.9.6
PK$SPLASH: splash10-001i-9000000000-de6c64393f3dc86c15b1
PK$ANNOTATION: m/z tentative_formula formula_count mass error(ppm)
  57.9757 CNS- 1 57.9757 -0.75
  61.9706 NOS- 1 61.9706 -0.29
  63.9624 O2S- 1 63.9624 -0.14
  66.0098 C2N3- 1 66.0098 0.45
  68.0016 C2N2O- 1 68.0016 -0.31
  72.9866 CHN2S- 1 72.9866 0.38
  77.9656 NO2S- 1 77.9655 0.48
  79.9812 H2NO2S- 1 79.9812 0.34
  83.0251 C3H3N2O- 1 83.0251 -0.08
  115.0086 C2H3N4S- 1 115.0084 1.91
  115.9925 C2H2N3OS- 1 115.9924 0.81
  142.0081 C4H4N3OS- 1 142.0081 0.1
  220.9814 C4H5N4O3S2- 1 220.9809 2.69
PK$NUM_PEAK: 13
PK$PEAK: m/z int. rel.int.
  57.9757 8035681.4 322
  61.9706 2299576.8 92
  63.9624 742277.3 29
  66.0098 82730.5 3
  68.0016 31337.1 1
  72.9866 552531.4 22
  77.9656 282375 11
  79.9812 7177166.6 287
  83.0251 24927244.6 999
  115.0086 71244.9 2
  115.9925 134334.3 5
  142.0081 104034.5 4
  220.9814 81806.1 3
//
