ACCESSION: MSBNK-Eawag-EQ317201
RECORD_TITLE: Metosulam; LC-ESI-QFT; MS2; CE: 15; R=35000; [M+H]+
DATE: 2015.08.25
AUTHORS: Huntscha S, Stravs M, Schymanski E, Singer H, Department of Environmental Chemistry, Eawag
LICENSE: CC BY
COPYRIGHT: Copyright (C) 2015 Eawag, Duebendorf, Switzerland
COMMENT: CONFIDENCE standard compound
COMMENT: EAWAG_UCHEM_ID 3172
CH$NAME: Metosulam
CH$NAME: N-(2,6-dichloro-3-methyl-phenyl)-5,7-dimethoxy-[1,2,4]triazolo[1,5-a]pyrimidine-2-sulfonamide
CH$COMPOUND_CLASS: N/A; Environmental Standard
CH$FORMULA: C14H13Cl2N5O4S
CH$EXACT_MASS: 417.00653
CH$SMILES: Clc1c(ccc(Cl)c1NS(=O)(=O)c2nc3nc(OC)cc(OC)n3n2)C
CH$IUPAC: InChI=1S/C14H13Cl2N5O4S/c1-7-4-5-8(15)12(11(7)16)20-26(22,23)14-18-13-17-9(24-2)6-10(25-3)21(13)19-14/h4-6,20H,1-3H3
CH$LINK: CAS 139528-85-1
CH$LINK: PUBCHEM CID:86422
CH$LINK: INCHIKEY VGHPMIFEKOFHHQ-UHFFFAOYSA-N
CH$LINK: CHEMSPIDER 77938
CH$LINK: COMPTOX DTXSID9047544
AC$INSTRUMENT: Q Exactive Orbitrap Thermo Scientific
AC$INSTRUMENT_TYPE: LC-ESI-QFT
AC$MASS_SPECTROMETRY: MS_TYPE MS2
AC$MASS_SPECTROMETRY: ION_MODE POSITIVE
AC$MASS_SPECTROMETRY: IONIZATION ESI
AC$MASS_SPECTROMETRY: FRAGMENTATION_MODE HCD
AC$MASS_SPECTROMETRY: COLLISION_ENERGY 15 (nominal)
AC$MASS_SPECTROMETRY: RESOLUTION 35000
AC$CHROMATOGRAPHY: COLUMN_NAME XBridge C18 3.5um, 2.1x50mm, Waters
AC$CHROMATOGRAPHY: FLOW_GRADIENT 90/10 at 0 min, 50/50 at 4 min, 5/95 at 17 min, 5/95 at 25 min, 90/10 at 25.1 min, 90/10 at 30 min
AC$CHROMATOGRAPHY: FLOW_RATE 200 ul/min
AC$CHROMATOGRAPHY: RETENTION_TIME 7.6 min
AC$CHROMATOGRAPHY: SOLVENT A water with 0.1% formic acid
AC$CHROMATOGRAPHY: SOLVENT B methanol with 0.1% formic acid
MS$FOCUSED_ION: BASE_PEAK 418.0141
MS$FOCUSED_ION: PRECURSOR_M/Z 418.0138
MS$FOCUSED_ION: PRECURSOR_TYPE [M+H]+
MS$DATA_PROCESSING: DEPROFILE Spline
MS$DATA_PROCESSING: RECALIBRATE loess on assigned fragments and MS1
MS$DATA_PROCESSING: REANALYZE Peaks with additional N2/O included
MS$DATA_PROCESSING: WHOLE RMassBank 1.9.6
PK$SPLASH: splash10-014i-0000900000-cb75f9032f7a4f751624
PK$ANNOTATION: m/z tentative_formula formula_count mass error(ppm)
  228.031 C7H8N4O3S+ 5 228.0312 -0.89
  237.949 C7H6Cl2NO2S+ 2 237.9491 -0.3
  318.0741 C14H13ClN5O2+ 1 318.0752 -3.49
  354.0519 C14H14Cl2N5O2+ 1 354.0519 -0.07
  418.0138 C14H14Cl2N5O4S+ 1 418.0138 -0.04
PK$NUM_PEAK: 6
PK$PEAK: m/z int. rel.int.
  174.9947 22580587.94 77
  228.031 2419786.2 8
  237.949 2302211.5 7
  318.0741 579568.8 1
  354.0519 2258441.4 7
  418.0138 291823095.5 999
//
