ACCESSION: MSBNK-Eawag-EA282614
RECORD_TITLE: Ketamine; LC-ESI-ITFT; MS2; CE: 35%; R=30000; [M+H]+
DATE: 2014.01.14
AUTHORS: Stravs M, Schymanski E, Singer H, Department of Environmental Chemistry, Eawag
LICENSE: CC BY
COPYRIGHT: Copyright (C) 2012 Eawag, Duebendorf, Switzerland
COMMENT: CONFIDENCE standard compound
COMMENT: EAWAG_UCHEM_ID 2826
CH$NAME: Ketamine
CH$NAME: 2-(2-chlorophenyl)-2-(methylamino)-1-cyclohexanone
CH$COMPOUND_CLASS: N/A; Environmental Standard
CH$FORMULA: C13H16ClNO
CH$EXACT_MASS: 237.0920
CH$SMILES: CNC1(CCCCC1=O)C2=CC=CC=C2Cl
CH$IUPAC: InChI=1S/C13H16ClNO/c1-15-13(9-5-4-8-12(13)16)10-6-2-3-7-11(10)14/h2-3,6-7,15H,4-5,8-9H2,1H3
CH$LINK: CAS 6740-88-1
CH$LINK: KEGG C07525
CH$LINK: PUBCHEM CID:3821
CH$LINK: INCHIKEY YQEZLKZALYSWHR-UHFFFAOYSA-N
CH$LINK: CHEMSPIDER 3689
CH$LINK: COMPTOX DTXSID8023187
AC$INSTRUMENT: LTQ Orbitrap XL Thermo Scientific
AC$INSTRUMENT_TYPE: LC-ESI-ITFT
AC$MASS_SPECTROMETRY: MS_TYPE MS2
AC$MASS_SPECTROMETRY: ION_MODE POSITIVE
AC$MASS_SPECTROMETRY: IONIZATION ESI
AC$MASS_SPECTROMETRY: FRAGMENTATION_MODE CID
AC$MASS_SPECTROMETRY: COLLISION_ENERGY 35 % (nominal)
AC$MASS_SPECTROMETRY: RESOLUTION 30000
AC$CHROMATOGRAPHY: COLUMN_NAME XBridge C18 3.5um, 2.1x50mm, Waters
AC$CHROMATOGRAPHY: FLOW_GRADIENT 90/10 at 0 min, 50/50 at 4 min, 5/95 at 17 min, 5/95 at 25 min, 90/10 at 25.1 min, 90/10 at 30 min
AC$CHROMATOGRAPHY: FLOW_RATE 200 ul/min
AC$CHROMATOGRAPHY: RETENTION_TIME 4.6 min
AC$CHROMATOGRAPHY: SOLVENT A water with 0.1% formic acid
AC$CHROMATOGRAPHY: SOLVENT B methanol with 0.1% formic acid
MS$FOCUSED_ION: BASE_PEAK 238.0997
MS$FOCUSED_ION: PRECURSOR_M/Z 238.0993
MS$FOCUSED_ION: PRECURSOR_TYPE [M+H]+
MS$DATA_PROCESSING: DEPROFILE Spline
MS$DATA_PROCESSING: RECALIBRATE loess on assigned fragments and MS1
MS$DATA_PROCESSING: REANALYZE Peaks with additional N2/O included
MS$DATA_PROCESSING: WHOLE RMassBank 1.3.1
PK$SPLASH: splash10-00di-0090000000-5f14196db213c95f3e71
PK$ANNOTATION: m/z tentative_formula formula_count mass error(ppm)
  125.0153 C7H6Cl+ 1 125.0153 0.29
  152.0262 C8H7ClN+ 2 152.0262 0.11
  163.031 C10H8Cl+ 1 163.0309 0.65
  165.0101 C9H6ClO+ 1 165.0102 -0.6
  179.0623 C11H12Cl+ 1 179.0622 0.31
  189.0464 C12H10Cl+ 1 189.0466 -0.71
  207.0574 C12H12ClO+ 1 207.0571 1.21
  220.089 C13H15ClN+ 1 220.0888 0.98
PK$NUM_PEAK: 8
PK$PEAK: m/z int. rel.int.
  125.0153 118113.9 25
  152.0262 159487.6 34
  163.031 9921.8 2
  165.0101 5131.7 1
  179.0623 291676.9 63
  189.0464 6987.2 1
  207.0574 1357870.3 297
  220.089 4562718 999
//
