ACCESSION: MSBNK-Eawag-EQ00270952
RECORD_TITLE: Imidacloprid; LC-ESI-QFT; MS2; CE: 30%; R=15000; [M-H]-
DATE: 2024.06.14
AUTHORS: F. Jud [dtc], K. Arturi [dtc], J. Hollender [dtc], A. Dax [com]
LICENSE: CC BY-SA
COPYRIGHT: Copyright (C) Eawag 2024
COMMENT: CONFIDENCE standard compound
COMMENT: UCHEM_ID 2709
CH$NAME: Imidacloprid
CH$NAME: N-[1-[(6-chloro-3-pyridinyl)methyl]-4,5-dihydroimidazol-2-yl]nitramide
CH$NAME: N-[1-[(6-chloropyridin-3-yl)methyl]-4,5-dihydroimidazol-2-yl]nitramide
CH$COMPOUND_CLASS: N/A
CH$FORMULA: C9H10ClN5O2
CH$EXACT_MASS: 255.0523022
CH$SMILES: [O-][N+](=O)\N=C1/NCCN1CC1=CN=C(Cl)C=C1
CH$IUPAC: InChI=1S/C9H10ClN5O2/c10-8-2-1-7(5-12-8)6-14-4-3-11-9(14)13-15(16)17/h1-2,5H,3-4,6H2,(H,11,13)
CH$LINK: CAS 937701-26-3
CH$LINK: KEGG C11110
CH$LINK: PUBCHEM CID:86418
CH$LINK: INCHIKEY YWTYJOPNNQFBPC-UHFFFAOYSA-N
CH$LINK: CHEMSPIDER 77934
AC$INSTRUMENT: Q Exactive Plus
AC$INSTRUMENT_TYPE: LC-ESI-QFT
AC$MASS_SPECTROMETRY: MS_TYPE MS2
AC$MASS_SPECTROMETRY: ION_MODE NEGATIVE
AC$MASS_SPECTROMETRY: IONIZATION ESI
AC$MASS_SPECTROMETRY: FRAGMENTATION_MODE HCD
AC$MASS_SPECTROMETRY: COLLISION_ENERGY 30 % (nominal)
AC$MASS_SPECTROMETRY: RESOLUTION 15000
AC$MASS_SPECTROMETRY: MASS_RANGE_M/Z 50-275
AC$CHROMATOGRAPHY: COLUMN_NAME XBridge C18 3.5um, 2.1x50mm, Waters
AC$CHROMATOGRAPHY: FLOW_GRADIENT 90/10 at 0 min, 50/50 at 4 min, 5/95 at 17 min, 5/95 at 25 min, 90/10 at 25.1 min, 90/10 at 30 min
AC$CHROMATOGRAPHY: FLOW_RATE 200 uL/min
AC$CHROMATOGRAPHY: RETENTION_TIME 4.068 min
MS$FOCUSED_ION: BASE_PEAK 254.0451
MS$FOCUSED_ION: PRECURSOR_M/Z 254.045
MS$FOCUSED_ION: PRECURSOR_TYPE [M-H]-
MS$FOCUSED_ION: PRECURSOR_INTENSITY 40930305.92
MS$DATA_PROCESSING: RECALIBRATE loess on assigned fragments and MS1
MS$DATA_PROCESSING: REANALYZE Peaks with additional N2/O included
MS$DATA_PROCESSING: WHOLE RMassBank 3.15.1.1
PK$SPLASH: splash10-0udi-0790000000-10602f8af5e2923679fa
PK$ANNOTATION: m/z tentative_formula formula_count mass error(ppm)
  85.9997 CN3O2- 1 85.9996 0.61
  126.0116 C6H5ClN- 2 126.0116 -0.29
  153.0225 C7H6ClN2- 1 153.0225 0.31
  207.044 C9H8ClN4- 1 207.0443 -1.38
  210.0443 C9H9ClN3O- 1 210.044 1.54
  254.0452 C9H9ClN5O2- 1 254.045 0.83
PK$NUM_PEAK: 6
PK$PEAK: m/z int. rel.int.
  85.9997 177630.3 50
  126.0116 43648.9 12
  153.0225 3265734.5 929
  207.044 129793.6 36
  210.0443 245047.2 69
  254.0452 3511336.8 999
//
