ACCESSION: MSBNK-Eawag-EA029651
RECORD_TITLE: N,N-Dimethyl-N'-phenylsulfamide; LC-ESI-ITFT; MS2; CE: 35%; R=7500; [M-H]-
DATE: 2014.01.14
AUTHORS: Stravs M, Schymanski E, Singer H, Department of Environmental Chemistry, Eawag
LICENSE: CC BY
COPYRIGHT: Copyright (C) 2012 Eawag, Duebendorf, Switzerland
COMMENT: CONFIDENCE standard compound
COMMENT: EAWAG_UCHEM_ID 296
CH$NAME: N,N-Dimethyl-N'-phenylsulfamide
CH$NAME: DMSA
CH$COMPOUND_CLASS: N/A; Environmental Standard
CH$FORMULA: C8H12N2O2S
CH$EXACT_MASS: 200.0619
CH$SMILES: S(Nc1ccccc1)(N(C)C)(=O)=O
CH$IUPAC: InChI=1S/C8H12N2O2S/c1-10(2)13(11,12)9-8-6-4-3-5-7-8/h3-7,9H,1-2H3
CH$LINK: CAS 4710-17-2
CH$LINK: PUBCHEM CID:78441
CH$LINK: INCHIKEY QCDQDISRALTLNQ-UHFFFAOYSA-N
CH$LINK: CHEMSPIDER 70809
CH$LINK: COMPTOX DTXSID60197041
AC$INSTRUMENT: LTQ Orbitrap XL Thermo Scientific
AC$INSTRUMENT_TYPE: LC-ESI-ITFT
AC$MASS_SPECTROMETRY: MS_TYPE MS2
AC$MASS_SPECTROMETRY: ION_MODE NEGATIVE
AC$MASS_SPECTROMETRY: IONIZATION ESI
AC$MASS_SPECTROMETRY: FRAGMENTATION_MODE CID
AC$MASS_SPECTROMETRY: COLLISION_ENERGY 35 % (nominal)
AC$MASS_SPECTROMETRY: RESOLUTION 7500
AC$CHROMATOGRAPHY: COLUMN_NAME XBridge C18 3.5um, 2.1x50mm, Waters
AC$CHROMATOGRAPHY: FLOW_GRADIENT 90/10 at 0 min, 50/50 at 4 min, 5/95 at 17 min, 5/95 at 25 min, 90/10 at 25.1 min, 90/10 at 30 min
AC$CHROMATOGRAPHY: FLOW_RATE 200 ul/min
AC$CHROMATOGRAPHY: RETENTION_TIME 6.3 min
AC$CHROMATOGRAPHY: SOLVENT A water with 0.1% formic acid
AC$CHROMATOGRAPHY: SOLVENT B methanol with 0.1% formic acid
MS$FOCUSED_ION: BASE_PEAK 174.9563
MS$FOCUSED_ION: PRECURSOR_M/Z 199.0547
MS$FOCUSED_ION: PRECURSOR_TYPE [M-H]-
MS$DATA_PROCESSING: DEPROFILE Spline
MS$DATA_PROCESSING: RECALIBRATE loess on assigned fragments and MS1
MS$DATA_PROCESSING: REANALYZE Peaks with additional N2/O included
MS$DATA_PROCESSING: WHOLE RMassBank 1.3.1
PK$SPLASH: splash10-0a4i-0900000000-705c8bb8c9aff8ac2ae2
PK$ANNOTATION: m/z tentative_formula formula_count mass error(ppm)
  79.9576 O3S- 1 79.9574 3.08
  91.043 C6H5N- 1 91.0427 2.33
  155.005 C6H5NO2S- 1 155.0046 2.34
  156.0131 C6H6NO2S- 1 156.0125 3.83
PK$NUM_PEAK: 4
PK$PEAK: m/z int. rel.int.
  79.9576 4050.5 17
  91.043 16582 73
  155.005 225584.9 999
  156.0131 9065.5 40
//
