ACCESSION: MSBNK-Eawag-EQ01121801
RECORD_TITLE: Cloethocarb; LC-ESI-QFT; MS2; CE: 15%; R=17500; [M+H]+
DATE: 2023.04.27
AUTHORS: B. Beck [dtc,com], J. Hollender [dtc]
LICENSE: CC BY-SA
COPYRIGHT: Copyright (C) Eawag 2023
COMMENT: CONFIDENCE standard compound
COMMENT: UCHEM_ID 11218
CH$NAME: Cloethocarb
CH$NAME: [2-(2-chloro-1-methoxyethoxy)phenyl] N-methylcarbamate
CH$COMPOUND_CLASS: N/A; Environmental Standard
CH$FORMULA: C11H14ClNO4
CH$EXACT_MASS: 259.0611
CH$SMILES: CNC(=O)OC1=CC=CC=C1OC(CCl)OC
CH$IUPAC: InChI=1S/C11H14ClNO4/c1-13-11(14)17-9-6-4-3-5-8(9)16-10(7-12)15-2/h3-6,10H,7H2,1-2H3,(H,13,14)
CH$LINK: CAS 51487-69-5
CH$LINK: CHEBI CHEBI:82091
CH$LINK: KEGG C18951
CH$LINK: PUBCHEM CID:40032
CH$LINK: INCHIKEY PITWUHDDNUVBPT-UHFFFAOYSA-N
CH$LINK: CHEMSPIDER 36591
AC$INSTRUMENT: Exploris 240 Orbitrap Thermo Scientific
AC$INSTRUMENT_TYPE: LC-ESI-QFT
AC$MASS_SPECTROMETRY: MS_TYPE MS2
AC$MASS_SPECTROMETRY: ION_MODE POSITIVE
AC$MASS_SPECTROMETRY: IONIZATION ESI
AC$MASS_SPECTROMETRY: FRAGMENTATION_MODE HCD
AC$MASS_SPECTROMETRY: COLLISION_ENERGY 15 % (nominal)
AC$MASS_SPECTROMETRY: RESOLUTION 17500
AC$MASS_SPECTROMETRY: MASS_RANGE_M/Z 50-286
AC$CHROMATOGRAPHY: COLUMN_NAME XBridge C18 3.5um, 2.1x50mm, Waters
AC$CHROMATOGRAPHY: FLOW_GRADIENT 90/10 at 0 min, 50/50 at 4 min, 5/95 at 17 min, 5/95 at 25 min, 90/10 at 25.1 min, 90/10 at 30 min
AC$CHROMATOGRAPHY: FLOW_RATE 200 uL/min
AC$CHROMATOGRAPHY: RETENTION_TIME 4.885 min
MS$FOCUSED_ION: BASE_PEAK 116.0528
MS$FOCUSED_ION: PRECURSOR_M/Z 260.0684
MS$FOCUSED_ION: PRECURSOR_TYPE [M+H]+
MS$DATA_PROCESSING: RECALIBRATE loess on assigned fragments and MS1
MS$DATA_PROCESSING: REANALYZE Peaks with additional N2/O included
MS$DATA_PROCESSING: WHOLE RMassBank 3.11.0.1
PK$SPLASH: splash10-03di-0090000000-9954b811e7c6b0457202
PK$ANNOTATION: m/z tentative_formula formula_count mass error(ppm)
  123.0679 C7H9NO+ 1 123.0679 0.07
  186.0318 C8H9ClNO2+ 2 186.0316 0.78
  214.0267 C9H9ClNO3+ 1 214.0265 0.94
  242.0574 C11H13ClNO3+ 1 242.0578 -1.95
  260.0685 C11H15ClNO4+ 1 260.0684 0.41
PK$NUM_PEAK: 5
PK$PEAK: m/z int. rel.int.
  123.0679 103312.5 5
  186.0318 813804.4 42
  214.0267 949374.5 49
  242.0574 135129.9 7
  260.0685 19050654 999
//
