ACCESSION: MSBNK-Eawag-EQ500702
RECORD_TITLE: O-Des[2-aminoethyl]-O-carboxymethyl dehydroamlodipine; LC-ESI-QFT; MS2; CE: 30%; R=15000; [M+H]+
DATE: 2021.03.16
AUTHORS: K. Kiefer [dtc], J. Hollender [dtc], H. Singer [dtc], B. Lauper [com]
LICENSE: CC BY-SA
COPYRIGHT: Copyright (C) Eawag 2019
PUBLICATION: Kiefer, K., Du, L., Singer, H., Hollender, J.. Identification of LC-HRMS Nontarget Signals in Groundwater After Source Related Prioritization. Water Research 2021, 196. DOI: https://doi.org/10.1016/j.watres.2021.116994
COMMENT: CONFIDENCE standard compound
COMMENT: UCHEM_ID 5007
CH$NAME: O-Des[2-aminoethyl]-O-carboxymethyl dehydroamlodipine
CH$NAME: 2-((4-(2-Chlorophenyl)-3-ethoxycarbonyl-5-methoxycarbonyl-6-methyl-2-pyridyl)methoxy)acetic acid
CH$NAME: 2-[[4-(2-chlorophenyl)-3-ethoxycarbonyl-5-methoxycarbonyl-6-methylpyridin-2-yl]methoxy]acetic acid
CH$COMPOUND_CLASS: N/A; Environmental Standard
CH$FORMULA: C20H20ClNO7
CH$EXACT_MASS: 421.0928
CH$SMILES: CCOC(=O)C1=C(C(=C(N=C1COCC(=O)O)C)C(=O)OC)C2=CC=CC=C2Cl
CH$IUPAC: InChI=1S/C20H20ClNO7/c1-4-29-20(26)18-14(9-28-10-15(23)24)22-11(2)16(19(25)27-3)17(18)12-7-5-6-8-13(12)21/h5-8H,4,9-10H2,1-3H3,(H,23,24)
CH$LINK: CAS 113994-45-9
CH$LINK: PUBCHEM CID:14271878
CH$LINK: INCHIKEY WYLSEDHKQJBUIA-UHFFFAOYSA-N
CH$LINK: CHEMSPIDER 32698294
CH$LINK: COMPTOX DTXSID50150625
AC$INSTRUMENT: Orbitrap Exploris 240 Thermo Scientific
AC$INSTRUMENT_TYPE: LC-ESI-QFT
AC$MASS_SPECTROMETRY: MS_TYPE MS2
AC$MASS_SPECTROMETRY: ION_MODE POSITIVE
AC$MASS_SPECTROMETRY: IONIZATION ESI
AC$MASS_SPECTROMETRY: FRAGMENTATION_MODE HCD
AC$MASS_SPECTROMETRY: COLLISION_ENERGY 30 % (nominal)
AC$MASS_SPECTROMETRY: RESOLUTION 15000
AC$MASS_SPECTROMETRY: MASS_RANGE_M/Z NA-NA
AC$CHROMATOGRAPHY: COLUMN_NAME Atlantis C18 3um, 3.0x150mm, Waters
AC$CHROMATOGRAPHY: FLOW_GRADIENT 100/0 at 0 min, 100/0 at 1.5 min, 5/95 at 18.5 min, 5/95 at 28.5 min, 100/0 at 29 min, 100/0 at 33 min
AC$CHROMATOGRAPHY: FLOW_RATE 300 uL/min
AC$CHROMATOGRAPHY: RETENTION_TIME 18.434 min
MS$FOCUSED_ION: BASE_PEAK 422.0997
MS$FOCUSED_ION: PRECURSOR_M/Z 422.1001
MS$FOCUSED_ION: PRECURSOR_TYPE [M+H]+
MS$FOCUSED_ION: PRECURSOR_INTENSITY 667762176
MS$DATA_PROCESSING: RECALIBRATE loess on assigned fragments and MS1
MS$DATA_PROCESSING: REANALYZE Peaks with additional N2/O included
MS$DATA_PROCESSING: WHOLE RMassBank 2.99.4
PK$SPLASH: splash10-00kr-0098100000-d775023a9e4ffad99365
PK$ANNOTATION: m/z tentative_formula formula_count mass error(ppm)
  286.0265 C15H9ClNO3+ 2 286.0265 -0.34
  314.0587 C17H13ClNO3+ 2 314.0578 2.59
  318.0527 C16H13ClNO4+ 2 318.0528 -0.23
  346.0839 C18H17ClNO4+ 1 346.0841 -0.57
  348.0619 C20H12O6+ 2 348.0628 -2.8
  376.0566 C18H15ClNO6+ 1 376.0582 -4.26
  422.1001 C20H21ClNO7+ 1 422.1001 -0.03
PK$NUM_PEAK: 7
PK$PEAK: m/z int. rel.int.
  286.0265 190107904 999
  314.0587 4215381 22
  318.0527 122966808 646
  346.0839 18592400 97
  348.0619 4814693 25
  376.0566 33593160 176
  422.1001 37191796 195
//
