ACCESSION: MSBNK-Eawag-EQ01142402
RECORD_TITLE: 2-Butyl-1-2-benzisothiazolin-3-one; LC-ESI-QFT; MS2; CE: 30%; R=17500; [M+H]+
DATE: 2023.08.10
AUTHORS: B. Beck [dtc,com], J. Hollender [dtc]
LICENSE: CC BY-SA
COPYRIGHT: Copyright (C) Eawag 2023
COMMENT: CONFIDENCE standard compound
COMMENT: UCHEM_ID 11424
CH$NAME: 2-Butyl-1-2-benzisothiazolin-3-one
CH$NAME: 1,2-Benzisothiazol-3(2H)-one, 2-butyl-
CH$NAME: 2-butyl-1,2-benzothiazol-3-one
CH$COMPOUND_CLASS: N/A; Environmental Standard
CH$FORMULA: C11H13NOS
CH$EXACT_MASS: 207.0718
CH$SMILES: CCCCN1C(=O)C2=CC=CC=C2S1
CH$IUPAC: InChI=1S/C11H13NOS/c1-2-3-8-12-11(13)9-6-4-5-7-10(9)14-12/h4-7H,2-3,8H2,1H3
CH$LINK: CAS 04.07.4299
CH$LINK: PUBCHEM CID:9837171
CH$LINK: INCHIKEY LUYIHWDYPAZCNN-UHFFFAOYSA-N
CH$LINK: CHEMSPIDER 8012892
AC$INSTRUMENT: Exploris 240 Orbitrap Thermo Scientific
AC$INSTRUMENT_TYPE: LC-ESI-QFT
AC$MASS_SPECTROMETRY: MS_TYPE MS2
AC$MASS_SPECTROMETRY: ION_MODE POSITIVE
AC$MASS_SPECTROMETRY: IONIZATION ESI
AC$MASS_SPECTROMETRY: FRAGMENTATION_MODE HCD
AC$MASS_SPECTROMETRY: COLLISION_ENERGY 30 % (nominal)
AC$MASS_SPECTROMETRY: RESOLUTION 17500
AC$MASS_SPECTROMETRY: MASS_RANGE_M/Z 46-233
AC$CHROMATOGRAPHY: COLUMN_NAME XBridge C18 3.5um, 2.1x50mm, Waters
AC$CHROMATOGRAPHY: FLOW_GRADIENT 90/10 at 0 min, 50/50 at 4 min, 5/95 at 17 min, 5/95 at 25 min, 90/10 at 25.1 min, 90/10 at 30 min
AC$CHROMATOGRAPHY: FLOW_RATE 200 uL/min
AC$CHROMATOGRAPHY: RETENTION_TIME 7.954 min
MS$FOCUSED_ION: BASE_PEAK 208.0789
MS$FOCUSED_ION: PRECURSOR_M/Z 208.0791
MS$FOCUSED_ION: PRECURSOR_TYPE [M+H]+
MS$DATA_PROCESSING: RECALIBRATE loess on assigned fragments and MS1
MS$DATA_PROCESSING: REANALYZE Peaks with additional N2/O included
MS$DATA_PROCESSING: WHOLE RMassBank 3.11.0.1
PK$SPLASH: splash10-0pb9-0590000000-7f06a174546162f6b45f
PK$ANNOTATION: m/z tentative_formula formula_count mass error(ppm)
  57.0699 C4H9+ 1 57.0699 0.13
  152.0164 C7H6NOS+ 1 152.0165 -0.15
  208.0791 C11H14NOS+ 1 208.0791 -0.02
PK$NUM_PEAK: 3
PK$PEAK: m/z int. rel.int.
  57.0699 55208728 53
  152.0164 651695808 626
  208.0791 1039492224 999
//
