ACCESSION: MSBNK-Eawag-EA273758
RECORD_TITLE: Ranitidine-S-oxide; LC-ESI-ITFT; MS2; CE: 15%; R=15000; [M-H]-
DATE: 2014.01.14
AUTHORS: Stravs M, Schymanski E, Singer H, Department of Environmental Chemistry, Eawag
LICENSE: CC BY
COPYRIGHT: Copyright (C) 2012 Eawag, Duebendorf, Switzerland
COMMENT: CONFIDENCE standard compound
COMMENT: EAWAG_UCHEM_ID 2737
CH$NAME: Ranitidine-S-oxide
CH$NAME: 1,1-Ethenediamine, N-(2-(((5-((dimethylamino)methyl)-2-furanyl)methyl)sulfinyl)ethyl)-N'-methyl-2-nitro-
CH$COMPOUND_CLASS: N/A; Environmental Standard
CH$FORMULA: C13H22N4O4S
CH$EXACT_MASS: 330.1362
CH$SMILES: [O-][N+](=O)\C=C(/NC)NCCS(=O)Cc1oc(cc1)CN(C)C
CH$IUPAC: InChI=1S/C13H22N4O4S/c1-14-13(9-17(18)19)15-6-7-22(20)10-12-5-4-11(21-12)8-16(2)3/h4-5,9,14-15H,6-8,10H2,1-3H3/b13-9+
CH$LINK: CAS 73851-70-4
CH$LINK: PUBCHEM CID:3033889
CH$LINK: INCHIKEY SKHXRNHSZTXSLP-UKTHLTGXSA-N
CH$LINK: CHEMSPIDER 2298464
AC$INSTRUMENT: LTQ Orbitrap XL Thermo Scientific
AC$INSTRUMENT_TYPE: LC-ESI-ITFT
AC$MASS_SPECTROMETRY: MS_TYPE MS2
AC$MASS_SPECTROMETRY: ION_MODE NEGATIVE
AC$MASS_SPECTROMETRY: IONIZATION ESI
AC$MASS_SPECTROMETRY: FRAGMENTATION_MODE HCD
AC$MASS_SPECTROMETRY: COLLISION_ENERGY 15 % (nominal)
AC$MASS_SPECTROMETRY: RESOLUTION 15000
AC$CHROMATOGRAPHY: COLUMN_NAME XBridge C18 3.5um, 2.1x50mm, Waters
AC$CHROMATOGRAPHY: FLOW_GRADIENT 90/10 at 0 min, 50/50 at 4 min, 5/95 at 17 min, 5/95 at 25 min, 90/10 at 25.1 min, 90/10 at 30 min
AC$CHROMATOGRAPHY: FLOW_RATE 200 ul/min
AC$CHROMATOGRAPHY: RETENTION_TIME 0.9 min
AC$CHROMATOGRAPHY: SOLVENT A water with 0.1% formic acid
AC$CHROMATOGRAPHY: SOLVENT B methanol with 0.1% formic acid
MS$FOCUSED_ION: BASE_PEAK 248.961
MS$FOCUSED_ION: PRECURSOR_M/Z 329.1289
MS$FOCUSED_ION: PRECURSOR_TYPE [M-H]-
MS$DATA_PROCESSING: DEPROFILE Spline
MS$DATA_PROCESSING: RECALIBRATE loess on assigned fragments and MS1
MS$DATA_PROCESSING: REANALYZE Peaks with additional N2/O included
MS$DATA_PROCESSING: WHOLE RMassBank 1.3.1
PK$SPLASH: splash10-01bc-0900000000-7feec81acb5477dcc450
PK$ANNOTATION: m/z tentative_formula formula_count mass error(ppm)
  116.0466 C3H6N3O2- 1 116.0466 0.26
  144.036 C5H8N2OS- 1 144.0363 -1.96
  174.9582 C4HNO5S- 1 174.9581 0.56
PK$NUM_PEAK: 3
PK$PEAK: m/z int. rel.int.
  116.0466 3290.5 999
  144.036 2187.5 664
  174.9582 2272.5 689
//
