ACCESSION: MSBNK-Eawag-EA295605
RECORD_TITLE: Imidacloprid-urea; LC-ESI-ITFT; MS2; CE: 60%; R=7500; [M+H]+
DATE: 2014.01.14
AUTHORS: Stravs M, Schymanski E, Singer H, Department of Environmental Chemistry, Eawag
LICENSE: CC BY
COPYRIGHT: Copyright (C) 2012 Eawag, Duebendorf, Switzerland
COMMENT: CONFIDENCE standard compound
COMMENT: EAWAG_UCHEM_ID 2956
CH$NAME: Imidacloprid-urea
CH$NAME: 1-[(6-Chloropyridin-3-yl)methyl]imidazolidin-2-one
CH$COMPOUND_CLASS: N/A; Environmental Standard
CH$FORMULA: C9H10ClN3O
CH$EXACT_MASS: 211.0512
CH$SMILES: Clc2ncc(CN1CCNC1=O)cc2
CH$IUPAC: InChI=1S/C9H10ClN3O/c10-8-2-1-7(5-12-8)6-13-4-3-11-9(13)14/h1-2,5H,3-4,6H2,(H,11,14)
CH$LINK: CAS 120868-66-8
CH$LINK: INCHIKEY ADWTYURAFSWNSU-UHFFFAOYSA-N
CH$LINK: CHEMSPIDER 10248201
CH$LINK: COMPTOX DTXSID1037563
AC$INSTRUMENT: LTQ Orbitrap XL Thermo Scientific
AC$INSTRUMENT_TYPE: LC-ESI-ITFT
AC$MASS_SPECTROMETRY: MS_TYPE MS2
AC$MASS_SPECTROMETRY: ION_MODE POSITIVE
AC$MASS_SPECTROMETRY: IONIZATION ESI
AC$MASS_SPECTROMETRY: FRAGMENTATION_MODE HCD
AC$MASS_SPECTROMETRY: COLLISION_ENERGY 60 % (nominal)
AC$MASS_SPECTROMETRY: RESOLUTION 7500
AC$CHROMATOGRAPHY: COLUMN_NAME XBridge C18 3.5um, 2.1x50mm, Waters
AC$CHROMATOGRAPHY: FLOW_GRADIENT 90/10 at 0 min, 50/50 at 4 min, 5/95 at 17 min, 5/95 at 25 min, 90/10 at 25.1 min, 90/10 at 30 min
AC$CHROMATOGRAPHY: FLOW_RATE 200 ul/min
AC$CHROMATOGRAPHY: RETENTION_TIME 4.6 min
AC$CHROMATOGRAPHY: SOLVENT A water with 0.1% formic acid
AC$CHROMATOGRAPHY: SOLVENT B methanol with 0.1% formic acid
MS$FOCUSED_ION: BASE_PEAK 212.0588
MS$FOCUSED_ION: PRECURSOR_M/Z 212.0585
MS$FOCUSED_ION: PRECURSOR_TYPE [M+H]+
MS$DATA_PROCESSING: DEPROFILE Spline
MS$DATA_PROCESSING: RECALIBRATE loess on assigned fragments and MS1
MS$DATA_PROCESSING: REANALYZE Peaks with additional N2/O included
MS$DATA_PROCESSING: WHOLE RMassBank 1.3.1
PK$SPLASH: splash10-004i-1900000000-451b23b7698cd062dc80
PK$ANNOTATION: m/z tentative_formula formula_count mass error(ppm)
  56.0495 C3H6N+ 1 56.0495 0.26
  65.0388 C5H5+ 1 65.0386 3.59
  70.0287 C3H4NO+ 1 70.0287 0
  71.0604 C3H7N2+ 1 71.0604 0.22
  85.0396 C3H5N2O+ 1 85.0396 0.13
  90.0338 C6H4N+ 1 90.0338 -0.17
  92.0496 C6H6N+ 1 92.0495 1.13
  93.0574 C6H7N+ 1 93.0573 0.64
  99.0553 C4H7N2O+ 2 99.0553 0.21
  106.0651 C7H8N+ 1 106.0651 -0.15
  107.0604 C6H7N2+ 1 107.0604 0.52
  110.0602 C6H8NO+ 2 110.06 1.27
  114.0105 C5H5ClN+ 2 114.0105 0.15
  118.053 C7H6N2+ 1 118.0525 3.48
  120.0681 C7H8N2+ 1 120.0682 -1.16
  121.0756 C7H9N2+ 1 121.076 -3.18
  123.0554 C6H7N2O+ 2 123.0553 0.49
  126.0105 C6H5ClN+ 2 126.0105 0.13
  127.0184 C6H6ClN+ 2 127.0183 0.8
  128.0262 C6H7ClN+ 2 128.0262 0.21
  133.076 C8H9N2+ 1 133.076 -0.04
  135.0553 C4H10ClN3+ 2 135.0558 -3.75
  141.0217 C6H6ClN2+ 1 141.0214 2.11
  142.0056 C6H5ClNO+ 1 142.0054 1.14
  142.029 C6H7ClN2+ 2 142.0292 -1.53
  144.0212 C6H7ClNO+ 1 144.0211 1.13
  148.0872 C8H10N3+ 1 148.0869 1.93
  154.0056 C7H5ClNO+ 1 154.0054 0.92
  156.0447 C7H9ClN2+ 1 156.0449 -1.07
  167.0372 C8H8ClN2+ 1 167.0371 0.82
  168.0213 C8H7ClNO+ 1 168.0211 1.32
  169.0164 C7H6ClN2O+ 1 169.0163 0.43
  169.0528 C8H10ClN2+ 1 169.0527 0.81
  176.0819 C9H10N3O+ 1 176.0818 0.46
  177.0893 C9H11N3O+ 1 177.0897 -2.05
  194.048 C9H9ClN3+ 1 194.048 0.35
  195.0321 C9H8ClN2O+ 1 195.032 0.73
  212.0587 C9H11ClN3O+ 1 212.0585 0.82
  214.0626 C8H11ClN4O+ 1 214.0616 4.67
PK$NUM_PEAK: 39
PK$PEAK: m/z int. rel.int.
  56.0495 363250.6 7
  65.0388 100635.4 2
  70.0287 218021.2 4
  71.0604 222503.2 4
  85.0396 337732.8 7
  90.0338 157084.9 3
  92.0496 656840.8 14
  93.0574 516311.6 11
  99.0553 10177090 219
  106.0651 167377.7 3
  107.0604 400659.7 8
  110.0602 278306.7 5
  114.0105 1895202 40
  118.053 50453.9 1
  120.0681 81369.6 1
  121.0756 74693.9 1
  123.0554 179793.6 3
  126.0105 17639675.4 379
  127.0184 860337.8 18
  128.0262 46418590.2 999
  133.076 949546.1 20
  135.0553 51469.5 1
  141.0217 81262.8 1
  142.0056 357483.6 7
  142.029 141127.6 3
  144.0212 226426.6 4
  148.0872 68399.3 1
  154.0056 83947.3 1
  156.0447 68168.8 1
  167.0372 101435.3 2
  168.0213 79696.3 1
  169.0164 297576.7 6
  169.0528 712559.4 15
  176.0819 2022235.3 43
  177.0893 75485.9 1
  194.048 595138.8 12
  195.0321 1218896.5 26
  212.0587 8019031.9 172
  214.0626 77069.4 1
//
