ACCESSION: MSBNK-Eawag-EQ310705
RECORD_TITLE: Penconazole; LC-ESI-QFT; MS2; CE: 75; R=35000; [M+H]+
DATE: 2015.08.25
AUTHORS: Beck B, Stravs M, Schymanski E, Singer H, Department of Environmental Chemistry, Eawag
LICENSE: CC BY
COPYRIGHT: Copyright (C) 2015 Eawag, Duebendorf, Switzerland
COMMENT: CONFIDENCE standard compound
COMMENT: EAWAG_UCHEM_ID 3107
CH$NAME: Penconazole
CH$NAME: 1-[2-(2,4-dichlorophenyl)pentyl]-1,2,4-triazole
CH$COMPOUND_CLASS: N/A; Environmental Standard
CH$FORMULA: C13H15Cl2N3
CH$EXACT_MASS: 283.06430
CH$SMILES: Clc1ccc(c(Cl)c1)C(CCC)Cn2ncnc2
CH$IUPAC: InChI=1S/C13H15Cl2N3/c1-2-3-10(7-18-9-16-8-17-18)12-5-4-11(14)6-13(12)15/h4-6,8-10H,2-3,7H2,1H3
CH$LINK: CAS 66246-88-6
CH$LINK: CHEBI CHEBI:81970
CH$LINK: KEGG C18801
CH$LINK: PUBCHEM CID:91693
CH$LINK: INCHIKEY WKBPZYKAUNRMKP-UHFFFAOYSA-N
CH$LINK: CHEMSPIDER 82796
CH$LINK: COMPTOX DTXSID8042260
AC$INSTRUMENT: Q Exactive Plus Orbitrap Thermo Scientific
AC$INSTRUMENT_TYPE: LC-ESI-QFT
AC$MASS_SPECTROMETRY: MS_TYPE MS2
AC$MASS_SPECTROMETRY: ION_MODE POSITIVE
AC$MASS_SPECTROMETRY: IONIZATION ESI
AC$MASS_SPECTROMETRY: FRAGMENTATION_MODE HCD
AC$MASS_SPECTROMETRY: COLLISION_ENERGY 75 (nominal)
AC$MASS_SPECTROMETRY: RESOLUTION 35000
AC$CHROMATOGRAPHY: COLUMN_NAME XBridge C18 3.5um, 2.1x50mm, Waters
AC$CHROMATOGRAPHY: FLOW_GRADIENT 90/10 at 0 min, 50/50 at 4 min, 5/95 at 17 min, 5/95 at 25 min, 90/10 at 25.1 min, 90/10 at 30 min
AC$CHROMATOGRAPHY: FLOW_RATE 200 ul/min
AC$CHROMATOGRAPHY: RETENTION_TIME 12.7 min
AC$CHROMATOGRAPHY: SOLVENT A water with 0.1% formic acid
AC$CHROMATOGRAPHY: SOLVENT B methanol with 0.1% formic acid
MS$FOCUSED_ION: BASE_PEAK 284.0713
MS$FOCUSED_ION: PRECURSOR_M/Z 284.0716
MS$FOCUSED_ION: PRECURSOR_TYPE [M+H]+
MS$DATA_PROCESSING: RECALIBRATE loess on assigned fragments and MS1
MS$DATA_PROCESSING: REANALYZE Peaks with additional N2/O included
MS$DATA_PROCESSING: WHOLE RMassBank 1.9.6
PK$SPLASH: splash10-0ab9-7900000000-f6bc80a3e3c99efced39
PK$ANNOTATION: m/z tentative_formula formula_count mass error(ppm)
  69.0698 C5H9+ 1 69.0699 -0.82
  70.0399 C2H4N3+ 1 70.04 -0.91
  72.9837 C3H2Cl+ 1 72.984 -2.93
  89.0384 C7H5+ 1 89.0386 -1.87
  91.0542 C7H7+ 1 91.0542 -0.4
  98.9995 C5H4Cl+ 1 98.9996 -0.75
  101.0386 C8H5+ 1 101.0386 0.03
  102.0464 C8H6+ 1 102.0464 -0.41
  119.0491 C5H10ClN+ 1 119.0496 -4.19
  122.9995 C7H4Cl+ 1 122.9996 -0.6
  124.0074 C7H5Cl+ 1 124.0074 -0.32
  129.0446 C8H5N2+ 1 129.0447 -0.81
  132.9605 C5H3Cl2+ 1 132.9606 -1.14
  137.0152 C8H6Cl+ 1 137.0153 -0.18
  138.0231 C8H7Cl+ 1 138.0231 -0.21
  158.9762 C7H5Cl2+ 1 158.9763 -0.64
  172.9919 C8H7Cl2+ 1 172.9919 -0.24
PK$NUM_PEAK: 17
PK$PEAK: m/z int. rel.int.
  69.0698 649334.1 1
  70.0399 605472512 949
  72.9837 1281450.8 2
  89.0384 3600605 5
  91.0542 799036.8 1
  98.9995 5572092.5 8
  101.0386 698867.4 1
  102.0464 20694456 32
  119.0491 1112375.1 1
  122.9995 43154300 67
  124.0074 11414335 17
  129.0446 5165831 8
  132.9605 4185601.8 6
  137.0152 35961948 56
  138.0231 3942191.8 6
  158.9762 637308224 999
  172.9919 17149860 26
//
