ACCESSION: MSBNK-Eawag-EQ325052
RECORD_TITLE: MCRR; LC-ESI-QFT; MS2; CE: 30%; R=17500; [M-H]-
DATE: 2020.02.03
AUTHORS: E. Janssen [dtc], B. Lauper [com]
LICENSE: CC BY-SA
COPYRIGHT: Copyright (C) Eawag 2019
COMMENT: CONFIDENCE standard compound
COMMENT: UCHEM_ID 3250
COMMENT: NaToxAq - Natural Toxins and Drinking Water Quality - From Source to Tap (https://natoxaq.ku.dk)
CH$NAME: MCRR
CH$NAME: Microcystin RR
CH$NAME: (5R,8S,11R,12S,15S,18S,19S,22R)-8,15-bis[3-(diaminomethylideneamino)propyl]-18-[(1E,3E,5S,6S)-6-methoxy-3,5-dimethyl-7-phenylhepta-1,3-dienyl]-1,5,12,19-tetramethyl-2-methylidene-3,6,9,13,16,20,25-heptaoxo-1,4,7,10,14,17,21-heptazacyclopentacosane-11,22-dicarboxylic acid
CH$COMPOUND_CLASS: Environmental Standard
CH$FORMULA: C49H75N13O12
CH$EXACT_MASS: 1037.5658
CH$SMILES: CO[C@@H](Cc1ccccc1)[C@@H](C)\C=C(C)\C=C\[C@@H]2NC(=O)[C@H](CCCNC(N)=N)NC(=O)[C@@H](C)[C@@H](NC(=O)[C@H](CCCNC(N)=N)NC(=O)[C@@H](C)NC(=O)C(=C)N(C)C(=O)CC[C@@H](NC(=O)[C@H]2C)C(O)=O)C(O)=O
CH$IUPAC: InChI=1S/C49H75N13O12/c1-26(24-27(2)37(74-8)25-32-14-10-9-11-15-32)18-19-33-28(3)40(64)60-36(46(70)71)20-21-38(63)62(7)31(6)43(67)56-30(5)42(66)59-35(17-13-23-55-49(52)53)45(69)61-39(47(72)73)29(4)41(65)58-34(44(68)57-33)16-12-22-54-48(50)51/h9-11,14-15,18-19,24,27-30,33-37,39H,6,12-13,16-17,20-23,25H2,1-5,7-8H3,(H,56,67)(H,57,68)(H,58,65)(H,59,66)(H,60,64)(H,61,69)(H,70,71)(H,72,73)(H4,50,51,54)(H4,52,53,55)/b19-18+,26-24+/t27-,28-,29-,30+,33-,34-,35-,36+,37-,39+/m0/s1
CH$LINK: CAS 111755-37-4
CH$LINK: CHEBI CHEBI:133296
CH$LINK: KEGG C19995
CH$LINK: PUBCHEM CID:6438357
CH$LINK: INCHIKEY JIGDOBKZMULDHS-UUHBQKJESA-N
CH$LINK: CHEMSPIDER 21258164
AC$INSTRUMENT: Q Exactive Plus Orbitrap Thermo Scientific
AC$INSTRUMENT_TYPE: LC-ESI-QFT
AC$MASS_SPECTROMETRY: MS_TYPE MS2
AC$MASS_SPECTROMETRY: ION_MODE NEGATIVE
AC$MASS_SPECTROMETRY: IONIZATION ESI
AC$MASS_SPECTROMETRY: FRAGMENTATION_MODE HCD
AC$MASS_SPECTROMETRY: COLLISION_ENERGY 30 % (nominal)
AC$MASS_SPECTROMETRY: RESOLUTION 17500
AC$CHROMATOGRAPHY: COLUMN_NAME XBridge C18 3.5um, 2.1x50mm, Waters
AC$CHROMATOGRAPHY: FLOW_GRADIENT 90/10 at 0 min, 50/50 at 4 min, 5/95 at 17 min, 5/95 at 25 min, 90/10 at 25.1 min, 90/10 at 30 min
AC$CHROMATOGRAPHY: FLOW_RATE 200 uL/min
AC$CHROMATOGRAPHY: RETENTION_TIME 7.172 min
AC$CHROMATOGRAPHY: SOLVENT A water with 0.1% formic acid
AC$CHROMATOGRAPHY: SOLVENT B MeOH with 0.1% formic acid
MS$FOCUSED_ION: BASE_PEAK 116.9286
MS$FOCUSED_ION: PRECURSOR_M/Z 1036.5585
MS$FOCUSED_ION: PRECURSOR_TYPE [M-H]-
MS$DATA_PROCESSING: RECALIBRATE loess on assigned fragments and MS1
MS$DATA_PROCESSING: REANALYZE Peaks with additional N2/O included
MS$DATA_PROCESSING: WHOLE RMassBank 2.99.1
PK$SPLASH: splash10-016r-9302000000-8108e6895410b24664ee
PK$ANNOTATION: m/z tentative_formula formula_count mass error(ppm)
  128.0353 C5H6NO3- 1 128.0353 0.04
  243.1564 C8H23N2O6- 3 243.1562 1.12
  284.1714 C10H20N8O2- 4 284.1715 -0.36
  326.1937 C12H28N3O7- 4 326.1933 1.21
  354.19 H26N12O10- 6 354.19 -0.06
  580.3142 C31H42N5O6- 12 580.3141 0.17
  774.3831 C40H52N7O9- 9 774.3832 -0.07
  1018.5483 C49H72N13O11- 1 1018.548 0.35
  1036.5531 C49H74N13O12- NA 1036.5585 -5.21
PK$NUM_PEAK: 9
PK$PEAK: m/z int. rel.int.
  128.0353 121425.9 455
  243.1564 10299.7 38
  284.1714 13758.7 51
  326.1937 54409.8 203
  354.19 17071.3 63
  580.3142 30532.1 114
  774.3831 25993 97
  1018.5483 266488.9 999
  1036.5531 28555 107
//
