ACCESSION: MSBNK-Eawag-EQ00026651
RECORD_TITLE: Bromacil; LC-ESI-QFT; MS2; CE: 15%; R=15000; [M-H]-
DATE: 2024.06.14
AUTHORS: F. Jud [dtc], K. Arturi [dtc], J. Hollender [dtc], A. Dax [com]
LICENSE: CC BY-SA
COPYRIGHT: Copyright (C) Eawag 2024
COMMENT: CONFIDENCE standard compound
COMMENT: UCHEM_ID 266
CH$NAME: Bromacil
CH$NAME: 5-bromo-3-butan-2-yl-6-methyl-1H-pyrimidine-2,4-dione
CH$COMPOUND_CLASS: N/A
CH$FORMULA: C9H13BrN2O2
CH$EXACT_MASS: 260.0160398
CH$SMILES: CCC(C)N1C(=O)NC(C)=C(Br)C1=O
CH$IUPAC: InChI=1S/C9H13BrN2O2/c1-4-5(2)12-8(13)7(10)6(3)11-9(12)14/h5H,4H2,1-3H3,(H,11,14)
CH$LINK: CAS 314-40-9
CH$LINK: CHEBI CHEBI:83658
CH$LINK: KEGG C10911
CH$LINK: PUBCHEM CID:9411
CH$LINK: INCHIKEY CTSLUCNDVMMDHG-UHFFFAOYSA-N
CH$LINK: CHEMSPIDER 9040
AC$INSTRUMENT: Q Exactive Plus
AC$INSTRUMENT_TYPE: LC-ESI-QFT
AC$MASS_SPECTROMETRY: MS_TYPE MS2
AC$MASS_SPECTROMETRY: ION_MODE NEGATIVE
AC$MASS_SPECTROMETRY: IONIZATION ESI
AC$MASS_SPECTROMETRY: FRAGMENTATION_MODE HCD
AC$MASS_SPECTROMETRY: COLLISION_ENERGY 15 % (nominal)
AC$MASS_SPECTROMETRY: RESOLUTION 15000
AC$MASS_SPECTROMETRY: MASS_RANGE_M/Z 50-280
AC$CHROMATOGRAPHY: COLUMN_NAME XBridge C18 3.5um, 2.1x50mm, Waters
AC$CHROMATOGRAPHY: FLOW_GRADIENT 90/10 at 0 min, 50/50 at 4 min, 5/95 at 17 min, 5/95 at 25 min, 90/10 at 25.1 min, 90/10 at 30 min
AC$CHROMATOGRAPHY: FLOW_RATE 200 uL/min
AC$CHROMATOGRAPHY: RETENTION_TIME 6.156 min
MS$FOCUSED_ION: BASE_PEAK 259.0087
MS$FOCUSED_ION: PRECURSOR_M/Z 259.0088
MS$FOCUSED_ION: PRECURSOR_TYPE [M-H]-
MS$FOCUSED_ION: PRECURSOR_INTENSITY 151855393.77
MS$DATA_PROCESSING: RECALIBRATE loess on assigned fragments and MS1
MS$DATA_PROCESSING: REANALYZE Peaks with additional N2/O included
MS$DATA_PROCESSING: WHOLE RMassBank 3.15.1.1
PK$SPLASH: splash10-0a4i-0090000000-32ddeb86906a06219ec7
PK$ANNOTATION: m/z tentative_formula formula_count mass error(ppm)
  202.9462 C5H4BrN2O2- 1 202.9462 0.11
  259.0087 C9H12BrN2O2- 1 259.0088 -0.39
PK$NUM_PEAK: 2
PK$PEAK: m/z int. rel.int.
  202.9462 3868205.8 47
  259.0087 81346304 999
//
