ACCESSION: MSBNK-Eawag-EQ00320801
RECORD_TITLE: Pyridate; LC-ESI-QFT; MS2; CE: 15%; R=15000; [M+H]+
DATE: 2024.06.14
AUTHORS: F. Jud [dtc], K. Arturi [dtc], J. Hollender [dtc], A. Dax [com]
LICENSE: CC BY-SA
COPYRIGHT: Copyright (C) Eawag 2024
COMMENT: CONFIDENCE standard compound
COMMENT: UCHEM_ID 3208
CH$NAME: Pyridate
CH$NAME: (6-chloro-3-phenylpyridazin-4-yl) octylsulfanylformate
CH$COMPOUND_CLASS: N/A
CH$FORMULA: C19H23ClN2O2S
CH$EXACT_MASS: 378.1168767
CH$SMILES: CCCCCCCCSC(=O)OC1=CC(Cl)=NN=C1C1=CC=CC=C1
CH$IUPAC: InChI=1S/C19H23ClN2O2S/c1-2-3-4-5-6-10-13-25-19(23)24-16-14-17(20)21-22-18(16)15-11-8-7-9-12-15/h7-9,11-12,14H,2-6,10,13H2,1H3
CH$LINK: CAS 55512-33-9
CH$LINK: CHEBI CHEBI:81971
CH$LINK: KEGG C18803
CH$LINK: PUBCHEM CID:41463
CH$LINK: INCHIKEY JTZCTMAVMHRNTR-UHFFFAOYSA-N
CH$LINK: CHEMSPIDER 37831
AC$INSTRUMENT: Q Exactive Plus
AC$INSTRUMENT_TYPE: LC-ESI-QFT
AC$MASS_SPECTROMETRY: MS_TYPE MS2
AC$MASS_SPECTROMETRY: ION_MODE POSITIVE
AC$MASS_SPECTROMETRY: IONIZATION ESI
AC$MASS_SPECTROMETRY: FRAGMENTATION_MODE HCD
AC$MASS_SPECTROMETRY: COLLISION_ENERGY 15 % (nominal)
AC$MASS_SPECTROMETRY: RESOLUTION 15000
AC$MASS_SPECTROMETRY: MASS_RANGE_M/Z 50-405
AC$CHROMATOGRAPHY: COLUMN_NAME XBridge C18 3.5um, 2.1x50mm, Waters
AC$CHROMATOGRAPHY: FLOW_GRADIENT 90/10 at 0 min, 50/50 at 4 min, 5/95 at 17 min, 5/95 at 25 min, 90/10 at 25.1 min, 90/10 at 30 min
AC$CHROMATOGRAPHY: FLOW_RATE 200 uL/min
AC$CHROMATOGRAPHY: RETENTION_TIME 16.445 min
MS$FOCUSED_ION: BASE_PEAK 379.1244
MS$FOCUSED_ION: PRECURSOR_M/Z 379.1242
MS$FOCUSED_ION: PRECURSOR_TYPE [M+H]+
MS$FOCUSED_ION: PRECURSOR_INTENSITY 282888817.6
MS$DATA_PROCESSING: RECALIBRATE loess on assigned fragments and MS1
MS$DATA_PROCESSING: REANALYZE Peaks with additional N2/O included
MS$DATA_PROCESSING: WHOLE RMassBank 3.15.1.1
PK$SPLASH: splash10-0a4i-0090000000-29f5a2d3a92a595e9948
PK$ANNOTATION: m/z tentative_formula formula_count mass error(ppm)
  57.0699 C4H9+ 1 57.0699 0.24
  71.0855 C5H11+ 1 71.0855 -0.3
  207.0319 C10H8ClN2O+ 2 207.032 -0.33
PK$NUM_PEAK: 3
PK$PEAK: m/z int. rel.int.
  57.0699 1516717.4 21
  71.0855 2627293 37
  207.0319 69697296 999
//
