ACCESSION: MSBNK-Eawag-EA026204
RECORD_TITLE: Simazine; LC-ESI-ITFT; MS2; CE: 45%; R=7500; [M+H]+
DATE: 2014.01.14
AUTHORS: Stravs M, Schymanski E, Singer H, Department of Environmental Chemistry, Eawag
LICENSE: CC BY
COPYRIGHT: Copyright (C) 2012 Eawag, Duebendorf, Switzerland
COMMENT: CONFIDENCE standard compound
COMMENT: EAWAG_UCHEM_ID 262
CH$NAME: Simazine
CH$NAME: 6-chloranyl-N2,N4-diethyl-1,3,5-triazine-2,4-diamine
CH$COMPOUND_CLASS: N/A; Environmental Standard
CH$FORMULA: C7H12ClN5
CH$EXACT_MASS: 201.0776
CH$SMILES: c1(nc(nc(n1)Cl)NCC)NCC
CH$IUPAC: InChI=1S/C7H12ClN5/c1-3-9-6-11-5(8)12-7(13-6)10-4-2/h3-4H2,1-2H3,(H2,9,10,11,12,13)
CH$LINK: CAS 122-34-9
CH$LINK: CHEBI CHEBI:27496
CH$LINK: KEGG C11172
CH$LINK: PUBCHEM CID:5216
CH$LINK: INCHIKEY ODCWYMIRDDJXKW-UHFFFAOYSA-N
CH$LINK: CHEMSPIDER 5027
CH$LINK: COMPTOX DTXSID4021268
AC$INSTRUMENT: LTQ Orbitrap XL Thermo Scientific
AC$INSTRUMENT_TYPE: LC-ESI-ITFT
AC$MASS_SPECTROMETRY: MS_TYPE MS2
AC$MASS_SPECTROMETRY: ION_MODE POSITIVE
AC$MASS_SPECTROMETRY: IONIZATION ESI
AC$MASS_SPECTROMETRY: FRAGMENTATION_MODE HCD
AC$MASS_SPECTROMETRY: COLLISION_ENERGY 45 % (nominal)
AC$MASS_SPECTROMETRY: RESOLUTION 7500
AC$CHROMATOGRAPHY: COLUMN_NAME XBridge C18 3.5um, 2.1x50mm, Waters
AC$CHROMATOGRAPHY: FLOW_GRADIENT 90/10 at 0 min, 50/50 at 4 min, 5/95 at 17 min, 5/95 at 25 min, 90/10 at 25.1 min, 90/10 at 30 min
AC$CHROMATOGRAPHY: FLOW_RATE 200 ul/min
AC$CHROMATOGRAPHY: RETENTION_TIME 6.9 min
AC$CHROMATOGRAPHY: SOLVENT A water with 0.1% formic acid
AC$CHROMATOGRAPHY: SOLVENT B methanol with 0.1% formic acid
MS$FOCUSED_ION: BASE_PEAK 202.0857
MS$FOCUSED_ION: PRECURSOR_M/Z 202.0854
MS$FOCUSED_ION: PRECURSOR_TYPE [M+H]+
MS$DATA_PROCESSING: DEPROFILE Spline
MS$DATA_PROCESSING: RECALIBRATE loess on assigned fragments and MS1
MS$DATA_PROCESSING: REANALYZE Peaks with additional N2/O included
MS$DATA_PROCESSING: WHOLE RMassBank 1.3.1
PK$SPLASH: splash10-0udi-1590000000-0ca9fbe8fb4d1099eccd
PK$ANNOTATION: m/z tentative_formula formula_count mass error(ppm)
  68.0243 C2H2N3+ 1 68.0243 -0.49
  71.0604 C3H7N2+ 1 71.0604 -0.21
  79.0056 CH4ClN2+ 1 79.0058 -1.55
  90.0106 C3H5ClN+ 1 90.0105 1.3
  96.0556 C4H6N3+ 1 96.0556 -0.04
  104.001 C2H3ClN3+ 1 104.001 -0.01
  124.087 C6H10N3+ 1 124.0869 0.37
  132.0324 C4H7ClN3+ 1 132.0323 0.6
  138.0775 C5H8N5+ 1 138.0774 0.86
  146.0233 C3H5ClN5+ 1 146.0228 3.36
  166.1088 C7H12N5+ 1 166.1087 0.77
  174.0542 C5H9ClN5+ 1 174.0541 0.52
  202.0856 C7H13ClN5+ 1 202.0854 1.04
PK$NUM_PEAK: 13
PK$PEAK: m/z int. rel.int.
  68.0243 234153.8 25
  71.0604 146378.5 15
  79.0056 29039.5 3
  90.0106 31610.5 3
  96.0556 595389.5 64
  104.001 510596.7 55
  124.087 1741472.5 188
  132.0324 2031353.9 219
  138.0775 50122 5
  146.0233 18551.7 2
  166.1088 428189.4 46
  174.0542 692011 74
  202.0856 9249254 999
//
