ACCESSION: MSBNK-Eawag-EA066301
RECORD_TITLE: Flufenacet ESA; LC-ESI-ITFT; MS2; CE: 35%; R=7500; [M+H]+
DATE: 2014.01.14
AUTHORS: Stravs M, Schymanski E, Singer H, Department of Environmental Chemistry, Eawag
LICENSE: CC BY
COPYRIGHT: Copyright (C) 2012 Eawag, Duebendorf, Switzerland
COMMENT: CONFIDENCE standard compound
COMMENT: EAWAG_UCHEM_ID 663
CH$NAME: Flufenacet ESA
CH$NAME: 2-[(4-Fluorophenyl)(isopropyl)amino]-2-oxoethanesulfonic acid
CH$COMPOUND_CLASS: N/A; Environmental Standard
CH$FORMULA: C11H14FNO4S
CH$EXACT_MASS: 275.0628
CH$SMILES: Fc1ccc(cc1)N(C(C)C)C(=O)CS(O)(=O)=O
CH$IUPAC: InChI=1S/C11H14FNO4S/c1-8(2)13(11(14)7-18(15,16)17)10-5-3-9(12)4-6-10/h3-6,8H,7H2,1-2H3,(H,15,16,17)
CH$LINK: PUBCHEM CID:16212225
CH$LINK: INCHIKEY SZCMHDLOUVZYST-UHFFFAOYSA-N
CH$LINK: CHEMSPIDER 17340103
CH$LINK: COMPTOX DTXSID60891451
AC$INSTRUMENT: LTQ Orbitrap XL Thermo Scientific
AC$INSTRUMENT_TYPE: LC-ESI-ITFT
AC$MASS_SPECTROMETRY: MS_TYPE MS2
AC$MASS_SPECTROMETRY: ION_MODE POSITIVE
AC$MASS_SPECTROMETRY: IONIZATION ESI
AC$MASS_SPECTROMETRY: FRAGMENTATION_MODE CID
AC$MASS_SPECTROMETRY: COLLISION_ENERGY 35 % (nominal)
AC$MASS_SPECTROMETRY: RESOLUTION 7500
AC$CHROMATOGRAPHY: COLUMN_NAME XBridge C18 3.5um, 2.1x50mm, Waters
AC$CHROMATOGRAPHY: FLOW_GRADIENT 90/10 at 0 min, 50/50 at 4 min, 5/95 at 17 min, 5/95 at 25 min, 90/10 at 25.1 min, 90/10 at 30 min
AC$CHROMATOGRAPHY: FLOW_RATE 200 ul/min
AC$CHROMATOGRAPHY: RETENTION_TIME 6.0 min
AC$CHROMATOGRAPHY: SOLVENT A water with 0.1% formic acid
AC$CHROMATOGRAPHY: SOLVENT B methanol with 0.1% formic acid
MS$FOCUSED_ION: BASE_PEAK 276.0707
MS$FOCUSED_ION: PRECURSOR_M/Z 276.07
MS$FOCUSED_ION: PRECURSOR_TYPE [M+H]+
MS$DATA_PROCESSING: DEPROFILE Spline
MS$DATA_PROCESSING: RECALIBRATE loess on assigned fragments and MS1
MS$DATA_PROCESSING: REANALYZE Peaks with additional N2/O included
MS$DATA_PROCESSING: WHOLE RMassBank 1.3.1
PK$SPLASH: splash10-001i-0090000000-39fe273712e9cf675323
PK$ANNOTATION: m/z tentative_formula formula_count mass error(ppm)
  112.0556 C6H7FN+ 2 112.0557 -0.75
  216.0122 C8H7FNO3S+ 2 216.0125 -1.61
  234.0233 C8H9FNO4S+ 1 234.0231 1.14
PK$NUM_PEAK: 3
PK$PEAK: m/z int. rel.int.
  112.0556 9252.8 6
  216.0122 9833 6
  234.0233 1486968.8 999
//
