ACCESSION: MSBNK-Eawag-EQ01131402
RECORD_TITLE: Thiodicarb; LC-ESI-QFT; MS2; CE: 30%; R=17500; [M+H]+
DATE: 2023.04.27
AUTHORS: B. Beck [dtc,com], J. Hollender [dtc]
LICENSE: CC BY-SA
COPYRIGHT: Copyright (C) Eawag 2023
COMMENT: CONFIDENCE standard compound
COMMENT: UCHEM_ID 11314
CH$NAME: Thiodicarb
CH$NAME: Larvin
CH$NAME: methyl N-[methyl-[methyl-(1-methylsulfanylethylideneamino)oxycarbonylamino]sulfanylcarbamoyl]oxyethanimidothioate
CH$COMPOUND_CLASS: N/A; Environmental Standard
CH$FORMULA: C10H18N4O4S3
CH$EXACT_MASS: 354.0490
CH$SMILES: CC(=NOC(=O)N(C)SN(C)C(=O)ON=C(C)SC)SC
CH$IUPAC: InChI=1S/C10H18N4O4S3/c1-7(19-5)11-17-9(15)13(3)21-14(4)10(16)18-12-8(2)20-6/h1-6H3
CH$LINK: CAS 59669-26-0
CH$LINK: PUBCHEM CID:62155
CH$LINK: INCHIKEY XDOTVMNBCQVZKG-UHFFFAOYSA-N
CH$LINK: CHEMSPIDER 55985
AC$INSTRUMENT: Exploris 240 Orbitrap Thermo Scientific
AC$INSTRUMENT_TYPE: LC-ESI-QFT
AC$MASS_SPECTROMETRY: MS_TYPE MS2
AC$MASS_SPECTROMETRY: ION_MODE POSITIVE
AC$MASS_SPECTROMETRY: IONIZATION ESI
AC$MASS_SPECTROMETRY: FRAGMENTATION_MODE HCD
AC$MASS_SPECTROMETRY: COLLISION_ENERGY 30 % (nominal)
AC$MASS_SPECTROMETRY: RESOLUTION 17500
AC$MASS_SPECTROMETRY: MASS_RANGE_M/Z 50-383
AC$CHROMATOGRAPHY: COLUMN_NAME XBridge C18 3.5um, 2.1x50mm, Waters
AC$CHROMATOGRAPHY: FLOW_GRADIENT 90/10 at 0 min, 50/50 at 4 min, 5/95 at 17 min, 5/95 at 25 min, 90/10 at 25.1 min, 90/10 at 30 min
AC$CHROMATOGRAPHY: FLOW_RATE 200 uL/min
AC$CHROMATOGRAPHY: RETENTION_TIME 6.183 min
MS$FOCUSED_ION: BASE_PEAK 355.0563
MS$FOCUSED_ION: PRECURSOR_M/Z 355.0563
MS$FOCUSED_ION: PRECURSOR_TYPE [M+H]+
MS$DATA_PROCESSING: RECALIBRATE loess on assigned fragments and MS1
MS$DATA_PROCESSING: REANALYZE Peaks with additional N2/O included
MS$DATA_PROCESSING: WHOLE RMassBank 3.11.0.1
PK$SPLASH: splash10-000i-9300000000-6d0ffa59345e9dc0797b
PK$ANNOTATION: m/z tentative_formula formula_count mass error(ppm)
  56.0494 C3H6N+ 1 56.0495 -0.82
  59.9901 CH2NS+ 1 59.9902 -1.87
  61.0107 C2H5S+ 1 61.0106 0.14
  62.0058 CH4NS+ 1 62.0059 -1.03
  65.0055 CH5OS+ 1 65.0056 -1.07
  72.9983 C2H3NS+ 1 72.9981 2.94
  74.0061 C2H4NS+ 1 74.0059 2.23
  78.967 CH3S2+ 1 78.9671 -0.24
  80.9827 CH5S2+ 1 80.9827 -0.33
  88.0215 C3H6NS+ 1 88.0215 -0.95
  106.0318 C3H8NOS+ 1 106.0321 -3.09
  107.9935 C2H6NS2+ 1 107.9936 -0.93
  122.0269 C3H8NO2S+ 1 122.027 -0.75
  149.0201 C4H9N2S2+ 1 149.0202 -0.35
  163.0536 C5H11N2O2S+ 1 163.0536 -0.03
  190.9575 C4H3N2O3S2+ 1 190.958 -2.36
PK$NUM_PEAK: 16
PK$PEAK: m/z int. rel.int.
  56.0494 153770.4 9
  59.9901 75390.4 4
  61.0107 86161.7 5
  62.0058 354901.3 21
  65.0055 108593.2 6
  72.9983 128627.6 7
  74.0061 61225.6 3
  78.967 919733.3 56
  80.9827 83019.7 5
  88.0215 16345840 999
  106.0318 217440.8 13
  107.9935 5846842 357
  122.0269 85707.5 5
  149.0201 439882 26
  163.0536 95033.8 5
  190.9575 331353.4 20
//
