ACCESSION: MSBNK-Eawag-EQ01136004
RECORD_TITLE: Ethion; LC-ESI-QFT; MS2; CE: 60%; R=17500; [M+H]+
DATE: 2023.04.27
AUTHORS: B. Beck [dtc,com], J. Hollender [dtc]
LICENSE: CC BY-SA
COPYRIGHT: Copyright (C) Eawag 2023
COMMENT: CONFIDENCE standard compound
COMMENT: UCHEM_ID 11360
CH$NAME: Ethion
CH$NAME: diethoxyphosphinothioylsulfanylmethylsulfanyl-diethoxy-sulfanylidene-lambda5-phosphane
CH$COMPOUND_CLASS: N/A; Environmental Standard
CH$FORMULA: C9H22O4P2S4
CH$EXACT_MASS: 383.9876
CH$SMILES: CCOP(=S)(OCC)SCSP(=S)(OCC)OCC
CH$IUPAC: InChI=1S/C9H22O4P2S4/c1-5-10-14(16,11-6-2)18-9-19-15(17,12-7-3)13-8-4/h5-9H2,1-4H3
CH$LINK: CAS 563-12-2
CH$LINK: CHEBI CHEBI:38663
CH$LINK: KEGG C18725
CH$LINK: PUBCHEM CID:3286
CH$LINK: INCHIKEY RIZMRRKBZQXFOY-UHFFFAOYSA-N
CH$LINK: CHEMSPIDER 3171
AC$INSTRUMENT: Exploris 240 Orbitrap Thermo Scientific
AC$INSTRUMENT_TYPE: LC-ESI-QFT
AC$MASS_SPECTROMETRY: MS_TYPE MS2
AC$MASS_SPECTROMETRY: ION_MODE POSITIVE
AC$MASS_SPECTROMETRY: IONIZATION ESI
AC$MASS_SPECTROMETRY: FRAGMENTATION_MODE HCD
AC$MASS_SPECTROMETRY: COLLISION_ENERGY 60 % (nominal)
AC$MASS_SPECTROMETRY: RESOLUTION 17500
AC$MASS_SPECTROMETRY: MASS_RANGE_M/Z 50-414
AC$CHROMATOGRAPHY: COLUMN_NAME XBridge C18 3.5um, 2.1x50mm, Waters
AC$CHROMATOGRAPHY: FLOW_GRADIENT 90/10 at 0 min, 50/50 at 4 min, 5/95 at 17 min, 5/95 at 25 min, 90/10 at 25.1 min, 90/10 at 30 min
AC$CHROMATOGRAPHY: FLOW_RATE 200 uL/min
AC$CHROMATOGRAPHY: RETENTION_TIME 13.677 min
MS$FOCUSED_ION: BASE_PEAK 384.9948
MS$FOCUSED_ION: PRECURSOR_M/Z 384.9949
MS$FOCUSED_ION: PRECURSOR_TYPE [M+H]+
MS$DATA_PROCESSING: RECALIBRATE loess on assigned fragments and MS1
MS$DATA_PROCESSING: REANALYZE Peaks with additional N2/O included
MS$DATA_PROCESSING: WHOLE RMassBank 3.11.0.1
PK$SPLASH: splash10-0005-5900000000-32c37480166bcb57dec6
PK$ANNOTATION: m/z tentative_formula formula_count mass error(ppm)
  75.0264 C3H7S+ 1 75.0263 1.53
  96.9508 H2O2PS+ 1 96.9508 -0.01
  110.9666 CH4O2PS+ 1 110.9664 1.26
  114.9614 H4O3PS+ 1 114.9613 0.22
  124.982 C2H6O2PS+ 1 124.9821 -0.61
  126.9437 CH4OPS2+ 1 126.9436 0.63
  128.9231 H2O2PS2+ 1 128.9228 1.74
  128.977 CH6O3PS+ 1 128.977 0.04
  142.9385 CH4O2PS2+ 1 142.9385 0.11
  156.9542 C2H6O2PS2+ 1 156.9541 0.49
  170.97 C3H8O2PS2+ 1 170.9698 1.11
  174.9106 CH4O2PS3+ 1 174.9106 0.09
PK$NUM_PEAK: 12
PK$PEAK: m/z int. rel.int.
  75.0264 544297.6 10
  96.9508 50090616 999
  110.9666 1691172.1 33
  114.9614 17771854 354
  124.982 4554797.5 90
  126.9437 1457623 29
  128.9231 1665823.5 33
  128.977 1028880.8 20
  142.9385 46581764 929
  156.9542 330049.5 6
  170.97 542315.4 10
  174.9106 789592.1 15
//
