ACCESSION: MSBNK-Eawag-EQ314604
RECORD_TITLE: Vildagliptin; LC-ESI-QFT; MS2; CE: 60; R=35000; [M+H]+
DATE: 2015.08.25
AUTHORS: Beck B, Stravs M, Schymanski E, Singer H, Department of Environmental Chemistry, Eawag
LICENSE: CC BY
COPYRIGHT: Copyright (C) 2015 Eawag, Duebendorf, Switzerland
COMMENT: CONFIDENCE standard compound
COMMENT: EAWAG_UCHEM_ID 3146
CH$NAME: Vildagliptin
CH$NAME: (2S)-1-[2-[(3-hydroxy-1-adamantyl)amino]-1-oxoethyl]-2-pyrrolidinecarbonitrile
CH$NAME: Equa
CH$COMPOUND_CLASS: N/A; Environmental Standard
CH$FORMULA: C17H25N3O2
CH$EXACT_MASS: 303.19468
CH$SMILES: N#C[C@H]4N(C(=O)CNC13CC2CC(C1)CC(O)(C2)C3)CCC4
CH$IUPAC: InChI=1S/C17H25N3O2/c18-9-14-2-1-3-20(14)15(21)10-19-16-5-12-4-13(6-16)8-17(22,7-12)11-16/h12-14,19,22H,1-8,10-11H2/t12?,13?,14-,16?,17?/m0/s1
CH$LINK: PUBCHEM CID:6918537
CH$LINK: INCHIKEY SYOKIDBDQMKNDQ-XWTIBIIYSA-N
CH$LINK: CHEMSPIDER 5293734
CH$LINK: COMPTOX DTXSID80881091
AC$INSTRUMENT: Q Exactive Orbitrap Thermo Scientific
AC$INSTRUMENT_TYPE: LC-ESI-QFT
AC$MASS_SPECTROMETRY: MS_TYPE MS2
AC$MASS_SPECTROMETRY: ION_MODE POSITIVE
AC$MASS_SPECTROMETRY: IONIZATION ESI
AC$MASS_SPECTROMETRY: FRAGMENTATION_MODE HCD
AC$MASS_SPECTROMETRY: COLLISION_ENERGY 60 (nominal)
AC$MASS_SPECTROMETRY: RESOLUTION 35000
AC$CHROMATOGRAPHY: COLUMN_NAME XBridge C18 3.5um, 2.1x50mm, Waters
AC$CHROMATOGRAPHY: FLOW_GRADIENT 90/10 at 0 min, 50/50 at 4 min, 5/95 at 17 min, 5/95 at 25 min, 90/10 at 25.1 min, 90/10 at 30 min
AC$CHROMATOGRAPHY: FLOW_RATE 200 ul/min
AC$CHROMATOGRAPHY: RETENTION_TIME 2.2 min
AC$CHROMATOGRAPHY: SOLVENT A water with 0.1% formic acid
AC$CHROMATOGRAPHY: SOLVENT B methanol with 0.1% formic acid
MS$FOCUSED_ION: BASE_PEAK 304.202
MS$FOCUSED_ION: PRECURSOR_M/Z 304.202
MS$FOCUSED_ION: PRECURSOR_TYPE [M+H]+
MS$DATA_PROCESSING: DEPROFILE Spline
MS$DATA_PROCESSING: RECALIBRATE loess on assigned fragments and MS1
MS$DATA_PROCESSING: REANALYZE Peaks with additional N2/O included
MS$DATA_PROCESSING: WHOLE RMassBank 1.9.6
PK$SPLASH: splash10-0f6t-9600000000-55a58d88d2018c5adff8
PK$ANNOTATION: m/z tentative_formula formula_count mass error(ppm)
  55.0292 C2H3N2+ 1 55.0291 1.55
  59.0492 C3H7O+ 1 59.0491 0.83
  67.0543 C5H7+ 1 67.0542 0.5
  69.0335 C4H5O+ 1 69.0335 0.13
  69.0699 C5H9+ 1 69.0699 0.34
  70.0651 C4H8N+ 1 70.0651 -0.22
  71.0491 C4H7O+ 1 71.0491 -0.72
  77.0386 C6H5+ 1 77.0386 0.3
  79.0542 C6H7+ 1 79.0542 0.17
  81.0699 C6H9+ 1 81.0699 0.29
  83.0492 C5H7O+ 1 83.0491 0.35
  91.0542 C7H7+ 1 91.0542 -0.07
  93.0699 C7H9+ 1 93.0699 0.14
  95.0492 C6H7O+ 1 95.0491 0.2
  97.076 C5H9N2+ 1 97.076 0.16
  99.0918 C5H11N2+ 1 99.0917 1.26
  105.0447 C6H5N2+ 1 105.0447 0.15
  105.0699 C8H9+ 1 105.0699 0.6
  107.0856 C8H11+ 1 107.0855 0.31
  109.0648 C7H9O+ 1 109.0648 0.17
  109.1012 C8H13+ 1 109.1012 0.21
  123.1168 C9H15+ 1 123.1168 0.19
  127.0865 C6H11N2O+ 1 127.0866 -0.47
  133.1012 C10H13+ 1 133.1012 0.1
  151.1118 C10H15O+ 1 151.1117 0.59
  154.0975 C7H12N3O+ 1 154.0975 0.2
PK$NUM_PEAK: 26
PK$PEAK: m/z int. rel.int.
  55.0292 217999.5 3
  59.0492 1976587.6 29
  67.0543 250098.4 3
  69.0335 66604.9 1
  69.0699 200010.5 3
  70.0651 15765721.6 237
  71.0491 235382.9 3
  77.0386 279943.6 4
  79.0542 518684 7
  81.0699 2453995 36
  83.0492 113500.8 1
  91.0542 2826632.6 42
  93.0699 31593311.9 475
  95.0492 13043283.8 196
  97.076 66353220.4 999
  99.0918 332220.2 5
  105.0447 286278.1 4
  105.0699 1324856.3 19
  107.0856 11708235.5 176
  109.0648 4149047.3 62
  109.1012 524248.1 7
  123.1168 1025251.8 15
  127.0865 2291235.6 34
  133.1012 7733970.7 116
  151.1118 27905696.8 420
  154.0975 35770693.8 538
//
