ACCESSION: MSBNK-Eawag-EA065213
RECORD_TITLE: Sulfanilic acid; LC-ESI-ITFT; MS2; CE: 90%; R=15000; [M+H]+
DATE: 2014.01.14
AUTHORS: Stravs M, Schymanski E, Singer H, Department of Environmental Chemistry, Eawag
LICENSE: CC BY
COPYRIGHT: Copyright (C) 2012 Eawag, Duebendorf, Switzerland
COMMENT: CONFIDENCE standard compound
COMMENT: EAWAG_UCHEM_ID 652
CH$NAME: Sulfanilic acid
CH$NAME: 4-aminobenzenesulfonic acid
CH$COMPOUND_CLASS: N/A; Environmental Standard
CH$FORMULA: C6H7NO3S
CH$EXACT_MASS: 173.0147
CH$SMILES: S(c1ccc(N)cc1)(O)(=O)=O
CH$IUPAC: InChI=1S/C6H7NO3S/c7-5-1-3-6(4-2-5)11(8,9)10/h1-4H,7H2,(H,8,9,10)
CH$LINK: CAS 121-57-3
CH$LINK: CHEBI CHEBI:27500
CH$LINK: KEGG C06335
CH$LINK: PUBCHEM CID:8479
CH$LINK: INCHIKEY HVBSAKJJOYLTQU-UHFFFAOYSA-N
CH$LINK: CHEMSPIDER 8166
CH$LINK: COMPTOX DTXSID6024464
AC$INSTRUMENT: LTQ Orbitrap XL Thermo Scientific
AC$INSTRUMENT_TYPE: LC-ESI-ITFT
AC$MASS_SPECTROMETRY: MS_TYPE MS2
AC$MASS_SPECTROMETRY: ION_MODE POSITIVE
AC$MASS_SPECTROMETRY: IONIZATION ESI
AC$MASS_SPECTROMETRY: FRAGMENTATION_MODE HCD
AC$MASS_SPECTROMETRY: COLLISION_ENERGY 90 % (nominal)
AC$MASS_SPECTROMETRY: RESOLUTION 15000
AC$CHROMATOGRAPHY: COLUMN_NAME XBridge C18 3.5um, 2.1x50mm, Waters
AC$CHROMATOGRAPHY: FLOW_GRADIENT 90/10 at 0 min, 50/50 at 4 min, 5/95 at 17 min, 5/95 at 25 min, 90/10 at 25.1 min, 90/10 at 30 min
AC$CHROMATOGRAPHY: FLOW_RATE 200 ul/min
AC$CHROMATOGRAPHY: RETENTION_TIME 0.9 min
AC$CHROMATOGRAPHY: SOLVENT A water with 0.1% formic acid
AC$CHROMATOGRAPHY: SOLVENT B methanol with 0.1% formic acid
MS$FOCUSED_ION: BASE_PEAK 174.0217
MS$FOCUSED_ION: PRECURSOR_M/Z 174.0219
MS$FOCUSED_ION: PRECURSOR_TYPE [M+H]+
MS$DATA_PROCESSING: DEPROFILE Spline
MS$DATA_PROCESSING: RECALIBRATE loess on assigned fragments and MS1
MS$DATA_PROCESSING: REANALYZE Peaks with additional N2/O included
MS$DATA_PROCESSING: WHOLE RMassBank 1.3.1
PK$SPLASH: splash10-0006-9000000000-cec2489b33e09b875fe2
PK$ANNOTATION: m/z tentative_formula formula_count mass error(ppm)
  65.0386 C5H5+ 1 65.0386 0.05
  66.0464 C5H6+ 1 66.0464 0.13
  75.0228 C6H3+ 1 75.0229 -1.29
  76.0309 C6H4+ 1 76.0308 1.29
  78.0337 C5H4N+ 1 78.0338 -1.1
  80.0494 C5H6N+ 1 80.0495 -0.82
  81.0336 C5H5O+ 1 81.0335 0.73
  92.0495 C6H6N+ 1 92.0495 0.05
  93.0573 C6H7N+ 1 93.0573 0.21
  108.0444 C6H6NO+ 1 108.0444 -0.09
  109.0285 C6H5O2+ 1 109.0284 1.32
  109.0525 C6H7NO+ 1 109.0522 2.98
  110.0601 C6H8NO+ 1 110.06 0.27
  125.0471 C6H7NO2+ 1 125.0471 0.08
  174.0221 C6H8NO3S+ 1 174.0219 0.92
PK$NUM_PEAK: 15
PK$PEAK: m/z int. rel.int.
  65.0386 76620 81
  66.0464 16608.3 17
  75.0228 1836.8 1
  76.0309 2674.5 2
  78.0337 1552.9 1
  80.0494 11797.2 12
  81.0336 2961.1 3
  92.0495 93847.7 99
  93.0573 942804.6 999
  108.0444 52539.8 55
  109.0285 3414.4 3
  109.0525 1736 1
  110.0601 12081.8 12
  125.0471 46170.3 48
  174.0221 5984.4 6
//
