ACCESSION: MSBNK-Eawag-EA067111
RECORD_TITLE: Terbutylazine-desethyl; LC-ESI-ITFT; MS2; CE: 60%; R=15000; [M+H]+
DATE: 2014.01.14
AUTHORS: Stravs M, Schymanski E, Singer H, Department of Environmental Chemistry, Eawag
LICENSE: CC BY
COPYRIGHT: Copyright (C) 2012 Eawag, Duebendorf, Switzerland
COMMENT: CONFIDENCE standard compound
COMMENT: EAWAG_UCHEM_ID 671
CH$NAME: Terbutylazine-desethyl
CH$NAME: Desethylterbutylazine
CH$NAME: (4-amino-6-chloro-s-triazin-2-yl)-tert-butyl-amine
CH$COMPOUND_CLASS: N/A; Environmental Standard
CH$FORMULA: C7H12ClN5
CH$EXACT_MASS: 201.0781
CH$SMILES: Nc1nc(NC(C)(C)C)nc(Cl)n1
CH$IUPAC: InChI=1S/C7H12ClN5/c1-7(2,3)13-6-11-4(8)10-5(9)12-6/h1-3H3,(H3,9,10,11,12,13)
CH$LINK: CAS 30125-63-4
CH$LINK: PUBCHEM CID:108201
CH$LINK: INCHIKEY LMKQNTMFZLAJDV-UHFFFAOYSA-N
CH$LINK: CHEMSPIDER 97278
CH$LINK: COMPTOX DTXSID80184211
AC$INSTRUMENT: LTQ Orbitrap XL Thermo Scientific
AC$INSTRUMENT_TYPE: LC-ESI-ITFT
AC$MASS_SPECTROMETRY: MS_TYPE MS2
AC$MASS_SPECTROMETRY: ION_MODE POSITIVE
AC$MASS_SPECTROMETRY: IONIZATION ESI
AC$MASS_SPECTROMETRY: FRAGMENTATION_MODE HCD
AC$MASS_SPECTROMETRY: COLLISION_ENERGY 60 % (nominal)
AC$MASS_SPECTROMETRY: RESOLUTION 15000
AC$CHROMATOGRAPHY: COLUMN_NAME XBridge C18 3.5um, 2.1x50mm, Waters
AC$CHROMATOGRAPHY: FLOW_GRADIENT 90/10 at 0 min, 50/50 at 4 min, 5/95 at 17 min, 5/95 at 25 min, 90/10 at 25.1 min, 90/10 at 30 min
AC$CHROMATOGRAPHY: FLOW_RATE 200 ul/min
AC$CHROMATOGRAPHY: RETENTION_TIME 7.6 min
AC$CHROMATOGRAPHY: SOLVENT A water with 0.1% formic acid
AC$CHROMATOGRAPHY: SOLVENT B methanol with 0.1% formic acid
MS$FOCUSED_ION: BASE_PEAK 202.0861
MS$FOCUSED_ION: PRECURSOR_M/Z 202.0854
MS$FOCUSED_ION: PRECURSOR_TYPE [M+H]+
MS$DATA_PROCESSING: DEPROFILE Spline
MS$DATA_PROCESSING: RECALIBRATE loess on assigned fragments and MS1
MS$DATA_PROCESSING: REANALYZE Peaks with additional N2/O included
MS$DATA_PROCESSING: WHOLE RMassBank 1.3.1
PK$SPLASH: splash10-0002-0900000000-b488e9fb75440d46e0bf
PK$ANNOTATION: m/z tentative_formula formula_count mass error(ppm)
  57.0699 C4H9+ 1 57.0699 -0.47
  61.9792 CHClN+ 1 61.9792 0.11
  68.0244 C2H2N3+ 1 68.0243 0.68
  79.0058 CH4ClN2+ 1 79.0058 0.86
  86.035 C2H4N3O+ 1 86.0349 1.42
  104.001 C2H3ClN3+ 1 104.001 0.37
  110.0462 C3H4N5+ 1 110.0461 0.71
  128.0566 C3H6N5O+ 2 128.0567 -0.36
  146.0229 C3H5ClN5+ 1 146.0228 0.69
  202.0856 C7H13ClN5+ 1 202.0854 1.14
PK$NUM_PEAK: 10
PK$PEAK: m/z int. rel.int.
  57.0699 23685.8 3
  61.9792 14159.9 2
  68.0244 219279.3 35
  79.0058 365987.9 59
  86.035 9018.7 1
  104.001 403803.3 65
  110.0462 176127 28
  128.0566 51447.7 8
  146.0229 6153009 999
  202.0856 50187.8 8
//
