ACCESSION: MSBNK-Eawag-EQ01107102
RECORD_TITLE: tert-Butylacrylamide; LC-ESI-QFT; MS2; CE: 30%; R=15000; [M+H]+
DATE: 2024.06.14
AUTHORS: F. Jud [dtc], K. Arturi [dtc], J. Hollender [dtc], A. Dax [com]
LICENSE: CC BY-SA
COPYRIGHT: Copyright (C) Eawag 2024
COMMENT: CONFIDENCE standard compound
COMMENT: UCHEM_ID 11071
CH$NAME: tert-Butylacrylamide
CH$NAME: N-Tert-butylacrylamide
CH$NAME: N-tert-butylprop-2-enamide
CH$COMPOUND_CLASS: N/A
CH$FORMULA: C7H13NO
CH$EXACT_MASS: 127.099714
CH$SMILES: CC(C)(C)NC(=O)C=C
CH$IUPAC: InChI=1S/C7H13NO/c1-5-6(9)8-7(2,3)4/h5H,1H2,2-4H3,(H,8,9)
CH$LINK: CAS 107-58-4
CH$LINK: PUBCHEM CID:7877
CH$LINK: INCHIKEY XFHJDMUEHUHAJW-UHFFFAOYSA-N
CH$LINK: CHEMSPIDER 7589
AC$INSTRUMENT: Exploris 240 Thermo Scientific
AC$INSTRUMENT_TYPE: LC-ESI-QFT
AC$MASS_SPECTROMETRY: MS_TYPE MS2
AC$MASS_SPECTROMETRY: ION_MODE POSITIVE
AC$MASS_SPECTROMETRY: IONIZATION ESI
AC$MASS_SPECTROMETRY: FRAGMENTATION_MODE HCD
AC$MASS_SPECTROMETRY: COLLISION_ENERGY 30 % (nominal)
AC$MASS_SPECTROMETRY: RESOLUTION 15000
AC$MASS_SPECTROMETRY: MASS_RANGE_M/Z 40-152
AC$CHROMATOGRAPHY: COLUMN_NAME XBridge C18 3.5um, 2.1x50mm, Waters
AC$CHROMATOGRAPHY: FLOW_GRADIENT 90/10 at 0 min, 50/50 at 4 min, 5/95 at 17 min, 5/95 at 25 min, 90/10 at 25.1 min, 90/10 at 30 min
AC$CHROMATOGRAPHY: FLOW_RATE 200 uL/min
AC$CHROMATOGRAPHY: RETENTION_TIME 3.893 min
MS$FOCUSED_ION: BASE_PEAK 128.1068
MS$FOCUSED_ION: PRECURSOR_M/Z 128.107
MS$FOCUSED_ION: PRECURSOR_TYPE [M+H]+
MS$DATA_PROCESSING: RECALIBRATE loess on assigned fragments and MS1
MS$DATA_PROCESSING: REANALYZE Peaks with additional N2/O included
MS$DATA_PROCESSING: WHOLE RMassBank 3.15.1.1
PK$SPLASH: splash10-00di-9000000000-8fc100b8cbc75508e391
PK$ANNOTATION: m/z tentative_formula formula_count mass error(ppm)
  55.0178 C3H3O+ 1 55.0178 -0.77
  57.0698 C4H9+ 1 57.0699 -0.97
  72.0443 C3H6NO+ 1 72.0444 -0.8
  128.1068 C7H14NO+ 1 128.107 -1.25
PK$NUM_PEAK: 4
PK$PEAK: m/z int. rel.int.
  55.0178 7496938 31
  57.0698 11145201 46
  72.0443 238022928 999
  128.1068 27579352 115
//
