ACCESSION: MSBNK-Eawag-EQ01143208
RECORD_TITLE: Lauroyl Lysine; LC-ESI-QFT; MS2; CE: 150%; R=17500; [M+H]+
DATE: 2023.06.16
AUTHORS: B. Beck [dtc,com], J. Hollender [dtc]
LICENSE: CC BY-SA
COPYRIGHT: Copyright (C) Eawag 2023
COMMENT: CONFIDENCE standard compound
COMMENT: UCHEM_ID 11432
CH$NAME: Lauroyl Lysine
CH$NAME: N~6~-Dodecanoyllysine
CH$NAME: 2-amino-6-(dodecanoylamino)hexanoic acid
CH$COMPOUND_CLASS: N/A; Environmental Standard
CH$FORMULA: C18H36N2O3
CH$EXACT_MASS: 328.2726
CH$SMILES: CCCCCCCCCCCC(=O)NCCCCC(C(=O)O)N
CH$IUPAC: InChI=1S/C18H36N2O3/c1-2-3-4-5-6-7-8-9-10-14-17(21)20-15-12-11-13-16(19)18(22)23/h16H,2-15,19H2,1H3,(H,20,21)(H,22,23)
CH$LINK: CAS 52315-75-0
CH$LINK: PUBCHEM CID:11313447
CH$LINK: INCHIKEY GYDYJUYZBRGMCC-UHFFFAOYSA-N
CH$LINK: CHEMSPIDER 9488414
AC$INSTRUMENT: Exploris 240 Orbitrap Thermo Scientific
AC$INSTRUMENT_TYPE: LC-ESI-QFT
AC$MASS_SPECTROMETRY: MS_TYPE MS2
AC$MASS_SPECTROMETRY: ION_MODE POSITIVE
AC$MASS_SPECTROMETRY: IONIZATION ESI
AC$MASS_SPECTROMETRY: FRAGMENTATION_MODE HCD
AC$MASS_SPECTROMETRY: COLLISION_ENERGY 150 % (nominal)
AC$MASS_SPECTROMETRY: RESOLUTION 17500
AC$MASS_SPECTROMETRY: MASS_RANGE_M/Z 50-357
AC$CHROMATOGRAPHY: COLUMN_NAME XBridge C18 3.5um, 2.1x50mm, Waters
AC$CHROMATOGRAPHY: FLOW_GRADIENT 90/10 at 0 min, 50/50 at 4 min, 5/95 at 17 min, 5/95 at 25 min, 90/10 at 25.1 min, 90/10 at 30 min
AC$CHROMATOGRAPHY: FLOW_RATE 200 uL/min
AC$CHROMATOGRAPHY: RETENTION_TIME 12.161 min
MS$FOCUSED_ION: BASE_PEAK 329.2798
MS$FOCUSED_ION: PRECURSOR_M/Z 329.2799
MS$FOCUSED_ION: PRECURSOR_TYPE [M+H]+
MS$DATA_PROCESSING: RECALIBRATE loess on assigned fragments and MS1
MS$DATA_PROCESSING: REANALYZE Peaks with additional N2/O included
MS$DATA_PROCESSING: WHOLE RMassBank 3.11.0.1
PK$SPLASH: splash10-0a59-9000000000-55c47519164bfa09055a
PK$ANNOTATION: m/z tentative_formula formula_count mass error(ppm)
  53.0387 C4H5+ 1 53.0386 2.21
  55.0542 C4H7+ 1 55.0542 -0.62
  56.0495 C3H6N+ 1 56.0495 0.04
  57.0699 C4H9+ 1 57.0699 0.53
  65.0387 C5H5+ 1 65.0386 2.26
  67.0543 C5H7+ 1 67.0542 0.4
  68.0495 C4H6N+ 1 68.0495 0.62
  69.0573 C4H7N+ 1 69.0573 -0.1
  82.0653 C5H8N+ 1 82.0651 2.38
  84.0808 C5H10N+ 1 84.0808 0.25
PK$NUM_PEAK: 10
PK$PEAK: m/z int. rel.int.
  53.0387 134039.8 17
  55.0542 1474424 188
  56.0495 7052770 901
  57.0699 513035.2 65
  65.0387 278852.5 35
  67.0543 1538340.2 196
  68.0495 132330.4 16
  69.0573 401401.3 51
  82.0653 188166.2 24
  84.0808 7817052 999
//
