ACCESSION: MSBNK-Eawag-EA016711
RECORD_TITLE: 5-Methyl-1H-benzotriazole; LC-ESI-ITFT; MS2; CE: 60%; R=15000; [M+H]+
DATE: 2014.01.14
AUTHORS: Stravs M, Schymanski E, Singer H, Department of Environmental Chemistry, Eawag
LICENSE: CC BY
COPYRIGHT: Copyright (C) 2012 Eawag, Duebendorf, Switzerland
COMMENT: CONFIDENCE standard compound
COMMENT: EAWAG_UCHEM_ID 167
CH$NAME: 5-Methyl-1H-benzotriazole
CH$COMPOUND_CLASS: N/A; Environmental Standard
CH$FORMULA: C7H7N3
CH$EXACT_MASS: 133.0640
CH$SMILES: c12c(cc(C)cc2)nn[nH]1
CH$IUPAC: InChI=1S/C7H7N3/c1-5-2-3-6-7(4-5)9-10-8-6/h2-4H,1H3,(H,8,9,10)
CH$LINK: CAS 136-85-6
CH$LINK: PUBCHEM CID:8705
CH$LINK: INCHIKEY LRUDIIUSNGCQKF-UHFFFAOYSA-N
CH$LINK: CHEMSPIDER 8381
CH$LINK: COMPTOX DTXSID1038743
AC$INSTRUMENT: LTQ Orbitrap XL Thermo Scientific
AC$INSTRUMENT_TYPE: LC-ESI-ITFT
AC$MASS_SPECTROMETRY: MS_TYPE MS2
AC$MASS_SPECTROMETRY: ION_MODE POSITIVE
AC$MASS_SPECTROMETRY: IONIZATION ESI
AC$MASS_SPECTROMETRY: FRAGMENTATION_MODE HCD
AC$MASS_SPECTROMETRY: COLLISION_ENERGY 60 % (nominal)
AC$MASS_SPECTROMETRY: RESOLUTION 15000
AC$CHROMATOGRAPHY: COLUMN_NAME XBridge C18 3.5um, 2.1x50mm, Waters
AC$CHROMATOGRAPHY: FLOW_GRADIENT 90/10 at 0 min, 50/50 at 4 min, 5/95 at 17 min, 5/95 at 25 min, 90/10 at 25.1 min, 90/10 at 30 min
AC$CHROMATOGRAPHY: FLOW_RATE 200 ul/min
AC$CHROMATOGRAPHY: RETENTION_TIME 5.8 min
AC$CHROMATOGRAPHY: SOLVENT A water with 0.1% formic acid
AC$CHROMATOGRAPHY: SOLVENT B methanol with 0.1% formic acid
MS$FOCUSED_ION: BASE_PEAK 134.0712
MS$FOCUSED_ION: PRECURSOR_M/Z 134.0713
MS$FOCUSED_ION: PRECURSOR_TYPE [M+H]+
MS$DATA_PROCESSING: DEPROFILE Spline
MS$DATA_PROCESSING: RECALIBRATE loess on assigned fragments and MS1
MS$DATA_PROCESSING: REANALYZE Peaks with additional N2/O included
MS$DATA_PROCESSING: WHOLE RMassBank 1.3.1
PK$SPLASH: splash10-001i-1900000000-9e4971360b2314a57ee9
PK$ANNOTATION: m/z tentative_formula formula_count mass error(ppm)
  77.0386 C6H5+ 1 77.0386 0.3
  78.0337 C5H4N+ 1 78.0338 -2.12
  78.0463 C6H6+ 1 78.0464 -1.05
  79.0543 C6H7+ 1 79.0542 0.55
  80.0495 C5H6N+ 1 80.0495 0.93
  89.0385 C7H5+ 1 89.0386 -0.75
  95.0491 C6H7O+ 1 95.0491 -0.43
  105.0447 C6H5N2+ 1 105.0447 0.05
  106.0652 C7H8N+ 1 106.0651 0.42
  134.0713 C7H8N3+ 1 134.0713 0.57
PK$NUM_PEAK: 10
PK$PEAK: m/z int. rel.int.
  77.0386 691672.7 48
  78.0337 18915.6 1
  78.0463 15879 1
  79.0543 1329144.7 92
  80.0495 38957.3 2
  89.0385 36513.5 2
  95.0491 41884.8 2
  105.0447 150755.2 10
  106.0652 1218249.2 85
  134.0713 14294038.6 999
//
