ACCESSION: MSBNK-Eawag-EQ317502
RECORD_TITLE: Propyzamide; LC-ESI-QFT; MS2; CE: 30; R=35000; [M+H]+
DATE: 2015.08.25
AUTHORS: Huntscha S, Stravs M, Schymanski E, Singer H, Department of Environmental Chemistry, Eawag
LICENSE: CC BY
COPYRIGHT: Copyright (C) 2015 Eawag, Duebendorf, Switzerland
COMMENT: CONFIDENCE standard compound
COMMENT: EAWAG_UCHEM_ID 3175
CH$NAME: Propyzamide
CH$NAME: 3,5-bis(chloranyl)-N-(2-methylbut-3-yn-2-yl)benzamide
CH$NAME: Promamide
CH$COMPOUND_CLASS: N/A; Environmental Standard
CH$FORMULA: C12H11Cl2NO
CH$EXACT_MASS: 255.02177
CH$SMILES: Clc1cc(C(=O)NC(C#C)(C)C)cc(Cl)c1
CH$IUPAC: InChI=1S/C12H11Cl2NO/c1-4-12(2,3)15-11(16)8-5-9(13)7-10(14)6-8/h1,5-7H,2-3H3,(H,15,16)
CH$LINK: CAS 23950-58-5
CH$LINK: KEGG C14333
CH$LINK: PUBCHEM CID:32154
CH$LINK: INCHIKEY PHNUZKMIPFFYSO-UHFFFAOYSA-N
CH$LINK: CHEMSPIDER 29822
CH$LINK: COMPTOX DTXSID2020420
AC$INSTRUMENT: Q Exactive Orbitrap Thermo Scientific
AC$INSTRUMENT_TYPE: LC-ESI-QFT
AC$MASS_SPECTROMETRY: MS_TYPE MS2
AC$MASS_SPECTROMETRY: ION_MODE POSITIVE
AC$MASS_SPECTROMETRY: IONIZATION ESI
AC$MASS_SPECTROMETRY: FRAGMENTATION_MODE HCD
AC$MASS_SPECTROMETRY: COLLISION_ENERGY 30 (nominal)
AC$MASS_SPECTROMETRY: RESOLUTION 35000
AC$CHROMATOGRAPHY: COLUMN_NAME XBridge C18 3.5um, 2.1x50mm, Waters
AC$CHROMATOGRAPHY: FLOW_GRADIENT 90/10 at 0 min, 50/50 at 4 min, 5/95 at 17 min, 5/95 at 25 min, 90/10 at 25.1 min, 90/10 at 30 min
AC$CHROMATOGRAPHY: FLOW_RATE 200 ul/min
AC$CHROMATOGRAPHY: RETENTION_TIME 11.0 min
AC$CHROMATOGRAPHY: SOLVENT A water with 0.1% formic acid
AC$CHROMATOGRAPHY: SOLVENT B methanol with 0.1% formic acid
MS$FOCUSED_ION: BASE_PEAK 256.0295
MS$FOCUSED_ION: PRECURSOR_M/Z 256.029
MS$FOCUSED_ION: PRECURSOR_TYPE [M+H]+
MS$DATA_PROCESSING: DEPROFILE Spline
MS$DATA_PROCESSING: RECALIBRATE loess on assigned fragments and MS1
MS$DATA_PROCESSING: REANALYZE Peaks with additional N2/O included
MS$DATA_PROCESSING: WHOLE RMassBank 1.9.6
PK$SPLASH: splash10-000i-0900000000-7027639bfcad019cb689
PK$ANNOTATION: m/z tentative_formula formula_count mass error(ppm)
  65.0387 C5H5+ 1 65.0386 1.59
  67.0543 C5H7+ 1 67.0542 1.39
  85.0648 C5H9O+ 1 85.0648 0.22
  144.9601 C6H3Cl2+ 1 144.9606 -3.46
  146.9763 C6H5Cl2+ 1 146.9763 -0.08
  158.9761 C7H5Cl2+ 1 158.9763 -1.14
  171.9715 C7H4Cl2N+ 2 171.9715 -0.35
  172.9556 C7H3Cl2O+ 1 172.9555 0.54
  189.9821 C7H6Cl2NO+ 1 189.9821 0.18
  201.9816 C8H6Cl2NO+ 1 201.9821 -2.26
  256.0292 C12H12Cl2NO+ 1 256.029 0.45
PK$NUM_PEAK: 11
PK$PEAK: m/z int. rel.int.
  65.0387 4065210.4 18
  67.0543 19576901.8 88
  85.0648 1076668.4 4
  144.9601 535570.2 2
  146.9763 2975540.8 13
  158.9761 297452.6 1
  171.9715 561644.8 2
  172.9556 65013126.8 294
  189.9821 220799289.8 999
  201.9816 573938.7 2
  256.0292 23271183 105
//
