ACCESSION: MSBNK-Eawag-EQ01094461
RECORD_TITLE: Difenacoum; LC-ESI-QFT; MS2; CE: 30%; R=17500; [M-H]-
DATE: 2023.06.16
AUTHORS: B. Beck [dtc,com], J. Hollender [dtc]
LICENSE: CC BY-SA
COPYRIGHT: Copyright (C) Eawag 2023
COMMENT: CONFIDENCE standard compound
COMMENT: UCHEM_ID 10944
CH$NAME: Difenacoum
CH$NAME: 4-hydroxy-3-[3-(4-phenylphenyl)-1,2,3,4-tetrahydronaphthalen-1-yl]chromen-2-one
CH$COMPOUND_CLASS: N/A; Environmental Standard
CH$FORMULA: C31H24O3
CH$EXACT_MASS: 444.1725
CH$SMILES: C1C(CC2=CC=CC=C2C1C3=C(C4=CC=CC=C4OC3=O)O)C5=CC=C(C=C5)C6=CC=CC=C6
CH$IUPAC: InChI=1S/C31H24O3/c32-30-26-12-6-7-13-28(26)34-31(33)29(30)27-19-24(18-23-10-4-5-11-25(23)27)22-16-14-21(15-17-22)20-8-2-1-3-9-20/h1-17,24,27,32H,18-19H2
CH$LINK: CAS 56073-07-5
CH$LINK: CHEBI CHEBI:80743
CH$LINK: KEGG C16807
CH$LINK: PUBCHEM CID:54676884
CH$LINK: INCHIKEY FVQITOLOYMWVFU-UHFFFAOYSA-N
CH$LINK: CHEMSPIDER 10469075
AC$INSTRUMENT: Exploris 240 Orbitrap Thermo Scientific
AC$INSTRUMENT_TYPE: LC-ESI-QFT
AC$MASS_SPECTROMETRY: MS_TYPE MS2
AC$MASS_SPECTROMETRY: ION_MODE NEGATIVE
AC$MASS_SPECTROMETRY: IONIZATION ESI
AC$MASS_SPECTROMETRY: FRAGMENTATION_MODE HCD
AC$MASS_SPECTROMETRY: COLLISION_ENERGY 30 % (nominal)
AC$MASS_SPECTROMETRY: RESOLUTION 17500
AC$MASS_SPECTROMETRY: MASS_RANGE_M/Z 50-473
AC$CHROMATOGRAPHY: COLUMN_NAME XBridge C18 3.5um, 2.1x50mm, Waters
AC$CHROMATOGRAPHY: FLOW_GRADIENT 90/10 at 0 min, 50/50 at 4 min, 5/95 at 17 min, 5/95 at 25 min, 90/10 at 25.1 min, 90/10 at 30 min
AC$CHROMATOGRAPHY: FLOW_RATE 200 uL/min
AC$CHROMATOGRAPHY: RETENTION_TIME 15.439 min
MS$FOCUSED_ION: BASE_PEAK 443.1649
MS$FOCUSED_ION: PRECURSOR_M/Z 443.1653
MS$FOCUSED_ION: PRECURSOR_TYPE [M-H]-
MS$DATA_PROCESSING: RECALIBRATE loess on assigned fragments and MS1
MS$DATA_PROCESSING: REANALYZE Peaks with additional N2/O included
MS$DATA_PROCESSING: WHOLE RMassBank 3.11.0.1
PK$SPLASH: splash10-0006-0000900000-ffe2fe1897a9854f6655
PK$ANNOTATION: m/z tentative_formula formula_count mass error(ppm)
  135.0452 C8H7O2- 1 135.0452 0.47
  187.0398 C11H7O3- 1 187.0401 -1.31
  293.1342 C23H17- 1 293.1336 2.29
  399.1741 C30H23O- 1 399.1754 -3.25
  443.1653 C31H23O3- 1 443.1653 0.09
PK$NUM_PEAK: 5
PK$PEAK: m/z int. rel.int.
  135.0452 207425.3 4
  187.0398 101897.1 2
  293.1342 248337.4 5
  399.1741 445914.6 8
  443.1653 49529908 999
//
