ACCESSION: MSBNK-Eawag-EQ01130303
RECORD_TITLE: Pyridaben; LC-ESI-QFT; MS2; CE: 45%; R=17500; [M+H]+
DATE: 2023.04.27
AUTHORS: B. Beck [dtc,com], J. Hollender [dtc]
LICENSE: CC BY-SA
COPYRIGHT: Copyright (C) Eawag 2023
COMMENT: CONFIDENCE standard compound
COMMENT: UCHEM_ID 11303
CH$NAME: Pyridaben
CH$NAME: 2-tert-butyl-5-[(4-tert-butylphenyl)methylsulfanyl]-4-chloropyridazin-3-one
CH$COMPOUND_CLASS: N/A; Environmental Standard
CH$FORMULA: C19H25ClN2OS
CH$EXACT_MASS: 364.1376
CH$SMILES: CC(C)(C)C1=CC=C(C=C1)CSC2=C(C(=O)N(N=C2)C(C)(C)C)Cl
CH$IUPAC: InChI=1S/C19H25ClN2OS/c1-18(2,3)14-9-7-13(8-10-14)12-24-15-11-21-22(19(4,5)6)17(23)16(15)20/h7-11H,12H2,1-6H3
CH$LINK: CAS 2793-06-8
CH$LINK: CHEBI CHEBI:38626
CH$LINK: KEGG C18614
CH$LINK: PUBCHEM CID:91754
CH$LINK: INCHIKEY DWFZBUWUXWZWKD-UHFFFAOYSA-N
CH$LINK: CHEMSPIDER 82852
AC$INSTRUMENT: Exploris 240 Orbitrap Thermo Scientific
AC$INSTRUMENT_TYPE: LC-ESI-QFT
AC$MASS_SPECTROMETRY: MS_TYPE MS2
AC$MASS_SPECTROMETRY: ION_MODE POSITIVE
AC$MASS_SPECTROMETRY: IONIZATION ESI
AC$MASS_SPECTROMETRY: FRAGMENTATION_MODE HCD
AC$MASS_SPECTROMETRY: COLLISION_ENERGY 45 % (nominal)
AC$MASS_SPECTROMETRY: RESOLUTION 17500
AC$MASS_SPECTROMETRY: MASS_RANGE_M/Z 50-393
AC$CHROMATOGRAPHY: COLUMN_NAME XBridge C18 3.5um, 2.1x50mm, Waters
AC$CHROMATOGRAPHY: FLOW_GRADIENT 90/10 at 0 min, 50/50 at 4 min, 5/95 at 17 min, 5/95 at 25 min, 90/10 at 25.1 min, 90/10 at 30 min
AC$CHROMATOGRAPHY: FLOW_RATE 200 uL/min
AC$CHROMATOGRAPHY: RETENTION_TIME 15.195 min
MS$FOCUSED_ION: BASE_PEAK 365.1448
MS$FOCUSED_ION: PRECURSOR_M/Z 365.1449
MS$FOCUSED_ION: PRECURSOR_TYPE [M+H]+
MS$DATA_PROCESSING: RECALIBRATE loess on assigned fragments and MS1
MS$DATA_PROCESSING: REANALYZE Peaks with additional N2/O included
MS$DATA_PROCESSING: WHOLE RMassBank 3.11.0.1
PK$SPLASH: splash10-0002-0900000000-cff75232e227585930ad
PK$ANNOTATION: m/z tentative_formula formula_count mass error(ppm)
  105.0701 C8H9+ 1 105.0699 1.66
  119.0854 C9H11+ 1 119.0855 -1.45
  132.0936 C10H12+ 1 132.0934 1.63
  147.1167 C11H15+ 1 147.1168 -0.62
  309.0825 C15H18ClN2OS+ 1 309.0823 0.83
PK$NUM_PEAK: 5
PK$PEAK: m/z int. rel.int.
  105.0701 927600.8 12
  119.0854 1250715.2 16
  132.0936 436909.1 5
  147.1167 77020368 999
  309.0825 1635352.9 21
//
