ACCESSION: MSBNK-Eawag-EQ302205
RECORD_TITLE: Medazepam; LC-ESI-QFT; MS2; CE: 75; R=35000; [M+H]+
DATE: 2015.08.25
AUTHORS: Beck B, Stravs M, Schymanski E, Singer H, Department of Environmental Chemistry, Eawag
LICENSE: CC BY
COPYRIGHT: Copyright (C) 2015 Eawag, Duebendorf, Switzerland
COMMENT: CONFIDENCE standard compound
COMMENT: EAWAG_UCHEM_ID 3022
CH$NAME: Medazepam
CH$NAME: 7-chloranyl-1-methyl-5-phenyl-2,3-dihydro-1,4-benzodiazepine
CH$COMPOUND_CLASS: N/A; Environmental Standard
CH$FORMULA: C16H15ClN2
CH$EXACT_MASS: 270.09238
CH$SMILES: CN1CCN=C(C2=C1C=CC(=C2)Cl)C3=CC=CC=C3
CH$IUPAC: InChI=1S/C16H15ClN2/c1-19-10-9-18-16(12-5-3-2-4-6-12)14-11-13(17)7-8-15(14)19/h2-8,11H,9-10H2,1H3
CH$LINK: CAS 2898-11-5
CH$LINK: KEGG D01292
CH$LINK: PUBCHEM CID:4041
CH$LINK: INCHIKEY YLCXGBZIZBEVPZ-UHFFFAOYSA-N
CH$LINK: CHEMSPIDER 3901
CH$LINK: COMPTOX DTXSID1048708
AC$INSTRUMENT: Q Exactive Orbitrap Thermo Scientific
AC$INSTRUMENT_TYPE: LC-ESI-QFT
AC$MASS_SPECTROMETRY: MS_TYPE MS2
AC$MASS_SPECTROMETRY: ION_MODE POSITIVE
AC$MASS_SPECTROMETRY: IONIZATION ESI
AC$MASS_SPECTROMETRY: FRAGMENTATION_MODE HCD
AC$MASS_SPECTROMETRY: COLLISION_ENERGY 75 (nominal)
AC$MASS_SPECTROMETRY: RESOLUTION 35000
AC$CHROMATOGRAPHY: COLUMN_NAME XBridge C18 3.5um, 2.1x50mm, Waters
AC$CHROMATOGRAPHY: FLOW_GRADIENT 90/10 at 0 min, 50/50 at 4 min, 5/95 at 17 min, 5/95 at 25 min, 90/10 at 25.1 min, 90/10 at 30 min
AC$CHROMATOGRAPHY: FLOW_RATE 200 ul/min
AC$CHROMATOGRAPHY: RETENTION_TIME 6.5 min
AC$CHROMATOGRAPHY: SOLVENT A water with 0.1% formic acid
AC$CHROMATOGRAPHY: SOLVENT B methanol with 0.1% formic acid
MS$FOCUSED_ION: BASE_PEAK 271.0999
MS$FOCUSED_ION: PRECURSOR_M/Z 271.0997
MS$FOCUSED_ION: PRECURSOR_TYPE [M+H]+
MS$DATA_PROCESSING: DEPROFILE Spline
MS$DATA_PROCESSING: RECALIBRATE loess on assigned fragments and MS1
MS$DATA_PROCESSING: REANALYZE Peaks with additional N2/O included
MS$DATA_PROCESSING: WHOLE RMassBank 1.9.6
PK$SPLASH: splash10-052f-6790000000-57420afc127df9edd674
PK$ANNOTATION: m/z tentative_formula formula_count mass error(ppm)
  65.0386 C5H5+ 1 65.0386 0.21
  79.0543 C6H7+ 1 79.0542 0.42
  89.0384 C7H5+ 1 89.0386 -1.42
  90.0465 C7H6+ 1 90.0464 0.65
  91.0542 C7H7+ 1 91.0542 -0.29
  95.0491 C6H7O+ 1 95.0491 -0.54
  103.0543 C8H7+ 1 103.0542 0.81
  104.0496 C7H6N+ 1 104.0495 1.2
  105.0699 C8H9+ 1 105.0699 0.6
  106.0651 C7H8N+ 1 106.0651 -0.43
  115.0543 C9H7+ 1 115.0542 0.72
  116.0496 C8H6N+ 1 116.0495 1.07
  117.0573 C8H7N+ 1 117.0573 -0.35
  118.0652 C8H8N+ 1 118.0651 0.21
  120.0809 C8H10N+ 1 120.0808 0.7
  125.0152 C7H6Cl+ 1 125.0153 -0.51
  128.0495 C9H6N+ 1 128.0495 0.19
  129.0102 C6H6ClO+ 1 129.0102 0.4
  130.0652 C9H8N+ 1 130.0651 0.49
  131.073 C9H9N+ 1 131.073 0.38
  132.0809 C9H10N+ 1 132.0808 0.87
  134.06 C5H11ClN2+ 1 134.0605 -3.71
  138.0105 C7H5ClN+ 1 138.0105 0.05
  139.0057 C6H4ClN2+ 1 139.0058 -0.23
  140.0263 C7H7ClN+ 1 140.0262 0.9
  145.0762 C9H9N2+ 1 145.076 1.35
  150.0105 C8H5ClN+ 1 150.0105 -0.22
  151.0184 C8H6ClN+ 1 151.0183 0.74
  152.0261 C8H7ClN+ 1 152.0262 -0.15
  153.0341 C8H8ClN+ 1 153.034 0.47
  154.0418 C8H9ClN+ 1 154.0418 -0.28
  158.084 C10H10N2+ 1 158.0838 0.82
  164.0262 C9H7ClN+ 1 164.0262 0.04
  165.0214 C8H6ClN2+ 1 165.0214 0.29
  165.0699 C13H9+ 1 165.0699 0.08
  166.042 C9H9ClN+ 1 166.0418 1.12
  166.0778 C13H10+ 1 166.0777 0.47
  176.0264 C10H7ClN+ 1 176.0262 1.46
  178.0778 C14H10+ 1 178.0777 0.38
  179.037 C9H8ClN2+ 1 179.0371 -0.12
  179.0731 C13H9N+ 1 179.073 0.61
  179.0854 C14H11+ 1 179.0855 -0.71
  180.0449 C9H9ClN2+ 1 180.0449 0.01
  180.0808 C13H10N+ 1 180.0808 -0.03
  181.0886 C13H11N+ 1 181.0886 0.05
  192.0807 C14H10N+ 1 192.0808 -0.13
  193.0887 C14H11N+ 1 193.0886 0.25
  194.0964 C14H12N+ 1 194.0964 0.02
  195.104 C14H13N+ 1 195.1043 -1.13
  201.0463 C13H10Cl+ 1 201.0466 -1.32
  203.0725 C15H9N+ 1 203.073 -2.12
  204.0808 C15H10N+ 1 204.0808 0.12
  205.0887 C15H11N+ 1 205.0886 0.63
  206.0965 C15H12N+ 1 206.0964 0.31
  207.1043 C15H13N+ 1 207.1043 0.33
  208.1126 C15H14N+ 1 208.1121 2.33
  212.0391 C14H9Cl+ 1 212.0387 1.51
  213.0465 C14H10Cl+ 1 213.0466 -0.4
  214.0418 C13H9ClN+ 1 214.0418 -0.06
  216.0577 C13H11ClN+ 1 216.0575 1.23
  217.0888 C16H11N+ 1 217.0886 0.83
  218.0965 C16H12N+ 1 218.0964 0.48
  219.1043 C16H13N+ 1 219.1043 0.41
  220.0998 C15H12N2+ 1 220.0995 1.36
  220.1117 C16H14N+ 1 220.1121 -1.66
  221.1075 C15H13N2+ 1 221.1073 0.88
  226.0417 C14H9ClN+ 1 226.0418 -0.5
  227.0497 C14H10ClN+ 1 227.0496 0.14
  228.0574 C14H11ClN+ 1 228.0575 -0.1
  230.0732 C14H13ClN+ 1 230.0731 0.29
  235.1228 C16H15N2+ 1 235.123 -0.66
  238.0418 C15H9ClN+ 1 238.0418 -0.22
  239.0501 C15H10ClN+ 1 239.0496 1.97
  240.057 C15H11ClN+ 1 240.0575 -1.81
  241.0526 C14H10ClN2+ 1 241.0527 -0.55
  241.0645 C15H12ClN+ 1 241.0653 -3.19
  242.0731 C15H13ClN+ 1 242.0731 0.15
  244.0886 C15H15ClN+ 1 244.0888 -0.63
  252.0572 C16H11ClN+ 1 252.0575 -0.85
  254.0732 C16H13ClN+ 1 254.0731 0.34
  255.0684 C15H12ClN2+ 1 255.0684 0.23
  256.0768 C15H13ClN2+ 1 256.0762 2.63
  269.0847 C16H14ClN2+ 1 269.084 2.59
  271.0997 C16H16ClN2+ 1 271.0997 0.32
PK$NUM_PEAK: 84
PK$PEAK: m/z int. rel.int.
  65.0386 7666246.3 32
  79.0543 3308500.9 13
  89.0384 1551630 6
  90.0465 352944.3 1
  91.0542 237573261.5 999
  95.0491 262987.2 1
  103.0543 1706621.3 7
  104.0496 1135864.1 4
  105.0699 1665025.9 7
  106.0651 2976964.5 12
  115.0543 1348915.6 5
  116.0496 442097.6 1
  117.0573 22978786.3 96
  118.0652 1688690.6 7
  120.0809 310456.6 1
  125.0152 7697616.2 32
  128.0495 451776.7 1
  129.0102 265050.6 1
  130.0652 5080936.2 21
  131.073 10013451.7 42
  132.0809 498705.9 2
  134.06 574033.2 2
  138.0105 1197064.9 5
  139.0057 290981.3 1
  140.0263 1885218.2 7
  145.0762 309040.3 1
  150.0105 422374 1
  151.0184 1494183.5 6
  152.0261 12226298.9 51
  153.0341 1169208.6 4
  154.0418 2355703.8 9
  158.084 518207.3 2
  164.0262 7370215.8 30
  165.0214 79320663.4 333
  165.0699 6180994.8 25
  166.042 2205187.2 9
  166.0778 2879093.6 12
  176.0264 301975.2 1
  178.0778 6971565.3 29
  179.037 8513348.6 35
  179.0731 1220207.9 5
  179.0854 2526031.9 10
  180.0449 20529240.9 86
  180.0808 2993557.6 12
  181.0886 1305517.8 5
  192.0807 4806584.9 20
  193.0887 45097902.1 189
  194.0964 6273389.6 26
  195.104 3394009.7 14
  201.0463 965048.8 4
  203.0725 453434.6 1
  204.0808 3794873.4 15
  205.0887 1711827.4 7
  206.0965 36143351.6 151
  207.1043 153947444.3 647
  208.1126 1100081.2 4
  212.0391 1110207.2 4
  213.0465 361303 1
  214.0418 5899631.6 24
  216.0577 433356.5 1
  217.0888 1064820.8 4
  218.0965 13750542.8 57
  219.1043 5875312.5 24
  220.0998 447673.3 1
  220.1117 325056.7 1
  221.1075 3035079.9 12
  226.0417 322990.6 1
  227.0497 17278292.6 72
  228.0574 30660648.8 128
  230.0732 15748798 66
  235.1228 1764106.6 7
  238.0418 1266640.8 5
  239.0501 315647.5 1
  240.057 897437.2 3
  241.0526 1708430.7 7
  241.0645 457122.7 1
  242.0731 10693289 44
  244.0886 1008907.5 4
  252.0572 450871.9 1
  254.0732 13153734.1 55
  255.0684 3468912.5 14
  256.0768 371752.1 1
  269.0847 489276.1 2
  271.0997 7865803.9 33
//
