ACCESSION: MSBNK-Eawag-EA282712
RECORD_TITLE: Mephedrone; LC-ESI-ITFT; MS2; CE: 75%; R=15000; [M+H]+
DATE: 2014.01.14
AUTHORS: Stravs M, Schymanski E, Singer H, Department of Environmental Chemistry, Eawag
LICENSE: CC BY
COPYRIGHT: Copyright (C) 2012 Eawag, Duebendorf, Switzerland
COMMENT: CONFIDENCE standard compound
COMMENT: EAWAG_UCHEM_ID 2827
CH$NAME: Mephedrone
CH$NAME: 2-(Methylamino)-1-(4-methylphenyl)-1-propanone
CH$NAME: 4-methylmethcathinone
CH$COMPOUND_CLASS: N/A; Environmental Standard
CH$FORMULA: C11H15NO
CH$EXACT_MASS: 177.1154
CH$SMILES: Cc1ccc(cc1)C(=O)C(C)NC
CH$IUPAC: InChI=1S/C11H15NO/c1-8-4-6-10(7-5-8)11(13)9(2)12-3/h4-7,9,12H,1-3H3
CH$LINK: CAS 1189805-46-6
CH$LINK: CHEBI CHEBI:59331
CH$LINK: PUBCHEM CID:45266826
CH$LINK: INCHIKEY YELGFTGWJGBAQU-UHFFFAOYSA-N
CH$LINK: CHEMSPIDER 21485694
CH$LINK: COMPTOX DTXSID20891437
AC$INSTRUMENT: LTQ Orbitrap XL Thermo Scientific
AC$INSTRUMENT_TYPE: LC-ESI-ITFT
AC$MASS_SPECTROMETRY: MS_TYPE MS2
AC$MASS_SPECTROMETRY: ION_MODE POSITIVE
AC$MASS_SPECTROMETRY: IONIZATION ESI
AC$MASS_SPECTROMETRY: FRAGMENTATION_MODE HCD
AC$MASS_SPECTROMETRY: COLLISION_ENERGY 75 % (nominal)
AC$MASS_SPECTROMETRY: RESOLUTION 15000
AC$CHROMATOGRAPHY: COLUMN_NAME XBridge C18 3.5um, 2.1x50mm, Waters
AC$CHROMATOGRAPHY: FLOW_GRADIENT 90/10 at 0 min, 50/50 at 4 min, 5/95 at 17 min, 5/95 at 25 min, 90/10 at 25.1 min, 90/10 at 30 min
AC$CHROMATOGRAPHY: FLOW_RATE 200 ul/min
AC$CHROMATOGRAPHY: RETENTION_TIME 4.3 min
AC$CHROMATOGRAPHY: SOLVENT A water with 0.1% formic acid
AC$CHROMATOGRAPHY: SOLVENT B methanol with 0.1% formic acid
MS$FOCUSED_ION: BASE_PEAK 178.1231
MS$FOCUSED_ION: PRECURSOR_M/Z 178.1226
MS$FOCUSED_ION: PRECURSOR_TYPE [M+H]+
MS$DATA_PROCESSING: DEPROFILE Spline
MS$DATA_PROCESSING: RECALIBRATE loess on assigned fragments and MS1
MS$DATA_PROCESSING: REANALYZE Peaks with additional N2/O included
MS$DATA_PROCESSING: WHOLE RMassBank 1.3.1
PK$SPLASH: splash10-0002-0900000000-5717c7c0504ffa0c6054
PK$ANNOTATION: m/z tentative_formula formula_count mass error(ppm)
  58.0652 C3H8N+ 1 58.0651 0.42
  77.0386 C6H5+ 1 77.0386 0.3
  79.0544 C6H7+ 1 79.0542 2.07
  91.0543 C7H7+ 1 91.0542 0.37
  93.0699 C7H9+ 1 93.0699 -0.29
  103.0543 C8H7+ 1 103.0542 0.52
  104.0622 C8H8+ 1 104.0621 1.81
  105.0698 C8H9+ 1 105.0699 -0.63
  115.0541 C9H7+ 1 115.0542 -0.93
  116.062 C9H8+ 1 116.0621 -0.62
  117.0699 C9H9+ 1 117.0699 0.37
  119.0856 C9H11+ 1 119.0855 0.7
  128.062 C10H8+ 1 128.0621 -0.4
  129.0698 C10H9+ 1 129.0699 -0.44
  130.0652 C9H8N+ 1 130.0651 0.34
  131.0728 C9H9N+ 1 131.073 -1.15
  131.0857 C10H11+ 1 131.0855 1.02
  144.0809 C10H10N+ 1 144.0808 1.14
  145.0887 C10H11N+ 1 145.0886 0.61
  147.0804 C10H11O+ 1 147.0804 -0.21
  158.0965 C11H12N+ 1 158.0964 0.6
  159.1043 C11H13N+ 1 159.1043 0.12
  160.1121 C11H14N+ 1 160.1121 0.34
PK$NUM_PEAK: 23
PK$PEAK: m/z int. rel.int.
  58.0652 64199.1 7
  77.0386 15933.2 1
  79.0544 18195.7 2
  91.0543 351497.2 42
  93.0699 57611.5 6
  103.0543 32015.4 3
  104.0622 25325 3
  105.0698 15364.9 1
  115.0541 13010 1
  116.062 38389.6 4
  117.0699 229416.2 27
  119.0856 1725566.8 208
  128.062 21807.6 2
  129.0698 58904 7
  130.0652 198636.8 23
  131.0728 23067.7 2
  131.0857 39772.3 4
  144.0809 1827179.8 220
  145.0887 8284449.5 999
  147.0804 34286.4 4
  158.0965 60024 7
  159.1043 51086.6 6
  160.1121 1763833.3 212
//
