ACCESSION: MSBNK-Eawag-EA070806
RECORD_TITLE: Propachlor; LC-ESI-ITFT; MS2; CE: 75%; R=7500; [M+H]+
DATE: 2014.01.14
AUTHORS: Stravs M, Schymanski E, Singer H, Department of Environmental Chemistry, Eawag
LICENSE: CC BY
COPYRIGHT: Copyright (C) 2012 Eawag, Duebendorf, Switzerland
COMMENT: CONFIDENCE standard compound
COMMENT: EAWAG_UCHEM_ID 708
CH$NAME: Propachlor
CH$NAME: 2-chloranyl-N-phenyl-N-propan-2-yl-ethanamide
CH$COMPOUND_CLASS: N/A; Environmental Standard
CH$FORMULA: C11H14ClNO
CH$EXACT_MASS: 211.0758
CH$SMILES: CC(C)N(C(=O)CCl)c1ccccc1
CH$IUPAC: InChI=1S/C11H14ClNO/c1-9(2)13(11(14)8-12)10-6-4-3-5-7-10/h3-7,9H,8H2,1-2H3
CH$LINK: CAS 1918-16-7
CH$LINK: PUBCHEM CID:4931
CH$LINK: INCHIKEY MFOUDYKPLGXPGO-UHFFFAOYSA-N
CH$LINK: CHEMSPIDER 4762
CH$LINK: COMPTOX DTXSID4024274
AC$INSTRUMENT: LTQ Orbitrap XL Thermo Scientific
AC$INSTRUMENT_TYPE: LC-ESI-ITFT
AC$MASS_SPECTROMETRY: MS_TYPE MS2
AC$MASS_SPECTROMETRY: ION_MODE POSITIVE
AC$MASS_SPECTROMETRY: IONIZATION ESI
AC$MASS_SPECTROMETRY: FRAGMENTATION_MODE HCD
AC$MASS_SPECTROMETRY: COLLISION_ENERGY 75 % (nominal)
AC$MASS_SPECTROMETRY: RESOLUTION 7500
AC$CHROMATOGRAPHY: COLUMN_NAME XBridge C18 3.5um, 2.1x50mm, Waters
AC$CHROMATOGRAPHY: FLOW_GRADIENT 90/10 at 0 min, 50/50 at 4 min, 5/95 at 17 min, 5/95 at 25 min, 90/10 at 25.1 min, 90/10 at 30 min
AC$CHROMATOGRAPHY: FLOW_RATE 200 ul/min
AC$CHROMATOGRAPHY: RETENTION_TIME 8.6 min
AC$CHROMATOGRAPHY: SOLVENT A water with 0.1% formic acid
AC$CHROMATOGRAPHY: SOLVENT B methanol with 0.1% formic acid
MS$FOCUSED_ION: BASE_PEAK 212.0841
MS$FOCUSED_ION: PRECURSOR_M/Z 212.0837
MS$FOCUSED_ION: PRECURSOR_TYPE [M+H]+
MS$DATA_PROCESSING: DEPROFILE Spline
MS$DATA_PROCESSING: RECALIBRATE loess on assigned fragments and MS1
MS$DATA_PROCESSING: REANALYZE Peaks with additional N2/O included
MS$DATA_PROCESSING: WHOLE RMassBank 1.3.1
PK$SPLASH: splash10-0596-8900000000-241541890120a6df5fea
PK$ANNOTATION: m/z tentative_formula formula_count mass error(ppm)
  75.995 C2H3ClN+ 1 75.9949 1.41
  76.9789 C2H2ClO+ 1 76.9789 0.8
  77.0386 C6H5+ 1 77.0386 0.43
  79.0543 C6H7+ 1 79.0542 1.05
  91.0543 C7H7+ 1 91.0542 1.35
  93.0574 C6H7N+ 1 93.0573 1.18
  94.0652 C6H8N+ 1 94.0651 1
  95.0492 C6H7O+ 2 95.0491 0.3
  105.0447 C6H5N2+ 1 105.0447 -0.04
  106.0652 C7H8N+ 1 106.0651 0.8
  112.0073 C6H5Cl+ 1 112.0074 -1.15
  117.0573 C8H7N+ 1 117.0573 0.34
  125.0156 C7H6Cl+ 1 125.0153 2.45
  134.06 C8H8NO+ 1 134.06 0.07
  152.0263 C11H4O+ 2 152.0257 4.04
  170.0368 C8H9ClNO+ 1 170.0367 0.31
PK$NUM_PEAK: 16
PK$PEAK: m/z int. rel.int.
  75.995 12844.8 4
  76.9789 107404.9 36
  77.0386 227137.2 76
  79.0543 107089.4 36
  91.0543 120940.2 40
  93.0574 29124.1 9
  94.0652 2952807.3 999
  95.0492 322526.4 109
  105.0447 63191.5 21
  106.0652 1642437.9 555
  112.0073 10664.8 3
  117.0573 13744.9 4
  125.0156 24053.4 8
  134.06 117252.5 39
  152.0263 616080.5 208
  170.0368 1571642.2 531
//
