ACCESSION: MSBNK-Eawag-EQ01131058
RECORD_TITLE: Spirotetramat BYI08330-enol; LC-ESI-QFT; MS2; CE: 150%; R=17500; [M-H]-
DATE: 2023.04.27
AUTHORS: B. Beck [dtc,com], J. Hollender [dtc]
LICENSE: CC BY-SA
COPYRIGHT: Copyright (C) Eawag 2023
COMMENT: CONFIDENCE standard compound
COMMENT: UCHEM_ID 11310
CH$NAME: Spirotetramat BYI08330-enol
CH$NAME: Cis-3-(2,5-dimethylphenyl)-4-hydroxy-8-methoxy-1-azaspiro(4.5)dec-3-en-2-one
CH$NAME: 3-(2,5-dimethylphenyl)-4-hydroxy-8-methoxy-1-azaspiro[4.5]dec-3-en-2-one
CH$COMPOUND_CLASS: N/A; Environmental Standard
CH$FORMULA: C18H23NO3
CH$EXACT_MASS: 301.1678
CH$SMILES: CC1=CC(=C(C=C1)C)C2=C(C3(CCC(CC3)OC)NC2=O)O
CH$IUPAC: InChI=1S/C18H23NO3/c1-11-4-5-12(2)14(10-11)15-16(20)18(19-17(15)21)8-6-13(22-3)7-9-18/h4-5,10,13,20H,6-9H2,1-3H3,(H,19,21)
CH$LINK: CHEBI CHEBI:141400
CH$LINK: PUBCHEM CID:54708610
CH$LINK: INCHIKEY IDJJHEIUIYGFDX-UHFFFAOYSA-N
CH$LINK: CHEMSPIDER 23350261
AC$INSTRUMENT: Exploris 240 Orbitrap Thermo Scientific
AC$INSTRUMENT_TYPE: LC-ESI-QFT
AC$MASS_SPECTROMETRY: MS_TYPE MS2
AC$MASS_SPECTROMETRY: ION_MODE NEGATIVE
AC$MASS_SPECTROMETRY: IONIZATION ESI
AC$MASS_SPECTROMETRY: FRAGMENTATION_MODE HCD
AC$MASS_SPECTROMETRY: COLLISION_ENERGY 150 % (nominal)
AC$MASS_SPECTROMETRY: RESOLUTION 17500
AC$MASS_SPECTROMETRY: MASS_RANGE_M/Z 50-327
AC$CHROMATOGRAPHY: COLUMN_NAME XBridge C18 3.5um, 2.1x50mm, Waters
AC$CHROMATOGRAPHY: FLOW_GRADIENT 90/10 at 0 min, 50/50 at 4 min, 5/95 at 17 min, 5/95 at 25 min, 90/10 at 25.1 min, 90/10 at 30 min
AC$CHROMATOGRAPHY: FLOW_RATE 200 uL/min
AC$CHROMATOGRAPHY: RETENTION_TIME 6.525 min
MS$FOCUSED_ION: BASE_PEAK 300.1604
MS$FOCUSED_ION: PRECURSOR_M/Z 300.1605
MS$FOCUSED_ION: PRECURSOR_TYPE [M-H]-
MS$DATA_PROCESSING: RECALIBRATE loess on assigned fragments and MS1
MS$DATA_PROCESSING: REANALYZE Peaks with additional N2/O included
MS$DATA_PROCESSING: WHOLE RMassBank 3.11.0.1
PK$SPLASH: splash10-001j-1900000000-e16d5a7152ae681a4c26
PK$ANNOTATION: m/z tentative_formula formula_count mass error(ppm)
  65.9985 C3NO- 1 65.9985 0.16
  129.0708 C10H9- 1 129.071 -1.17
  130.0424 C9H6O- 1 130.0424 -0.47
  144.0579 C10H8O- 1 144.0581 -1.03
  145.0661 C10H9O- 1 145.0659 1.21
  154.0663 C11H8N- 1 154.0662 0.62
PK$NUM_PEAK: 6
PK$PEAK: m/z int. rel.int.
  65.9985 1472495.2 420
  129.0708 569998.1 162
  130.0424 3501784 999
  144.0579 650381 185
  145.0661 2457693.5 701
  154.0663 666552.8 190
//
