ACCESSION: MSBNK-Eawag-EQ01120112
RECORD_TITLE: Amidithion; LC-ESI-QFT; MS2; CE: 45%; R=17500; [M+H]+
DATE: 2023.04.27
AUTHORS: B. Beck [dtc,com], J. Hollender [dtc]
LICENSE: CC BY-SA
COPYRIGHT: Copyright (C) Eawag 2023
COMMENT: CONFIDENCE standard compound
COMMENT: UCHEM_ID 11201
CH$NAME: Amidithion
CH$NAME: 2-dimethoxyphosphinothioylsulfanyl-N-(2-methoxyethyl)acetamide
CH$COMPOUND_CLASS: N/A; Environmental Standard
CH$FORMULA: C7H16NO4PS2
CH$EXACT_MASS: 273.0258
CH$SMILES: COCCNC(=O)CSP(=S)(OC)OC
CH$IUPAC: InChI=1S/C7H16NO4PS2/c1-10-5-4-8-7(9)6-15-13(14,11-2)12-3/h4-6H2,1-3H3,(H,8,9)
CH$LINK: CAS 919-76-6
CH$LINK: CHEBI CHEBI:82102
CH$LINK: KEGG C18963
CH$LINK: PUBCHEM CID:13525
CH$LINK: INCHIKEY GDTZUQIYUMGJRT-UHFFFAOYSA-N
CH$LINK: CHEMSPIDER 12937
AC$INSTRUMENT: Exploris 240 Orbitrap Thermo Scientific
AC$INSTRUMENT_TYPE: LC-ESI-QFT
AC$MASS_SPECTROMETRY: MS_TYPE MS2
AC$MASS_SPECTROMETRY: ION_MODE POSITIVE
AC$MASS_SPECTROMETRY: IONIZATION ESI
AC$MASS_SPECTROMETRY: FRAGMENTATION_MODE HCD
AC$MASS_SPECTROMETRY: COLLISION_ENERGY 45 % (nominal)
AC$MASS_SPECTROMETRY: RESOLUTION 17500
AC$MASS_SPECTROMETRY: MASS_RANGE_M/Z 50-301
AC$CHROMATOGRAPHY: COLUMN_NAME XBridge C18 3.5um, 2.1x50mm, Waters
AC$CHROMATOGRAPHY: FLOW_GRADIENT 90/10 at 0 min, 50/50 at 4 min, 5/95 at 17 min, 5/95 at 25 min, 90/10 at 25.1 min, 90/10 at 30 min
AC$CHROMATOGRAPHY: FLOW_RATE 200 uL/min
AC$CHROMATOGRAPHY: RETENTION_TIME 4.721 min
MS$FOCUSED_ION: BASE_PEAK 274.0331
MS$FOCUSED_ION: PRECURSOR_M/Z 274.0331
MS$FOCUSED_ION: PRECURSOR_TYPE [M+H]+
MS$DATA_PROCESSING: RECALIBRATE loess on assigned fragments and MS1
MS$DATA_PROCESSING: REANALYZE Peaks with additional N2/O included
MS$DATA_PROCESSING: WHOLE RMassBank 3.11.0.1
PK$SPLASH: splash10-00di-0900000000-470e9218720db14046dc
PK$ANNOTATION: m/z tentative_formula formula_count mass error(ppm)
  59.0491 C3H7O+ 1 59.0491 -0.07
  76.0758 C3H10NO+ 1 76.0757 0.87
  78.9942 CH4O2P+ 1 78.9943 -1.7
  116.0165 C4H6NOS+ 1 116.0165 0.28
  124.9821 C2H6O2PS+ 1 124.9821 0.14
  132.0482 C5H10NOS+ 1 132.0478 3.27
  142.9928 C2H8O3PS+ 1 142.9926 1.08
  156.9542 C2H6O2PS2+ 1 156.9541 0.18
  157.008 C3H10O3PS+ 1 157.0083 -1.7
  170.9698 C3H8O2PS2+ 1 170.9698 0.07
  198.965 C4H8O3PS2+ 1 198.9647 1.33
  209.9813 C5H9NO2PS2+ 1 209.9807 2.83
  242.0069 C6H13NO3PS2+ 1 242.0069 0.01
PK$NUM_PEAK: 13
PK$PEAK: m/z int. rel.int.
  59.0491 27594060 242
  76.0758 3260019 28
  78.9942 1884125.2 16
  116.0165 47024148 413
  124.9821 113485256 999
  132.0482 984126.6 8
  142.9928 22255234 195
  156.9542 14828145 130
  157.008 3632773.2 31
  170.9698 78038872 686
  198.965 19130606 168
  209.9813 2607606.5 22
  242.0069 5051336.5 44
//
