ACCESSION: MSBNK-Eawag-EQ366152
RECORD_TITLE: Ampicillin; LC-ESI-QFT; MS2; CE: 30; R=35000; [M-H]-
DATE: 2015.08.26
AUTHORS: Stravs M, Schymanski E, Singer H, Department of Environmental Chemistry, Eawag and Thomaidis N, University of Athens
LICENSE: CC BY
COPYRIGHT: Copyright (C) 2015 Eawag, Duebendorf, Switzerland
COMMENT: CONFIDENCE standard compound
COMMENT: EAWAG_UCHEM_ID 3661
CH$NAME: Ampicillin
CH$NAME: 2-amino-1-methyl-5-propylideneimidazol-4-one
CH$NAME: 6-[(2-azaniumyl-2-phenylacetyl)amino]-3,3-dimethyl-7-oxo-4-thia-1-azabicyclo[3.2.0]heptane-2-carboxylate
CH$COMPOUND_CLASS: N/A; Environmental Standard
CH$FORMULA: C16H19N3O4S
CH$EXACT_MASS: 349.10963
CH$SMILES: CC1(C(N2C(S1)C(C2=O)NC(=O)C(C3=CC=CC=C3)N)C(=O)O)C
CH$IUPAC: InChI=1S/C16H19N3O4S/c1-16(2)11(15(22)23)19-13(21)10(14(19)24-16)18-12(20)9(17)8-6-4-3-5-7-8/h3-7,9-11,14H,17H2,1-2H3,(H,18,20)(H,22,23)
CH$LINK: CAS 69-53-4
CH$LINK: PUBCHEM CID:2174
CH$LINK: INCHIKEY AVKUERGKIZMTKX-UHFFFAOYSA-N
CH$LINK: CHEMSPIDER 2089
AC$INSTRUMENT: Q Exactive Plus Orbitrap Thermo Scientific
AC$INSTRUMENT_TYPE: LC-ESI-QFT
AC$MASS_SPECTROMETRY: MS_TYPE MS2
AC$MASS_SPECTROMETRY: ION_MODE NEGATIVE
AC$MASS_SPECTROMETRY: IONIZATION ESI
AC$MASS_SPECTROMETRY: FRAGMENTATION_MODE HCD
AC$MASS_SPECTROMETRY: COLLISION_ENERGY 30 (nominal)
AC$MASS_SPECTROMETRY: RESOLUTION 35000
AC$CHROMATOGRAPHY: COLUMN_NAME XBridge C18 3.5um, 2.1x50mm, Waters
AC$CHROMATOGRAPHY: FLOW_GRADIENT 90/10 at 0 min, 50/50 at 4 min, 5/95 at 17 min, 5/95 at 25 min, 90/10 at 25.1 min, 90/10 at 30 min
AC$CHROMATOGRAPHY: FLOW_RATE 200 ul/min
AC$CHROMATOGRAPHY: RETENTION_TIME 4.7 min
AC$CHROMATOGRAPHY: SOLVENT A water with 0.1% formic acid
AC$CHROMATOGRAPHY: SOLVENT B methanol with 0.1% formic acid
MS$FOCUSED_ION: BASE_PEAK 348.1025
MS$FOCUSED_ION: PRECURSOR_M/Z 348.1024
MS$FOCUSED_ION: PRECURSOR_TYPE [M-H]-
MS$DATA_PROCESSING: RECALIBRATE loess on assigned fragments and MS1
MS$DATA_PROCESSING: REANALYZE Peaks with additional N2/O included
MS$DATA_PROCESSING: WHOLE RMassBank 1.9.6
PK$SPLASH: splash10-0a4i-2090000000-287a6186b1f6a8e6d368
PK$ANNOTATION: m/z tentative_formula formula_count mass error(ppm)
  71.9915 C2H2NS- 1 71.9913 2.45
  72.9992 C2H3NS- 1 72.9992 0.98
  74.0072 C2H4NS- 1 74.007 2.79
  83.9914 C3H2NS- 1 83.9913 0.67
  99.9863 C3H2NOS- 1 99.9863 0.22
  134.0613 C8H8NO- 1 134.0611 1.14
  164.0539 C9H10NS- 1 164.0539 -0.15
  171.0601 C7H11N2OS- 1 171.0598 2.29
  173.0722 C10H9N2O- 2 173.072 1.12
  180.0492 C9H10NOS- 1 180.0489 1.9
  181.0445 C8H9N2OS- 1 181.0441 1.95
  189.0495 C10H9N2S- 1 189.0492 1.47
  207.06 C10H11N2OS- 1 207.0598 1.41
  304.1133 C15H18N3O2S- 1 304.1125 2.66
PK$NUM_PEAK: 14
PK$PEAK: m/z int. rel.int.
  71.9915 49451.3 7
  72.9992 12378.1 1
  74.0072 1844051.9 286
  83.9914 64971.1 10
  99.9863 13585.8 2
  134.0613 31740.7 4
  164.0539 9899.7 1
  171.0601 84823.6 13
  173.0722 487024.3 75
  180.0492 7597.7 1
  181.0445 8944.1 1
  189.0495 28858.5 4
  207.06 6435367 999
  304.1133 17315.9 2
//
