ACCESSION: MSBNK-Eawag-EQ01124507
RECORD_TITLE: Ethiofencarb Sulfoxide; LC-ESI-QFT; MS2; CE: 120%; R=17500; [M+H]+
DATE: 2023.04.27
AUTHORS: B. Beck [dtc,com], J. Hollender [dtc]
LICENSE: CC BY-SA
COPYRIGHT: Copyright (C) Eawag 2023
COMMENT: CONFIDENCE standard compound
COMMENT: UCHEM_ID 11245
CH$NAME: Ethiofencarb Sulfoxide
CH$NAME: 2-(Ethylsulfinylmethyl)phenyl methylcarbamate
CH$NAME: [2-(ethylsulfinylmethyl)phenyl] N-methylcarbamate
CH$COMPOUND_CLASS: N/A; Environmental Standard
CH$FORMULA: C11H15NO3S
CH$EXACT_MASS: 241.0773
CH$SMILES: CCS(=O)CC1=CC=CC=C1OC(=O)NC
CH$IUPAC: InChI=1S/C11H15NO3S/c1-3-16(14)8-9-6-4-5-7-10(9)15-11(13)12-2/h4-7H,3,8H2,1-2H3,(H,12,13)
CH$LINK: CAS 53380-22-6
CH$LINK: CHEBI CHEBI:172480
CH$LINK: PUBCHEM CID:3035207
CH$LINK: INCHIKEY OMOLDRXZKFFGJI-UHFFFAOYSA-N
CH$LINK: CHEMSPIDER 2299504
AC$INSTRUMENT: Exploris 240 Orbitrap Thermo Scientific
AC$INSTRUMENT_TYPE: LC-ESI-QFT
AC$MASS_SPECTROMETRY: MS_TYPE MS2
AC$MASS_SPECTROMETRY: ION_MODE POSITIVE
AC$MASS_SPECTROMETRY: IONIZATION ESI
AC$MASS_SPECTROMETRY: FRAGMENTATION_MODE HCD
AC$MASS_SPECTROMETRY: COLLISION_ENERGY 120 % (nominal)
AC$MASS_SPECTROMETRY: RESOLUTION 17500
AC$MASS_SPECTROMETRY: MASS_RANGE_M/Z 50-268
AC$CHROMATOGRAPHY: COLUMN_NAME XBridge C18 3.5um, 2.1x50mm, Waters
AC$CHROMATOGRAPHY: FLOW_GRADIENT 90/10 at 0 min, 50/50 at 4 min, 5/95 at 17 min, 5/95 at 25 min, 90/10 at 25.1 min, 90/10 at 30 min
AC$CHROMATOGRAPHY: FLOW_RATE 200 uL/min
AC$CHROMATOGRAPHY: RETENTION_TIME 3.584 min
MS$FOCUSED_ION: BASE_PEAK 242.0845
MS$FOCUSED_ION: PRECURSOR_M/Z 242.0845
MS$FOCUSED_ION: PRECURSOR_TYPE [M+H]+
MS$DATA_PROCESSING: RECALIBRATE loess on assigned fragments and MS1
MS$DATA_PROCESSING: REANALYZE Peaks with additional N2/O included
MS$DATA_PROCESSING: WHOLE RMassBank 3.11.0.1
PK$SPLASH: splash10-004i-9200000000-e498049d841a91b62336
PK$ANNOTATION: m/z tentative_formula formula_count mass error(ppm)
  51.0229 C4H3+ 1 51.0229 -0.56
  53.0386 C4H5+ 1 53.0386 -0.17
  55.0177 C3H3O+ 1 55.0178 -1.95
  58.0287 C2H4NO+ 1 58.0287 -0.6
  77.0386 C6H5+ 1 77.0386 -0.04
  79.0542 C6H7+ 1 79.0542 -0.06
  81.0335 C5H5O+ 1 81.0335 0.23
  94.0415 C6H6O+ 1 94.0413 1.48
  95.0491 C6H7O+ 1 95.0491 0.05
  107.0491 C7H7O+ 1 107.0491 0
PK$NUM_PEAK: 10
PK$PEAK: m/z int. rel.int.
  51.0229 6667570 94
  53.0386 18299576 259
  55.0177 940997.1 13
  58.0287 2978612.8 42
  77.0386 70451048 999
  79.0542 47421772 672
  81.0335 1116763.4 15
  94.0415 825057.6 11
  95.0491 18531210 262
  107.0491 39275780 556
//
