ACCESSION: MSBNK-Eawag-EQ01154204
RECORD_TITLE: 2-Hydroxytrimipramine; LC-ESI-QFT; MS2; CE: 60%; R=17500; [M+H]+
DATE: 2024.05.08
AUTHORS: C. Meyer [dtc], B. Beck [dtc,com], J. Hollender [dtc]
LICENSE: CC BY-SA
COPYRIGHT: Copyright (C) Eawag 2023
PUBLICATION: Meyer, C., Stravs, M., Hollender, J.. How Wastewater Reflects Human Metabolism - Suspect Screening of Pharmaceutical Metabolites in Wastewater Influent. doi:10.1021/acs.est.4c00968
COMMENT: CONFIDENCE standard compound
COMMENT: UCHEM_ID 11542
CH$NAME: 2-Hydroxytrimipramine
CH$NAME: 11-[3-(dimethylamino)-2-methylpropyl]-5,6-dihydrobenzo[b][1]benzazepin-3-ol
CH$COMPOUND_CLASS: N/A; Environmental Standard
CH$FORMULA: C20H26N2O
CH$EXACT_MASS: 310.2045135
CH$SMILES: CC(CN1C2=C(CCC3=CC=CC=C31)C=C(C=C2)O)CN(C)C
CH$IUPAC: InChI=1S/C20H26N2O/c1-15(13-21(2)3)14-22-19-7-5-4-6-16(19)8-9-17-12-18(23)10-11-20(17)22/h4-7,10-12,15,23H,8-9,13-14H2,1-3H3
CH$LINK: PUBCHEM CID:160610
CH$LINK: INCHIKEY FQJSSUOYVSEYPF-UHFFFAOYSA-N
CH$LINK: CHEMSPIDER 141133
AC$INSTRUMENT: Exploris 240 Orbitrap Thermo Scientific
AC$INSTRUMENT_TYPE: LC-ESI-QFT
AC$MASS_SPECTROMETRY: MS_TYPE MS2
AC$MASS_SPECTROMETRY: ION_MODE POSITIVE
AC$MASS_SPECTROMETRY: IONIZATION ESI
AC$MASS_SPECTROMETRY: FRAGMENTATION_MODE HCD
AC$MASS_SPECTROMETRY: COLLISION_ENERGY 60 % (nominal)
AC$MASS_SPECTROMETRY: RESOLUTION 17500
AC$MASS_SPECTROMETRY: MASS_RANGE_M/Z 50-338
AC$CHROMATOGRAPHY: COLUMN_NAME XBridge C18 3.5um, 2.1x50mm, Waters
AC$CHROMATOGRAPHY: FLOW_GRADIENT 90/10 at 0 min, 50/50 at 4 min, 5/95 at 17 min, 5/95 at 25 min, 90/10 at 25.1 min, 90/10 at 30 min
AC$CHROMATOGRAPHY: FLOW_RATE 200 uL/min
AC$CHROMATOGRAPHY: RETENTION_TIME 6.165 min
MS$FOCUSED_ION: BASE_PEAK 311.2116
MS$FOCUSED_ION: PRECURSOR_M/Z 311.2118
MS$FOCUSED_ION: PRECURSOR_TYPE [M+H]+
MS$DATA_PROCESSING: RECALIBRATE loess on assigned fragments and MS1
MS$DATA_PROCESSING: REANALYZE Peaks with additional N2/O included
MS$DATA_PROCESSING: WHOLE RMassBank 3.15.1
PK$SPLASH: splash10-0pb9-9620000000-ae2d233a6b05bcefa66b
PK$ANNOTATION: m/z tentative_formula formula_count mass error(ppm)
  58.0651 C3H8N+ 1 58.0651 -0.12
  100.1121 C6H14N+ 1 100.1121 0
  209.0836 C14H11NO+ 1 209.0835 0.41
  211.0992 C14H13NO+ 1 211.0992 0.12
  224.1071 C15H14NO+ 1 224.107 0.46
PK$NUM_PEAK: 5
PK$PEAK: m/z int. rel.int.
  58.0651 118014528 999
  100.1121 86287608 730
  209.0836 8309341 70
  211.0992 802528 6
  224.1071 20063404 169
//
