ACCESSION: MSBNK-Eawag-EA030208
RECORD_TITLE: Irgarol; LC-ESI-ITFT; MS2; CE: 15%; R=15000; [M+H]+
DATE: 2014.01.14
AUTHORS: Stravs M, Schymanski E, Singer H, Department of Environmental Chemistry, Eawag
LICENSE: CC BY
COPYRIGHT: Copyright (C) 2012 Eawag, Duebendorf, Switzerland
COMMENT: CONFIDENCE standard compound
COMMENT: EAWAG_UCHEM_ID 302
CH$NAME: Irgarol
CH$NAME: 2-N-tert-butyl-4-N-cyclopropyl-6-methylsulfanyl-1,3,5-triazine-2,4-diamine
CH$COMPOUND_CLASS: N/A; Environmental Standard
CH$FORMULA: C11H19N5S
CH$EXACT_MASS: 253.1356
CH$SMILES: c1(nc(NC(C)(C)C)nc(n1)SC)NC1CC1
CH$IUPAC: InChI=1S/C11H19N5S/c1-11(2,3)16-9-13-8(12-7-5-6-7)14-10(15-9)17-4/h7H,5-6H2,1-4H3,(H2,12,13,14,15,16)
CH$LINK: CAS 28159-98-0
CH$LINK: CHEBI CHEBI:5962
CH$LINK: KEGG C10927
CH$LINK: PUBCHEM CID:91590
CH$LINK: INCHIKEY HDHLIWCXDDZUFH-UHFFFAOYSA-N
CH$LINK: CHEMSPIDER 82701
CH$LINK: COMPTOX DTXSID3032416
AC$INSTRUMENT: LTQ Orbitrap XL Thermo Scientific
AC$INSTRUMENT_TYPE: LC-ESI-ITFT
AC$MASS_SPECTROMETRY: MS_TYPE MS2
AC$MASS_SPECTROMETRY: ION_MODE POSITIVE
AC$MASS_SPECTROMETRY: IONIZATION ESI
AC$MASS_SPECTROMETRY: FRAGMENTATION_MODE HCD
AC$MASS_SPECTROMETRY: COLLISION_ENERGY 15 % (nominal)
AC$MASS_SPECTROMETRY: RESOLUTION 15000
AC$CHROMATOGRAPHY: COLUMN_NAME XBridge C18 3.5um, 2.1x50mm, Waters
AC$CHROMATOGRAPHY: FLOW_GRADIENT 90/10 at 0 min, 50/50 at 4 min, 5/95 at 17 min, 5/95 at 25 min, 90/10 at 25.1 min, 90/10 at 30 min
AC$CHROMATOGRAPHY: FLOW_RATE 200 ul/min
AC$CHROMATOGRAPHY: RETENTION_TIME 9.2 min
AC$CHROMATOGRAPHY: SOLVENT A water with 0.1% formic acid
AC$CHROMATOGRAPHY: SOLVENT B methanol with 0.1% formic acid
MS$FOCUSED_ION: BASE_PEAK 254.1437
MS$FOCUSED_ION: PRECURSOR_M/Z 254.1434
MS$FOCUSED_ION: PRECURSOR_TYPE [M+H]+
MS$DATA_PROCESSING: DEPROFILE Spline
MS$DATA_PROCESSING: RECALIBRATE loess on assigned fragments and MS1
MS$DATA_PROCESSING: REANALYZE Peaks with additional N2/O included
MS$DATA_PROCESSING: WHOLE RMassBank 1.3.1
PK$SPLASH: splash10-0udi-0090000000-4e09428c716f80f70454
PK$ANNOTATION: m/z tentative_formula formula_count mass error(ppm)
  198.0805 C7H12N5S+ 1 198.0808 -1.23
  254.1433 C11H20N5S+ 1 254.1434 -0.21
PK$NUM_PEAK: 2
PK$PEAK: m/z int. rel.int.
  198.0805 142398.2 14
  254.1433 9838596.9 999
//
