ACCESSION: MSBNK-Eawag-EQ00355454
RECORD_TITLE: Triasulfuron; LC-ESI-QFT; MS2; CE: 60%; R=15000; [M-H]-
DATE: 2024.06.14
AUTHORS: F. Jud [dtc], K. Arturi [dtc], J. Hollender [dtc], A. Dax [com]
LICENSE: CC BY-SA
COPYRIGHT: Copyright (C) Eawag 2024
COMMENT: CONFIDENCE standard compound
COMMENT: UCHEM_ID 3554
CH$NAME: Triasulfuron
CH$NAME: 1-[2-(2-chloroethoxy)phenyl]sulfonyl-3-(4-methoxy-6-methyl-1,3,5-triazin-2-yl)urea
CH$COMPOUND_CLASS: N/A
CH$FORMULA: C14H16ClN5O5S
CH$EXACT_MASS: 401.0560673
CH$SMILES: CC1=NC(=NC(=N1)OC)NC(=O)NS(=O)(=O)C2=CC=CC=C2OCCCl
CH$IUPAC: InChI=1S/C14H16ClN5O5S/c1-9-16-12(19-14(17-9)24-2)18-13(21)20-26(22,23)11-6-4-3-5-10(11)25-8-7-15/h3-6H,7-8H2,1-2H3,(H2,16,17,18,19,20,21)
CH$LINK: CAS 86725-08-8
CH$LINK: CHEBI CHEBI:9673
CH$LINK: KEGG C10961
CH$LINK: PUBCHEM CID:73282
CH$LINK: INCHIKEY XOPFESVZMSQIKC-UHFFFAOYSA-N
CH$LINK: CHEMSPIDER 66025
AC$INSTRUMENT: Exploris 240 Thermo Scientific
AC$INSTRUMENT_TYPE: LC-ESI-QFT
AC$MASS_SPECTROMETRY: MS_TYPE MS2
AC$MASS_SPECTROMETRY: ION_MODE NEGATIVE
AC$MASS_SPECTROMETRY: IONIZATION ESI
AC$MASS_SPECTROMETRY: FRAGMENTATION_MODE HCD
AC$MASS_SPECTROMETRY: COLLISION_ENERGY 60 % (nominal)
AC$MASS_SPECTROMETRY: RESOLUTION 15000
AC$MASS_SPECTROMETRY: MASS_RANGE_M/Z 50-429
AC$CHROMATOGRAPHY: COLUMN_NAME XBridge C18 3.5um, 2.1x50mm, Waters
AC$CHROMATOGRAPHY: FLOW_GRADIENT 90/10 at 0 min, 50/50 at 4 min, 5/95 at 17 min, 5/95 at 25 min, 90/10 at 25.1 min, 90/10 at 30 min
AC$CHROMATOGRAPHY: FLOW_RATE 200 uL/min
AC$CHROMATOGRAPHY: RETENTION_TIME 5.577 min
MS$FOCUSED_ION: BASE_PEAK 400.049
MS$FOCUSED_ION: PRECURSOR_M/Z 400.0488
MS$FOCUSED_ION: PRECURSOR_TYPE [M-H]-
MS$DATA_PROCESSING: RECALIBRATE loess on assigned fragments and MS1
MS$DATA_PROCESSING: REANALYZE Peaks with additional N2/O included
MS$DATA_PROCESSING: WHOLE RMassBank 3.15.1.1
PK$SPLASH: splash10-000i-0900000000-e3cb13e7ca6f20d4fbc7
PK$ANNOTATION: m/z tentative_formula formula_count mass error(ppm)
  55.0302 C2H3N2- 1 55.0302 0.61
  66.0097 C2N3- 1 66.0098 -0.62
  82.041 C3H4N3- 1 82.0411 -0.48
  107.0364 C4H3N4- 1 107.0363 0.4
  109.0521 C4H5N4- 1 109.052 0.78
  124.0391 C4H4N4O- 2 124.0391 0.46
  139.0626 C5H7N4O- 2 139.0625 0.58
PK$NUM_PEAK: 7
PK$PEAK: m/z int. rel.int.
  55.0302 1255629.6 28
  66.0097 755700.9 16
  82.041 2278310.2 51
  107.0364 4183471.8 93
  109.0521 691914.9 15
  124.0391 802185.1 18
  139.0626 44468740 999
//
