ACCESSION: MSBNK-Eawag-EA293602
RECORD_TITLE: Iprovalicarb; LC-ESI-ITFT; MS2; CE: 15%; R=7500; [M+H]+
DATE: 2014.01.14
AUTHORS: Stravs M, Schymanski E, Singer H, Department of Environmental Chemistry, Eawag
LICENSE: CC BY
COPYRIGHT: Copyright (C) 2012 Eawag, Duebendorf, Switzerland
COMMENT: CONFIDENCE standard compound
COMMENT: EAWAG_UCHEM_ID 2936
CH$NAME: Iprovalicarb
CH$NAME: Isopropyl (3-methyl-1-{[(1S)-1-(4-methylphenyl)ethyl]amino}-1-oxo-2-butanyl)carbamate
CH$COMPOUND_CLASS: N/A; Environmental Standard
CH$FORMULA: C18H28N2O3
CH$EXACT_MASS: 320.2100
CH$SMILES: CC(C)OC(=O)NC(C(=O)N[C@@H](C)c1ccc(C)cc1)C(C)C
CH$IUPAC: InChI=1S/C18H28N2O3/c1-11(2)16(20-18(22)23-12(3)4)17(21)19-14(6)15-9-7-13(5)8-10-15/h7-12,14,16H,1-6H3,(H,19,21)(H,20,22)/t14-,16?/m0/s1
CH$LINK: CAS 140923-17-7
CH$LINK: PUBCHEM CID:178565
CH$LINK: INCHIKEY NWUWYYSKZYIQAE-LBAUFKAWSA-N
CH$LINK: CHEMSPIDER 155431
AC$INSTRUMENT: LTQ Orbitrap XL Thermo Scientific
AC$INSTRUMENT_TYPE: LC-ESI-ITFT
AC$MASS_SPECTROMETRY: MS_TYPE MS2
AC$MASS_SPECTROMETRY: ION_MODE POSITIVE
AC$MASS_SPECTROMETRY: IONIZATION ESI
AC$MASS_SPECTROMETRY: FRAGMENTATION_MODE HCD
AC$MASS_SPECTROMETRY: COLLISION_ENERGY 15 % (nominal)
AC$MASS_SPECTROMETRY: RESOLUTION 7500
AC$CHROMATOGRAPHY: COLUMN_NAME XBridge C18 3.5um, 2.1x50mm, Waters
AC$CHROMATOGRAPHY: FLOW_GRADIENT 90/10 at 0 min, 50/50 at 4 min, 5/95 at 17 min, 5/95 at 25 min, 90/10 at 25.1 min, 90/10 at 30 min
AC$CHROMATOGRAPHY: FLOW_RATE 200 ul/min
AC$CHROMATOGRAPHY: RETENTION_TIME 11.4 min
AC$CHROMATOGRAPHY: SOLVENT A water with 0.1% formic acid
AC$CHROMATOGRAPHY: SOLVENT B methanol with 0.1% formic acid
MS$FOCUSED_ION: BASE_PEAK 321.2181
MS$FOCUSED_ION: PRECURSOR_M/Z 321.2173
MS$FOCUSED_ION: PRECURSOR_TYPE [M+H]+
MS$DATA_PROCESSING: DEPROFILE Spline
MS$DATA_PROCESSING: RECALIBRATE loess on assigned fragments and MS1
MS$DATA_PROCESSING: REANALYZE Peaks with additional N2/O included
MS$DATA_PROCESSING: WHOLE RMassBank 1.3.1
PK$SPLASH: splash10-014i-0910000000-0999dc1cba5fb634caf6
PK$ANNOTATION: m/z tentative_formula formula_count mass error(ppm)
  72.0809 C4H10N+ 1 72.0808 1.17
  91.0542 C7H7+ 1 91.0542 0.15
  98.0601 C5H8NO+ 1 98.06 0.81
  116.0708 C5H10NO2+ 1 116.0706 1.68
  117.0693 C9H9+ 1 117.0699 -4.58
  117.1023 C5H13N2O+ 1 117.1022 0.86
  119.0856 C9H11+ 1 119.0855 0.45
  136.1123 C9H14N+ 1 136.1121 1.87
  144.0657 C6H10NO3+ 1 144.0655 1.18
  158.1177 C8H16NO2+ 1 158.1176 1.17
  161.0922 C6H13N2O3+ 1 161.0921 0.63
  186.1127 C9H16NO3+ 1 186.1125 1.24
  203.1392 C9H19N2O3+ 1 203.139 0.84
  235.1807 C14H23N2O+ 1 235.1805 0.72
  321.2174 C18H29N2O3+ 1 321.2173 0.47
PK$NUM_PEAK: 15
PK$PEAK: m/z int. rel.int.
  72.0809 131266 8
  91.0542 71082.9 4
  98.0601 264054.3 16
  116.0708 5683920.4 356
  117.0693 68930.3 4
  117.1023 464835.8 29
  119.0856 15942508.8 999
  136.1123 80494.5 5
  144.0657 4159301.2 260
  158.1177 659762.1 41
  161.0922 132281.6 8
  186.1127 5110255.5 320
  203.1392 5362552.2 336
  235.1807 83316.3 5
  321.2174 2742897.7 171
//
