ACCESSION: MSBNK-Eawag-EQ01126753
RECORD_TITLE: Halosulfuron-Methyl; LC-ESI-QFT; MS2; CE: 45%; R=17500; [M-H]-
DATE: 2023.04.27
AUTHORS: B. Beck [dtc,com], J. Hollender [dtc]
LICENSE: CC BY-SA
COPYRIGHT: Copyright (C) Eawag 2023
COMMENT: CONFIDENCE standard compound
COMMENT: UCHEM_ID 11267
CH$NAME: Halosulfuron-Methyl
CH$NAME: methyl 3-chloro-5-[(4,6-dimethoxypyrimidin-2-yl)carbamoylsulfamoyl]-1-methylpyrazole-4-carboxylate
CH$COMPOUND_CLASS: N/A; Environmental Standard
CH$FORMULA: C13H15ClN6O7S
CH$EXACT_MASS: 434.0411
CH$SMILES: CN1C(=C(C(=N1)Cl)C(=O)OC)S(=O)(=O)NC(=O)NC2=NC(=CC(=N2)OC)OC
CH$IUPAC: InChI=1S/C13H15ClN6O7S/c1-20-10(8(9(14)18-20)11(21)27-4)28(23,24)19-13(22)17-12-15-6(25-2)5-7(16-12)26-3/h5H,1-4H3,(H2,15,16,17,19,22)
CH$LINK: CAS 100784-20-1
CH$LINK: CHEBI CHEBI:81750
CH$LINK: KEGG C18442
CH$LINK: PUBCHEM CID:91763
CH$LINK: INCHIKEY FMGZEUWROYGLAY-UHFFFAOYSA-N
CH$LINK: CHEMSPIDER 82861
AC$INSTRUMENT: Exploris 240 Orbitrap Thermo Scientific
AC$INSTRUMENT_TYPE: LC-ESI-QFT
AC$MASS_SPECTROMETRY: MS_TYPE MS2
AC$MASS_SPECTROMETRY: ION_MODE NEGATIVE
AC$MASS_SPECTROMETRY: IONIZATION ESI
AC$MASS_SPECTROMETRY: FRAGMENTATION_MODE HCD
AC$MASS_SPECTROMETRY: COLLISION_ENERGY 45 % (nominal)
AC$MASS_SPECTROMETRY: RESOLUTION 17500
AC$MASS_SPECTROMETRY: MASS_RANGE_M/Z 50-463
AC$CHROMATOGRAPHY: COLUMN_NAME XBridge C18 3.5um, 2.1x50mm, Waters
AC$CHROMATOGRAPHY: FLOW_GRADIENT 90/10 at 0 min, 50/50 at 4 min, 5/95 at 17 min, 5/95 at 25 min, 90/10 at 25.1 min, 90/10 at 30 min
AC$CHROMATOGRAPHY: FLOW_RATE 200 uL/min
AC$CHROMATOGRAPHY: RETENTION_TIME 10.035 min
MS$FOCUSED_ION: BASE_PEAK 433.0339
MS$FOCUSED_ION: PRECURSOR_M/Z 433.0339
MS$FOCUSED_ION: PRECURSOR_TYPE [M-H]-
MS$DATA_PROCESSING: RECALIBRATE loess on assigned fragments and MS1
MS$DATA_PROCESSING: REANALYZE Peaks with additional N2/O included
MS$DATA_PROCESSING: WHOLE RMassBank 3.11.0.1
PK$SPLASH: splash10-0ufr-9730000000-7431dcc5b5304c362900
PK$ANNOTATION: m/z tentative_formula formula_count mass error(ppm)
  65.0145 C3HN2- 1 65.0145 0.13
  65.9986 C3NO- 1 65.9985 1.54
  77.9655 NO2S- 1 77.9655 0.28
  107.0126 C4HN3O- 2 107.0125 0.48
  122.036 C5H4N3O- 2 122.036 0.26
  124.0517 C5H6N3O- 2 124.0516 0.44
  139.0387 C5H5N3O2- 2 139.0387 -0.26
  154.0622 C6H8N3O2- 3 154.0622 -0.01
  188.023 C6H7ClN3O2- 4 188.0232 -1.04
  189.0072 C9H3NO4- 4 189.0068 2.39
  219.9588 C5H3ClN3O3S- 2 219.9589 -0.42
  251.9851 C6H7ClN3O4S- 4 251.9851 -0.04
PK$NUM_PEAK: 12
PK$PEAK: m/z int. rel.int.
  65.0145 1509185 34
  65.9986 537542.6 12
  77.9655 44231720 999
  107.0126 410278.5 9
  122.036 2196915 49
  124.0517 436667.7 9
  139.0387 1334991.6 30
  154.0622 31569162 713
  188.023 3087929.2 69
  189.0072 305988.4 6
  219.9588 2453850.8 55
  251.9851 18022160 407
//
