ACCESSION: MSBNK-Eawag-EQ338452
RECORD_TITLE: 3-[(4-chlorobenzoyl)amino]propanoic acid; LC-ESI-QFT; MS2; CE: 30; R=35000; [M-H]-
DATE: 2015.08.26
AUTHORS: Beck B, Stravs M, Schymanski E, Singer H, Department of Environmental Chemistry, Eawag
LICENSE: CC BY
COPYRIGHT: Copyright (C) 2015 Eawag, Duebendorf, Switzerland
COMMENT: CONFIDENCE standard compound
COMMENT: EAWAG_UCHEM_ID 3384
CH$NAME: 3-[(4-chlorobenzoyl)amino]propanoic acid
CH$NAME: N-(4-Chlorobenzoyl)-Beta-alanine
CH$COMPOUND_CLASS: N/A; Environmental Standard
CH$FORMULA: C10H10ClNO3
CH$EXACT_MASS: 227.03492
CH$SMILES: C1=CC(=CC=C1C(=O)NCCC(=O)O)Cl
CH$IUPAC: InChI=1S/C10H10ClNO3/c11-8-3-1-7(2-4-8)10(15)12-6-5-9(13)14/h1-4H,5-6H2,(H,12,15)(H,13,14)
CH$LINK: PUBCHEM CID:1235725
CH$LINK: INCHIKEY ZCGLNFAUVVHTQO-UHFFFAOYSA-N
CH$LINK: CHEMSPIDER 1038460
CH$LINK: COMPTOX DTXSID80891493
AC$INSTRUMENT: Q Exactive Plus Orbitrap Thermo Scientific
AC$INSTRUMENT_TYPE: LC-ESI-QFT
AC$MASS_SPECTROMETRY: MS_TYPE MS2
AC$MASS_SPECTROMETRY: ION_MODE NEGATIVE
AC$MASS_SPECTROMETRY: IONIZATION ESI
AC$MASS_SPECTROMETRY: FRAGMENTATION_MODE HCD
AC$MASS_SPECTROMETRY: COLLISION_ENERGY 30 (nominal)
AC$MASS_SPECTROMETRY: RESOLUTION 35000
AC$CHROMATOGRAPHY: COLUMN_NAME XBridge C18 3.5um, 2.1x50mm, Waters
AC$CHROMATOGRAPHY: FLOW_GRADIENT 90/10 at 0 min, 50/50 at 4 min, 5/95 at 17 min, 5/95 at 25 min, 90/10 at 25.1 min, 90/10 at 30 min
AC$CHROMATOGRAPHY: FLOW_RATE 200 ul/min
AC$CHROMATOGRAPHY: RETENTION_TIME 6.1 min
AC$CHROMATOGRAPHY: SOLVENT A water with 0.1% formic acid
AC$CHROMATOGRAPHY: SOLVENT B methanol with 0.1% formic acid
MS$FOCUSED_ION: BASE_PEAK 226.0275
MS$FOCUSED_ION: PRECURSOR_M/Z 226.0276
MS$FOCUSED_ION: PRECURSOR_TYPE [M-H]-
MS$DATA_PROCESSING: RECALIBRATE loess on assigned fragments and MS1
MS$DATA_PROCESSING: REANALYZE Peaks with additional N2/O included
MS$DATA_PROCESSING: WHOLE RMassBank 1.9.6
PK$SPLASH: splash10-0udi-0930000000-be99adcd9fad222b1d50
PK$ANNOTATION: m/z tentative_formula formula_count mass error(ppm)
  59.0138 C2H3O2- 1 59.0139 -0.73
  71.0139 C3H3O2- 1 71.0139 1.23
  111.0005 C6H4Cl- 1 111.0007 -1.54
  154.0066 C7H5ClNO- 2 154.0065 0.29
  155.0098 C5H3N2O4- 2 155.0098 -0.26
  182.0382 C9H9ClNO- 1 182.0378 2.06
  226.0278 C10H9ClNO3- 1 226.0276 0.78
PK$NUM_PEAK: 7
PK$PEAK: m/z int. rel.int.
  59.0138 274930.7 1
  71.0139 4256437 25
  111.0005 244695.8 1
  154.0066 166293008 999
  155.0098 278532.3 1
  182.0382 480074.1 2
  226.0278 56872276 341
//
