ACCESSION: MSBNK-Eawag-EQ330402
RECORD_TITLE: Adenosine; LC-ESI-QFT; MS2; CE: 30; R=35000; [M+H]+
DATE: 2015.08.25
AUTHORS: Otto J, Stravs M, Schymanski E, Singer H, Department of Environmental Chemistry, Eawag
LICENSE: CC BY
COPYRIGHT: Copyright (C) 2015 Eawag, Duebendorf, Switzerland
COMMENT: CONFIDENCE standard compound
COMMENT: EAWAG_UCHEM_ID 3304
CH$NAME: Adenosine
CH$NAME: (2R,3R,4S,5R)-2-(6-aminopurin-9-yl)-5-(hydroxymethyl)oxolane-3,4-diol
CH$COMPOUND_CLASS: N/A; Environmental Standard
CH$FORMULA: C10H13N5O4
CH$EXACT_MASS: 267.09675
CH$SMILES: C1=NC(=C2C(=N1)N(C=N2)[C@H]3[C@@H]([C@@H]([C@H](O3)CO)O)O)N
CH$IUPAC: InChI=1S/C10H13N5O4/c11-8-5-9(13-2-12-8)15(3-14-5)10-7(18)6(17)4(1-16)19-10/h2-4,6-7,10,16-18H,1H2,(H2,11,12,13)/t4-,6-,7-,10-/m1/s1
CH$LINK: CAS 58-61-7
CH$LINK: KEGG C00212
CH$LINK: PUBCHEM CID:60961
CH$LINK: INCHIKEY OIRDTQYFTABQOQ-KQYNXXCUSA-N
CH$LINK: CHEMSPIDER 54923
CH$LINK: COMPTOX DTXSID1022558
AC$INSTRUMENT: Q Exactive Orbitrap Thermo Scientific
AC$INSTRUMENT_TYPE: LC-ESI-QFT
AC$MASS_SPECTROMETRY: MS_TYPE MS2
AC$MASS_SPECTROMETRY: ION_MODE POSITIVE
AC$MASS_SPECTROMETRY: IONIZATION ESI
AC$MASS_SPECTROMETRY: FRAGMENTATION_MODE HCD
AC$MASS_SPECTROMETRY: COLLISION_ENERGY 30 (nominal)
AC$MASS_SPECTROMETRY: RESOLUTION 35000
AC$CHROMATOGRAPHY: COLUMN_NAME XBridge C18 3.5um, 2.1x50mm, Waters
AC$CHROMATOGRAPHY: FLOW_GRADIENT 90/10 at 0 min, 50/50 at 4 min, 5/95 at 17 min, 5/95 at 25 min, 90/10 at 25.1 min, 90/10 at 30 min
AC$CHROMATOGRAPHY: FLOW_RATE 200 ul/min
AC$CHROMATOGRAPHY: RETENTION_TIME 1.1 min
AC$CHROMATOGRAPHY: SOLVENT A water with 0.1% formic acid
AC$CHROMATOGRAPHY: SOLVENT B methanol with 0.1% formic acid
MS$FOCUSED_ION: BASE_PEAK 268.1041
MS$FOCUSED_ION: PRECURSOR_M/Z 268.104
MS$FOCUSED_ION: PRECURSOR_TYPE [M+H]+
MS$DATA_PROCESSING: DEPROFILE vendor picking in Proteowizard
MS$DATA_PROCESSING: RECALIBRATE loess on assigned fragments and MS1
MS$DATA_PROCESSING: REANALYZE Peaks with additional N2/O included
MS$DATA_PROCESSING: WHOLE RMassBank 1.9.6
PK$SPLASH: splash10-000i-0900000000-38a0b51e84259a90e0bf
PK$ANNOTATION: m/z tentative_formula formula_count mass error(ppm)
  73.0284 C3H5O2+ 1 73.0284 0.06
  85.0284 C4H5O2+ 1 85.0284 -0.19
  115.039 C5H7O3+ 1 115.039 -0.09
  119.0349 C5H3N4+ 1 119.0352 -2.71
  133.0496 C5H9O4+ 1 133.0495 0.41
  136.0618 C5H6N5+ 1 136.0618 0.36
  268.104 C10H14N5O4+ 1 268.104 -0.11
PK$NUM_PEAK: 7
PK$PEAK: m/z int. rel.int.
  73.0284 282213.7 1
  85.0284 522095.5 2
  115.039 685306.8 3
  119.0349 215756 1
  133.0496 954383.1 4
  136.0618 208586752 999
  268.104 9126446 43
//
