ACCESSION: MSBNK-Eawag-EQ320901
RECORD_TITLE: Sulfentrazon; LC-ESI-QFT; MS2; CE: 15; R=35000; [M+H]+
DATE: 2015.08.25
AUTHORS: Beck B, Stravs M, Schymanski E, Singer H, Department of Environmental Chemistry, Eawag
LICENSE: CC BY
COPYRIGHT: Copyright (C) 2015 Eawag, Duebendorf, Switzerland
COMMENT: CONFIDENCE standard compound
COMMENT: EAWAG_UCHEM_ID 3209
CH$NAME: Sulfentrazon
CH$NAME: N-(2,4-dichloro-5-(4-(difluoromethyl)-4,5-dihydro-3-methyl-5-oxo-1H-1,2,4-triazol-1-yl)phenyl)methanesulfonamide
CH$NAME: N-[2,4-dichloro-5-[4-(difluoromethyl)-3-methyl-5-oxo-1,2,4-triazol-1-yl]phenyl]methanesulfonamide
CH$COMPOUND_CLASS: N/A; Environmental Standard
CH$FORMULA: C11H10Cl2F2N4O3S
CH$EXACT_MASS: 385.98187
CH$SMILES: O=S(=O)(Nc2c(Cl)cc(Cl)c(N1/N=C(\N(C1=O)C(F)F)C)c2)C
CH$IUPAC: InChI=1S/C11H10Cl2F2N4O3S/c1-5-16-19(11(20)18(5)10(14)15)9-4-8(17-23(2,21)22)6(12)3-7(9)13/h3-4,10,17H,1-2H3
CH$LINK: CAS 122836-35-5
CH$LINK: CHEBI CHEBI:9339
CH$LINK: KEGG C11125
CH$LINK: PUBCHEM CID:86369
CH$LINK: INCHIKEY OORLZFUTLGXMEF-UHFFFAOYSA-N
CH$LINK: CHEMSPIDER 77887
CH$LINK: COMPTOX DTXSID6032645
AC$INSTRUMENT: Q Exactive Plus Orbitrap Thermo Scientific
AC$INSTRUMENT_TYPE: LC-ESI-QFT
AC$MASS_SPECTROMETRY: MS_TYPE MS2
AC$MASS_SPECTROMETRY: ION_MODE POSITIVE
AC$MASS_SPECTROMETRY: IONIZATION ESI
AC$MASS_SPECTROMETRY: FRAGMENTATION_MODE HCD
AC$MASS_SPECTROMETRY: COLLISION_ENERGY 15 (nominal)
AC$MASS_SPECTROMETRY: RESOLUTION 35000
AC$CHROMATOGRAPHY: COLUMN_NAME XBridge C18 3.5um, 2.1x50mm, Waters
AC$CHROMATOGRAPHY: FLOW_GRADIENT 90/10 at 0 min, 50/50 at 4 min, 5/95 at 17 min, 5/95 at 25 min, 90/10 at 25.1 min, 90/10 at 30 min
AC$CHROMATOGRAPHY: FLOW_RATE 200 ul/min
AC$CHROMATOGRAPHY: RETENTION_TIME 7.4 min
AC$CHROMATOGRAPHY: SOLVENT A water with 0.1% formic acid
AC$CHROMATOGRAPHY: SOLVENT B methanol with 0.1% formic acid
MS$FOCUSED_ION: BASE_PEAK 386.989
MS$FOCUSED_ION: PRECURSOR_M/Z 386.9891
MS$FOCUSED_ION: PRECURSOR_TYPE [M+H]+
MS$DATA_PROCESSING: RECALIBRATE loess on assigned fragments and MS1
MS$DATA_PROCESSING: REANALYZE Peaks with additional N2/O included
MS$DATA_PROCESSING: WHOLE RMassBank 1.9.6
PK$SPLASH: splash10-000i-0009000000-6c47a58ba6b380300df2
PK$ANNOTATION: m/z tentative_formula formula_count mass error(ppm)
  289.0306 C10H8ClF2N4O2+ 1 289.0298 2.47
  306.9958 C10H7Cl2F2N4O+ 2 306.9959 -0.52
  308.0032 C10H8Cl2F2N4O+ 1 308.0038 -2.03
  322.9906 C10H7Cl2F2N4O2+ 2 322.9909 -0.91
  324.0003 C10H8Cl2F2N4O2+ 3 323.9987 4.91
  336.9921 C10H11Cl2N4O3S+ 1 336.9923 -0.63
  340.9833 C10H9Cl2F2N4OS+ 1 340.9837 -1.2
  366.9833 C11H10Cl2FN4O3S+ 1 366.9829 1.14
  386.989 C11H11Cl2F2N4O3S+ 1 386.9891 -0.31
PK$NUM_PEAK: 10
PK$PEAK: m/z int. rel.int.
  289.0306 289773.8 1
  306.9958 3263750.8 17
  308.0032 1621984.8 8
  322.9906 545557 3
  324.0003 198832.5 1
  336.9921 233884.7 1
  340.9833 296914.9 1
  366.9833 1208016.1 6
  386.989 181178960 999
  404.9996 3603479 19
//
