ACCESSION: MSBNK-Eawag-EQ418354
RECORD_TITLE: Fluxapyroxad (BAS 700 F)-TP CSCD465008; LC-ESI-QFT; MS2; CE: 60%; R=17500; [M-H]-
DATE: 2019.12.03
AUTHORS: K. Kiefer [dtc], J. Hollender [dtc], H. Singer [dtc], M. Stravs [com]
LICENSE: CC BY-SA
COPYRIGHT: Copyright (C) Eawag 2019
PUBLICATION: Kiefer, K.; Mueller, A.; Singer, H.; Hollender, J. New relevant pesticide transformation products in groundwater detected using target and suspect screening for agricultural and urban micropollutants with LC-HRMS. Water Research 2019, 165. DOI: https://doi.org/10.1016/j.watres.2019.114972
COMMENT: CONFIDENCE standard compound
COMMENT: UCHEM_ID 4183
CH$NAME: Fluxapyroxad (BAS 700 F)-TP CSCD465008
CH$NAME: 3-(Difluoromethyl)-1H-pyrazole-4-carboxylic acid
CH$NAME: 5-(difluoromethyl)-1H-pyrazole-4-carboxylic acid
CH$COMPOUND_CLASS: N/A; Environmental Standard
CH$FORMULA: C5H4F2N2O2
CH$EXACT_MASS: 162.0241
CH$SMILES: OC(=O)C1=CNN=C1C(F)F
CH$IUPAC: InChI=1S/C5H4F2N2O2/c6-4(7)3-2(5(10)11)1-8-9-3/h1,4H,(H,8,9)(H,10,11)
CH$LINK: CAS 151734-02-0
CH$LINK: PUBCHEM CID:19754697
CH$LINK: INCHIKEY IGQNDARULCASRN-UHFFFAOYSA-N
CH$LINK: CHEMSPIDER 14393850
AC$INSTRUMENT: Q Exactive Plus Orbitrap Thermo Scientific
AC$INSTRUMENT_TYPE: LC-ESI-QFT
AC$MASS_SPECTROMETRY: MS_TYPE MS2
AC$MASS_SPECTROMETRY: ION_MODE NEGATIVE
AC$MASS_SPECTROMETRY: IONIZATION ESI
AC$MASS_SPECTROMETRY: FRAGMENTATION_MODE HCD
AC$MASS_SPECTROMETRY: COLLISION_ENERGY 60 % (nominal)
AC$MASS_SPECTROMETRY: RESOLUTION 17500
AC$CHROMATOGRAPHY: COLUMN_NAME XBridge C18 3.5um, 2.1x50mm, Waters
AC$CHROMATOGRAPHY: FLOW_GRADIENT 90/10 at 0 min, 50/50 at 4 min, 5/95 at 17 min, 5/95 at 25 min, 90/10 at 25.1 min, 90/10 at 30 min
AC$CHROMATOGRAPHY: FLOW_RATE 200 uL/min
AC$CHROMATOGRAPHY: RETENTION_TIME 2.063 min
AC$CHROMATOGRAPHY: SOLVENT A water with 0.1% formic acid
AC$CHROMATOGRAPHY: SOLVENT B MeOH with 0.1% formic acid
MS$FOCUSED_ION: BASE_PEAK 141.0106
MS$FOCUSED_ION: PRECURSOR_M/Z 161.0168
MS$FOCUSED_ION: PRECURSOR_TYPE [M-H]-
MS$DATA_PROCESSING: RECALIBRATE loess on assigned fragments and MS1
MS$DATA_PROCESSING: REANALYZE Peaks with additional N2/O included
MS$DATA_PROCESSING: WHOLE RMassBank 2.99.1
PK$SPLASH: splash10-014i-9400000000-7a150274ca69d9edf169
PK$ANNOTATION: m/z tentative_formula formula_count mass error(ppm)
  50.0036 C3N- 1 50.0036 -1.2
  65.0032 C4HO- 1 65.0033 -1.37
  65.9986 C3NO- 1 65.9985 0.74
  69.0147 C4H2F- 1 69.0146 0.9
  70.0099 C3HFN- 1 70.0099 0.76
  86.0048 C3HFNO- 1 86.0048 0.21
  92.9982 C5HO2- 1 92.9982 0.5
  97.0208 C4H2FN2- 1 97.0207 0.34
  113.0159 C4H2FN2O- 1 113.0157 2.12
  113.9997 C4HFNO2- 1 113.9997 -0.18
  117.0271 C4H3F2N2- 1 117.027 0.63
  121.0044 C5HN2O2- 1 121.0044 0.36
  141.0106 C5H2FN2O2- 1 141.0106 0.48
PK$NUM_PEAK: 18
PK$PEAK: m/z int. rel.int.
  50.0036 650195.6 73
  50.0115 22534.7 2
  65.0032 81934.4 9
  65.9986 8876769 999
  67.0019 71319.2 8
  69.0147 124066.2 13
  70.0099 413729 46
  86.0048 223413.1 25
  92.9982 422298.6 47
  97.0208 1517697 170
  98.0243 18597 2
  113.0159 149159.7 16
  113.9997 191147.6 21
  117.0271 3198312 359
  118.0304 56664.9 6
  121.0044 334653.8 37
  141.0106 2171357.2 244
  142.0141 32265.6 3
//
