ACCESSION: MSBNK-Eawag-EA029951
RECORD_TITLE: N4-Acetylsulfamethoxazole; LC-ESI-ITFT; MS2; CE: 35%; R=7500; [M-H]-
DATE: 2014.01.14
AUTHORS: Stravs M, Schymanski E, Singer H, Department of Environmental Chemistry, Eawag
LICENSE: CC BY
COPYRIGHT: Copyright (C) 2012 Eawag, Duebendorf, Switzerland
COMMENT: CONFIDENCE standard compound
COMMENT: EAWAG_UCHEM_ID 299
CH$NAME: N4-Acetylsulfamethoxazole
CH$NAME: N-[4-[(5-methyl-1,2-oxazol-3-yl)sulfamoyl]phenyl]acetamide
CH$COMPOUND_CLASS: N/A; Environmental Standard
CH$FORMULA: C12H13N3O4S
CH$EXACT_MASS: 295.0627
CH$SMILES: c1(ccc(cc1)NC(C)=O)S(Nc1cc(C)on1)(=O)=O
CH$IUPAC: InChI=1S/C12H13N3O4S/c1-8-7-12(14-19-8)15-20(17,18)11-5-3-10(4-6-11)13-9(2)16/h3-7H,1-2H3,(H,13,16)(H,14,15)
CH$LINK: CAS 21312-10-7
CH$LINK: KEGG C13061
CH$LINK: PUBCHEM CID:65280
CH$LINK: INCHIKEY GXPIUNZCALHVBA-UHFFFAOYSA-N
CH$LINK: CHEMSPIDER 58771
CH$LINK: COMPTOX DTXSID8049044
AC$INSTRUMENT: LTQ Orbitrap XL Thermo Scientific
AC$INSTRUMENT_TYPE: LC-ESI-ITFT
AC$MASS_SPECTROMETRY: MS_TYPE MS2
AC$MASS_SPECTROMETRY: ION_MODE NEGATIVE
AC$MASS_SPECTROMETRY: IONIZATION ESI
AC$MASS_SPECTROMETRY: FRAGMENTATION_MODE CID
AC$MASS_SPECTROMETRY: COLLISION_ENERGY 35 % (nominal)
AC$MASS_SPECTROMETRY: RESOLUTION 7500
AC$CHROMATOGRAPHY: COLUMN_NAME XBridge C18 3.5um, 2.1x50mm, Waters
AC$CHROMATOGRAPHY: FLOW_GRADIENT 90/10 at 0 min, 50/50 at 4 min, 5/95 at 17 min, 5/95 at 25 min, 90/10 at 25.1 min, 90/10 at 30 min
AC$CHROMATOGRAPHY: FLOW_RATE 200 ul/min
AC$CHROMATOGRAPHY: RETENTION_TIME 5.7 min
AC$CHROMATOGRAPHY: SOLVENT A water with 0.1% formic acid
AC$CHROMATOGRAPHY: SOLVENT B methanol with 0.1% formic acid
MS$FOCUSED_ION: BASE_PEAK 294.0561
MS$FOCUSED_ION: PRECURSOR_M/Z 294.0554
MS$FOCUSED_ION: PRECURSOR_TYPE [M-H]-
MS$DATA_PROCESSING: DEPROFILE Spline
MS$DATA_PROCESSING: RECALIBRATE loess on assigned fragments and MS1
MS$DATA_PROCESSING: REANALYZE Peaks with additional N2/O included
MS$DATA_PROCESSING: WHOLE RMassBank 1.3.1
PK$SPLASH: splash10-0002-0900000000-a931f6f79851f6517143
PK$ANNOTATION: m/z tentative_formula formula_count mass error(ppm)
  92.0503 C6H6N- 1 92.0506 -3.29
  134.061 C8H8NO- 2 134.0611 -1.1
  150.0558 C8H8NO2- 2 150.0561 -1.48
  198.0231 C8H8NO3S- 1 198.023 0.52
PK$NUM_PEAK: 4
PK$PEAK: m/z int. rel.int.
  92.0503 24749 3
  134.061 556138.7 75
  150.0558 116789.5 15
  198.0231 7347301.8 999
//
