ACCESSION: MSBNK-Eawag-EA266803
RECORD_TITLE: Fipronil-sulfide; LC-ESI-ITFT; MS2; CE: 30%; R=7500; [M+H]+
DATE: 2014.01.14
AUTHORS: Stravs M, Schymanski E, Singer H, Department of Environmental Chemistry, Eawag
LICENSE: CC BY
COPYRIGHT: Copyright (C) 2012 Eawag, Duebendorf, Switzerland
COMMENT: CONFIDENCE standard compound
COMMENT: EAWAG_UCHEM_ID 2668
CH$NAME: Fipronil-sulfide
CH$NAME: 5-Amino-1-[2,6-dichloro-4-(trifluoromethyl)phenyl]-4-[(trifluoromethyl)sulfanyl]-1H-pyrazole-3-carbonitrile
CH$COMPOUND_CLASS: N/A; Environmental Standard
CH$FORMULA: C12H4Cl2F6N4S
CH$EXACT_MASS: 419.9438
CH$SMILES: FC(F)(F)c2cc(Cl)c(n1nc(C#N)c(SC(F)(F)F)c1N)c(Cl)c2
CH$IUPAC: InChI=1S/C12H4Cl2F6N4S/c13-5-1-4(11(15,16)17)2-6(14)8(5)24-10(22)9(7(3-21)23-24)25-12(18,19)20/h1-2H,22H2
CH$LINK: CAS 120067-83-6
CH$LINK: PUBCHEM CID:9953940
CH$LINK: INCHIKEY FQXWEKADCSXYOC-UHFFFAOYSA-N
CH$LINK: CHEMSPIDER 8129550
CH$LINK: COMPTOX DTXSID50869644
AC$INSTRUMENT: LTQ Orbitrap XL Thermo Scientific
AC$INSTRUMENT_TYPE: LC-ESI-ITFT
AC$MASS_SPECTROMETRY: MS_TYPE MS2
AC$MASS_SPECTROMETRY: ION_MODE POSITIVE
AC$MASS_SPECTROMETRY: IONIZATION ESI
AC$MASS_SPECTROMETRY: FRAGMENTATION_MODE HCD
AC$MASS_SPECTROMETRY: COLLISION_ENERGY 30 % (nominal)
AC$MASS_SPECTROMETRY: RESOLUTION 7500
AC$CHROMATOGRAPHY: COLUMN_NAME XBridge C18 3.5um, 2.1x50mm, Waters
AC$CHROMATOGRAPHY: FLOW_GRADIENT 90/10 at 0 min, 50/50 at 4 min, 5/95 at 17 min, 5/95 at 25 min, 90/10 at 25.1 min, 90/10 at 30 min
AC$CHROMATOGRAPHY: FLOW_RATE 200 ul/min
AC$CHROMATOGRAPHY: RETENTION_TIME 13.0 min
AC$CHROMATOGRAPHY: SOLVENT A water with 0.1% formic acid
AC$CHROMATOGRAPHY: SOLVENT B methanol with 0.1% formic acid
MS$FOCUSED_ION: BASE_PEAK 442.9332
MS$FOCUSED_ION: PRECURSOR_M/Z 420.9511
MS$FOCUSED_ION: PRECURSOR_TYPE [M+H]+
MS$DATA_PROCESSING: DEPROFILE Spline
MS$DATA_PROCESSING: RECALIBRATE loess on assigned fragments and MS1
MS$DATA_PROCESSING: REANALYZE Peaks with additional N2/O included
MS$DATA_PROCESSING: WHOLE RMassBank 1.3.1
PK$SPLASH: splash10-00di-0001900000-dad85a8ebfb951af6899
PK$ANNOTATION: m/z tentative_formula formula_count mass error(ppm)
  87.0007 C2H3N2S+ 1 87.0011 -4.89
  96.9855 C3HN2S+ 1 96.9855 0.15
  181.9998 C9H4F2S+ 2 181.9996 0.99
  262.9645 C9H3ClF3N2S+ 3 262.9652 -2.73
  264.9814 C9H5ClF3N2S+ 1 264.9809 2.05
  284.0061 C11H4ClF3N4+ 1 284.0071 -3.42
  285.0141 C11H5ClF3N4+ 1 285.0149 -3.03
  315.9794 C11H4ClF3N4S+ 1 315.9792 0.57
  316.9868 C11H5ClF3N4S+ 1 316.987 -0.71
  319.9839 C11H5Cl2F3N4+ 2 319.9838 0.38
  335.9362 C11H3Cl2F3N3S+ 1 335.9371 -2.75
  351.9554 C11H5Cl2F3N4S+ 1 351.9559 -1.3
  365.9746 C12H4ClF5N4S+ 1 365.976 -3.68
  385.9815 C12H5ClF6N4S+ 1 385.9822 -1.91
  420.9506 C12H5Cl2F6N4S+ 1 420.9511 -1.09
  421.9542 C10H5Cl2F5N6OS+ 1 421.9537 1.21
PK$NUM_PEAK: 16
PK$PEAK: m/z int. rel.int.
  87.0007 2824.7 2
  96.9855 2602 2
  181.9998 4368.5 3
  262.9645 2565 2
  264.9814 6729.7 5
  284.0061 2782.3 2
  285.0141 4700.7 4
  315.9794 2835.5 2
  316.9868 132883.4 114
  319.9839 31622.4 27
  335.9362 17580.8 15
  351.9554 31456.6 27
  365.9746 2504 2
  385.9815 9831.4 8
  420.9506 1156375.5 999
  421.9542 9298.8 8
//
