ACCESSION: MSBNK-Eawag-EQ01124658
RECORD_TITLE: Ethiprole; LC-ESI-QFT; MS2; CE: 150%; R=17500; [M-H]-
DATE: 2023.04.27
AUTHORS: B. Beck [dtc,com], J. Hollender [dtc]
LICENSE: CC BY-SA
COPYRIGHT: Copyright (C) Eawag 2023
COMMENT: CONFIDENCE standard compound
COMMENT: UCHEM_ID 11246
CH$NAME: Ethiprole
CH$NAME: 5-amino-1-[2,6-dichloro-4-(trifluoromethyl)phenyl]-4-ethylsulfinylpyrazole-3-carbonitrile
CH$COMPOUND_CLASS: N/A; Environmental Standard
CH$FORMULA: C13H9Cl2F3N4OS
CH$EXACT_MASS: 395.9826
CH$SMILES: CCS(=O)C1=C(N(N=C1C#N)C2=C(C=C(C=C2Cl)C(F)(F)F)Cl)N
CH$IUPAC: InChI=1S/C13H9Cl2F3N4OS/c1-2-24(23)11-9(5-19)21-22(12(11)20)10-7(14)3-6(4-8(10)15)13(16,17)18/h3-4H,2,20H2,1H3
CH$LINK: CAS 181587-01-9
CH$LINK: CHEBI CHEBI:81827
CH$LINK: KEGG C18552
CH$LINK: PUBCHEM CID:9930667
CH$LINK: INCHIKEY FNELVJVBIYMIMC-UHFFFAOYSA-N
CH$LINK: CHEMSPIDER 8106298
AC$INSTRUMENT: Exploris 240 Orbitrap Thermo Scientific
AC$INSTRUMENT_TYPE: LC-ESI-QFT
AC$MASS_SPECTROMETRY: MS_TYPE MS2
AC$MASS_SPECTROMETRY: ION_MODE NEGATIVE
AC$MASS_SPECTROMETRY: IONIZATION ESI
AC$MASS_SPECTROMETRY: FRAGMENTATION_MODE HCD
AC$MASS_SPECTROMETRY: COLLISION_ENERGY 150 % (nominal)
AC$MASS_SPECTROMETRY: RESOLUTION 17500
AC$MASS_SPECTROMETRY: MASS_RANGE_M/Z 50-424
AC$CHROMATOGRAPHY: COLUMN_NAME XBridge C18 3.5um, 2.1x50mm, Waters
AC$CHROMATOGRAPHY: FLOW_GRADIENT 90/10 at 0 min, 50/50 at 4 min, 5/95 at 17 min, 5/95 at 25 min, 90/10 at 25.1 min, 90/10 at 30 min
AC$CHROMATOGRAPHY: FLOW_RATE 200 uL/min
AC$CHROMATOGRAPHY: RETENTION_TIME 8.805 min
MS$FOCUSED_ION: BASE_PEAK 394.9752
MS$FOCUSED_ION: PRECURSOR_M/Z 394.9753
MS$FOCUSED_ION: PRECURSOR_TYPE [M-H]-
MS$DATA_PROCESSING: RECALIBRATE loess on assigned fragments and MS1
MS$DATA_PROCESSING: REANALYZE Peaks with additional N2/O included
MS$DATA_PROCESSING: WHOLE RMassBank 3.11.0.1
PK$SPLASH: splash10-0bti-9200000000-817552ea138d39136b1b
PK$ANNOTATION: m/z tentative_formula formula_count mass error(ppm)
  50.0036 C3N- 1 50.0036 0.49
  57.9757 CNS- 1 57.9757 -0.4
  74.0037 C5N- 1 74.0036 1.44
  81.9758 C3NS- 1 81.9757 1.57
  86.0035 C6N- 1 86.0036 -1.76
  88.0005 C3F2N- 1 88.0004 0.99
  90.01 C4N3- 1 90.0098 2.61
  98.0037 C7N- 1 98.0036 0.68
  111.9997 C2H7ClNS- 1 111.9993 3.55
  113.0144 C7HN2- 1 113.0145 -0.91
  136.0009 CH8ClFNOS- 3 136.0005 3.19
PK$NUM_PEAK: 11
PK$PEAK: m/z int. rel.int.
  50.0036 1302697.4 415
  57.9757 3134652 999
  74.0037 686531.1 218
  81.9758 493711 157
  86.0035 1345411.9 428
  88.0005 415127.3 132
  90.01 162217.8 51
  98.0037 942853.7 300
  111.9997 1369586.9 436
  113.0144 936052.7 298
  136.0009 447767 142
//
