ACCESSION: MSBNK-Eawag-EA270111
RECORD_TITLE: 10,11-trans-Dihydroxy-10,11-dihydrocarbamazepine; LC-ESI-ITFT; MS2; CE: 60%; R=15000; [M+H]+
DATE: 2014.01.14
AUTHORS: Stravs M, Schymanski E, Singer H, Department of Environmental Chemistry, Eawag
LICENSE: CC BY
COPYRIGHT: Copyright (C) 2012 Eawag, Duebendorf, Switzerland
COMMENT: CONFIDENCE standard compound
COMMENT: EAWAG_UCHEM_ID 2701
CH$NAME: 10,11-trans-Dihydroxy-10,11-dihydrocarbamazepine
CH$NAME: (5S,6S)-5,6-bis(oxidanyl)-5,6-dihydrobenzo[b][1]benzazepine-11-carboxamide
CH$COMPOUND_CLASS: N/A; Environmental Standard
CH$FORMULA: C15H14N2O3
CH$EXACT_MASS: 270.1004
CH$SMILES: c12[C@@H]([C@@H](O)c3c(N(C(N)=O)c2cccc1)cccc3)O
CH$IUPAC: InChI=1S/C15H14N2O3/c16-15(20)17-11-7-3-1-5-9(11)13(18)14(19)10-6-2-4-8-12(10)17/h1-8,13-14,18-19H,(H2,16,20)/t13-,14-/m0/s1
CH$LINK: CAS 58955-93-4
CH$LINK: PUBCHEM CID:114725
CH$LINK: INCHIKEY PRGQOPPDPVELEG-KBPBESRZSA-N
CH$LINK: CHEMSPIDER 102714
CH$LINK: COMPTOX DTXSID10891461
AC$INSTRUMENT: LTQ Orbitrap XL Thermo Scientific
AC$INSTRUMENT_TYPE: LC-ESI-ITFT
AC$MASS_SPECTROMETRY: MS_TYPE MS2
AC$MASS_SPECTROMETRY: ION_MODE POSITIVE
AC$MASS_SPECTROMETRY: IONIZATION ESI
AC$MASS_SPECTROMETRY: FRAGMENTATION_MODE HCD
AC$MASS_SPECTROMETRY: COLLISION_ENERGY 60 % (nominal)
AC$MASS_SPECTROMETRY: RESOLUTION 15000
AC$CHROMATOGRAPHY: COLUMN_NAME XBridge C18 3.5um, 2.1x50mm, Waters
AC$CHROMATOGRAPHY: FLOW_GRADIENT 90/10 at 0 min, 50/50 at 4 min, 5/95 at 17 min, 5/95 at 25 min, 90/10 at 25.1 min, 90/10 at 30 min
AC$CHROMATOGRAPHY: FLOW_RATE 200 ul/min
AC$CHROMATOGRAPHY: RETENTION_TIME 6.1 min
AC$CHROMATOGRAPHY: SOLVENT A water with 0.1% formic acid
AC$CHROMATOGRAPHY: SOLVENT B methanol with 0.1% formic acid
MS$FOCUSED_ION: BASE_PEAK 271.1079
MS$FOCUSED_ION: PRECURSOR_M/Z 271.1077
MS$FOCUSED_ION: PRECURSOR_TYPE [M+H]+
MS$DATA_PROCESSING: DEPROFILE Spline
MS$DATA_PROCESSING: RECALIBRATE loess on assigned fragments and MS1
MS$DATA_PROCESSING: REANALYZE Peaks with additional N2/O included
MS$DATA_PROCESSING: WHOLE RMassBank 1.3.1
PK$SPLASH: splash10-001i-0900000000-1bdf38c80976bafdecd4
PK$ANNOTATION: m/z tentative_formula formula_count mass error(ppm)
  165.0698 C13H9+ 1 165.0699 -0.28
  167.073 C12H9N+ 1 167.073 0.06
  179.0721 C13H9N+ 1 179.073 -4.53
  180.0808 C13H10N+ 1 180.0808 0.08
  181.0886 C13H11N+ 1 181.0886 -0.17
  182.0964 C13H12N+ 1 182.0964 -0.2
  192.0809 C14H10N+ 1 192.0808 0.7
  193.0888 C14H11N+ 1 193.0886 0.88
  208.0756 C14H10NO+ 1 208.0757 -0.43
  209.0829 C14H11NO+ 1 209.0835 -2.9
  210.0914 C14H12NO+ 1 210.0913 0.14
  236.071 C15H10NO2+ 1 236.0706 1.76
  253.1076 C14H13N4O+ 1 253.1084 -3.27
PK$NUM_PEAK: 13
PK$PEAK: m/z int. rel.int.
  165.0698 42017 7
  167.073 128584.2 24
  179.0721 11486.7 2
  180.0808 5292656.2 999
  181.0886 200626.8 37
  182.0964 1701667.6 321
  192.0809 32794.8 6
  193.0888 29906 5
  208.0756 39331.3 7
  209.0829 6371.3 1
  210.0914 756366.8 142
  236.071 7795.5 1
  253.1076 9376.8 1
//
