ACCESSION: MSBNK-Eawag-EQ01143203
RECORD_TITLE: Lauroyl Lysine; LC-ESI-QFT; MS2; CE: 45%; R=17500; [M+H]+
DATE: 2023.06.16
AUTHORS: B. Beck [dtc,com], J. Hollender [dtc]
LICENSE: CC BY-SA
COPYRIGHT: Copyright (C) Eawag 2023
COMMENT: CONFIDENCE standard compound
COMMENT: UCHEM_ID 11432
CH$NAME: Lauroyl Lysine
CH$NAME: N~6~-Dodecanoyllysine
CH$NAME: 2-amino-6-(dodecanoylamino)hexanoic acid
CH$COMPOUND_CLASS: N/A; Environmental Standard
CH$FORMULA: C18H36N2O3
CH$EXACT_MASS: 328.2726
CH$SMILES: CCCCCCCCCCCC(=O)NCCCCC(C(=O)O)N
CH$IUPAC: InChI=1S/C18H36N2O3/c1-2-3-4-5-6-7-8-9-10-14-17(21)20-15-12-11-13-16(19)18(22)23/h16H,2-15,19H2,1H3,(H,20,21)(H,22,23)
CH$LINK: CAS 52315-75-0
CH$LINK: PUBCHEM CID:11313447
CH$LINK: INCHIKEY GYDYJUYZBRGMCC-UHFFFAOYSA-N
CH$LINK: CHEMSPIDER 9488414
AC$INSTRUMENT: Exploris 240 Orbitrap Thermo Scientific
AC$INSTRUMENT_TYPE: LC-ESI-QFT
AC$MASS_SPECTROMETRY: MS_TYPE MS2
AC$MASS_SPECTROMETRY: ION_MODE POSITIVE
AC$MASS_SPECTROMETRY: IONIZATION ESI
AC$MASS_SPECTROMETRY: FRAGMENTATION_MODE HCD
AC$MASS_SPECTROMETRY: COLLISION_ENERGY 45 % (nominal)
AC$MASS_SPECTROMETRY: RESOLUTION 17500
AC$MASS_SPECTROMETRY: MASS_RANGE_M/Z 50-357
AC$CHROMATOGRAPHY: COLUMN_NAME XBridge C18 3.5um, 2.1x50mm, Waters
AC$CHROMATOGRAPHY: FLOW_GRADIENT 90/10 at 0 min, 50/50 at 4 min, 5/95 at 17 min, 5/95 at 25 min, 90/10 at 25.1 min, 90/10 at 30 min
AC$CHROMATOGRAPHY: FLOW_RATE 200 uL/min
AC$CHROMATOGRAPHY: RETENTION_TIME 12.161 min
MS$FOCUSED_ION: BASE_PEAK 329.2798
MS$FOCUSED_ION: PRECURSOR_M/Z 329.2799
MS$FOCUSED_ION: PRECURSOR_TYPE [M+H]+
MS$DATA_PROCESSING: RECALIBRATE loess on assigned fragments and MS1
MS$DATA_PROCESSING: REANALYZE Peaks with additional N2/O included
MS$DATA_PROCESSING: WHOLE RMassBank 3.11.0.1
PK$SPLASH: splash10-001i-9200000000-d8050f0aa2feb4de22c7
PK$ANNOTATION: m/z tentative_formula formula_count mass error(ppm)
  57.0699 C4H9+ 1 57.0699 -0.34
  67.0544 C5H7+ 1 67.0542 2.45
  71.0856 C5H11+ 1 71.0855 1.05
  81.07 C6H9+ 1 81.0699 1.94
  83.0855 C6H11+ 1 83.0855 -0.67
  84.0808 C5H10N+ 1 84.0808 0.25
  85.1011 C6H13+ 1 85.1012 -0.66
  95.0856 C7H11+ 1 95.0855 1
  101.1074 C5H13N2+ 1 101.1073 0.42
  109.1011 C8H13+ 1 109.1012 -0.27
  112.0759 C6H10NO+ 1 112.0757 1.74
  129.1023 C6H13N2O+ 1 129.1022 0.46
  130.0862 C6H12NO2+ 1 130.0863 -0.07
  147.1128 C6H15N2O2+ 1 147.1128 -0.06
PK$NUM_PEAK: 14
PK$PEAK: m/z int. rel.int.
  57.0699 1289242.2 26
  67.0544 152494.1 3
  71.0856 702907.2 14
  81.07 168603.4 3
  83.0855 165391.8 3
  84.0808 48764432 999
  85.1011 644987.6 13
  95.0856 662762.7 13
  101.1074 108810.9 2
  109.1011 394072 8
  112.0759 308790.3 6
  129.1023 1148225.2 23
  130.0862 8248447 168
  147.1128 2413487.2 49
//
