ACCESSION: MSBNK-Eawag-EQ363703
RECORD_TITLE: Triamterene; LC-ESI-QFT; MS2; CE: 45; R=35000; [M+H]+
DATE: 2015.08.25
AUTHORS: Stravs M, Schymanski E, Singer H, Department of Environmental Chemistry, Eawag and Thomaidis N, University of Athens
LICENSE: CC BY
COPYRIGHT: Copyright (C) 2015 Eawag, Duebendorf, Switzerland
COMMENT: CONFIDENCE standard compound
COMMENT: EAWAG_UCHEM_ID 3637
CH$NAME: Triamterene
CH$NAME: 6-phenylpteridine-2,4,7-triamine
CH$COMPOUND_CLASS: N/A; Environmental Standard
CH$FORMULA: C12H11N7
CH$EXACT_MASS: 253.10759
CH$SMILES: C1=CC=C(C=C1)C2=NC3=C(N=C2N)N=C(N=C3N)N
CH$IUPAC: InChI=1S/C12H11N7/c13-9-7(6-4-2-1-3-5-6)16-8-10(14)18-12(15)19-11(8)17-9/h1-5H,(H6,13,14,15,17,18,19)
CH$LINK: CAS 396-01-0
CH$LINK: PUBCHEM CID:5546
CH$LINK: INCHIKEY FNYLWPVRPXGIIP-UHFFFAOYSA-N
CH$LINK: CHEMSPIDER 5345
CH$LINK: COMPTOX DTXSID6021373
AC$INSTRUMENT: Q Exactive Plus Orbitrap Thermo Scientific
AC$INSTRUMENT_TYPE: LC-ESI-QFT
AC$MASS_SPECTROMETRY: MS_TYPE MS2
AC$MASS_SPECTROMETRY: ION_MODE POSITIVE
AC$MASS_SPECTROMETRY: IONIZATION ESI
AC$MASS_SPECTROMETRY: FRAGMENTATION_MODE HCD
AC$MASS_SPECTROMETRY: COLLISION_ENERGY 45 (nominal)
AC$MASS_SPECTROMETRY: RESOLUTION 35000
AC$CHROMATOGRAPHY: COLUMN_NAME XBridge C18 3.5um, 2.1x50mm, Waters
AC$CHROMATOGRAPHY: FLOW_GRADIENT 90/10 at 0 min, 50/50 at 4 min, 5/95 at 17 min, 5/95 at 25 min, 90/10 at 25.1 min, 90/10 at 30 min
AC$CHROMATOGRAPHY: FLOW_RATE 200 ul/min
AC$CHROMATOGRAPHY: RETENTION_TIME 4.5 min
AC$CHROMATOGRAPHY: SOLVENT A water with 0.1% formic acid
AC$CHROMATOGRAPHY: SOLVENT B methanol with 0.1% formic acid
MS$FOCUSED_ION: BASE_PEAK 254.1144
MS$FOCUSED_ION: PRECURSOR_M/Z 254.1149
MS$FOCUSED_ION: PRECURSOR_TYPE [M+H]+
MS$DATA_PROCESSING: RECALIBRATE loess on assigned fragments and MS1
MS$DATA_PROCESSING: REANALYZE Peaks with additional N2/O included
MS$DATA_PROCESSING: WHOLE RMassBank 1.9.6
PK$SPLASH: splash10-0udi-0090000000-4c12cffcdf72d196b590
PK$ANNOTATION: m/z tentative_formula formula_count mass error(ppm)
  104.0491 C7H6N+ 1 104.0495 -3.99
  195.0665 C11H7N4+ 1 195.0665 -0.27
  210.078 C11H8N5+ 1 210.0774 2.99
  212.0932 C11H10N5+ 1 212.0931 0.75
  227.1042 C11H11N6+ 1 227.104 0.97
  237.0886 C12H9N6+ 1 237.0883 1.01
  254.115 C12H12N7+ 1 254.1149 0.39
PK$NUM_PEAK: 7
PK$PEAK: m/z int. rel.int.
  104.0491 688281.8 1
  195.0665 1606660.1 3
  210.078 762755.3 1
  212.0932 5619357 10
  227.1042 3602869.2 6
  237.0886 85266008 160
  254.115 530777216 999
//
