ACCESSION: MSBNK-Eawag-EQ311702
RECORD_TITLE: Pretilachlor; LC-ESI-QFT; MS2; CE: 30; R=35000; [M+H]+
DATE: 2015.08.25
AUTHORS: Beck B, Stravs M, Schymanski E, Singer H, Department of Environmental Chemistry, Eawag
LICENSE: CC BY
COPYRIGHT: Copyright (C) 2015 Eawag, Duebendorf, Switzerland
COMMENT: CONFIDENCE standard compound
COMMENT: EAWAG_UCHEM_ID 3117
CH$NAME: Pretilachlor
CH$NAME: 2-chloranyl-N-(2,6-diethylphenyl)-N-(2-propoxyethyl)ethanamide
CH$COMPOUND_CLASS: N/A; Environmental Standard
CH$FORMULA: C17H26ClNO2
CH$EXACT_MASS: 311.16521
CH$SMILES: ClCC(=O)N(c1c(cccc1CC)CC)CCOCCC
CH$IUPAC: InChI=1S/C17H26ClNO2/c1-4-11-21-12-10-19(16(20)13-18)17-14(5-2)8-7-9-15(17)6-3/h7-9H,4-6,10-13H2,1-3H3
CH$LINK: CAS 51218-49-6
CH$LINK: KEGG C14517
CH$LINK: PUBCHEM CID:91644
CH$LINK: INCHIKEY YLPGTOIOYRQOHV-UHFFFAOYSA-N
CH$LINK: CHEMSPIDER 82747
CH$LINK: COMPTOX DTXSID8058112
AC$INSTRUMENT: Q Exactive Orbitrap Thermo Scientific
AC$INSTRUMENT_TYPE: LC-ESI-QFT
AC$MASS_SPECTROMETRY: MS_TYPE MS2
AC$MASS_SPECTROMETRY: ION_MODE POSITIVE
AC$MASS_SPECTROMETRY: IONIZATION ESI
AC$MASS_SPECTROMETRY: FRAGMENTATION_MODE HCD
AC$MASS_SPECTROMETRY: COLLISION_ENERGY 30 (nominal)
AC$MASS_SPECTROMETRY: RESOLUTION 35000
AC$CHROMATOGRAPHY: COLUMN_NAME XBridge C18 3.5um, 2.1x50mm, Waters
AC$CHROMATOGRAPHY: FLOW_GRADIENT 90/10 at 0 min, 50/50 at 4 min, 5/95 at 17 min, 5/95 at 25 min, 90/10 at 25.1 min, 90/10 at 30 min
AC$CHROMATOGRAPHY: FLOW_RATE 200 ul/min
AC$CHROMATOGRAPHY: RETENTION_TIME 14.4 min
AC$CHROMATOGRAPHY: SOLVENT A water with 0.1% formic acid
AC$CHROMATOGRAPHY: SOLVENT B methanol with 0.1% formic acid
MS$FOCUSED_ION: BASE_PEAK 312.173
MS$FOCUSED_ION: PRECURSOR_M/Z 312.1725
MS$FOCUSED_ION: PRECURSOR_TYPE [M+H]+
MS$DATA_PROCESSING: DEPROFILE Spline
MS$DATA_PROCESSING: RECALIBRATE loess on assigned fragments and MS1
MS$DATA_PROCESSING: REANALYZE Peaks with additional N2/O included
MS$DATA_PROCESSING: WHOLE RMassBank 1.9.6
PK$SPLASH: splash10-0udi-0090000000-86829bfe11762096b3d6
PK$ANNOTATION: m/z tentative_formula formula_count mass error(ppm)
  105.0695 C8H9+ 1 105.0699 -3.59
  118.0651 C8H8N+ 1 118.0651 -0.56
  146.0966 C10H12N+ 1 146.0964 1.47
  147.1045 C10H13N+ 1 147.1043 1.97
  174.1278 C12H16N+ 1 174.1277 0.6
  176.1435 C12H18N+ 1 176.1434 0.65
  252.1152 C14H19ClNO+ 2 252.115 0.84
  312.1721 C17H27ClNO2+ 1 312.1725 -1.36
PK$NUM_PEAK: 8
PK$PEAK: m/z int. rel.int.
  105.0695 1177228.8 1
  118.0651 1300130.7 1
  146.0966 2941628.1 4
  147.1045 1014207.3 1
  174.1278 1256133.9 1
  176.1435 15478013.5 21
  252.1152 726457969.3 999
  312.1721 3712653.6 5
//
