ACCESSION: MSBNK-Eawag-EA012864
RECORD_TITLE: Metsulfuron-methyl; LC-ESI-ITFT; MS2; CE: 35%; R=30000; [M-H]-
DATE: 2014.01.14
AUTHORS: Stravs M, Schymanski E, Singer H, Department of Environmental Chemistry, Eawag
LICENSE: CC BY
COPYRIGHT: Copyright (C) 2012 Eawag, Duebendorf, Switzerland
COMMENT: CONFIDENCE standard compound
COMMENT: EAWAG_UCHEM_ID 128
CH$NAME: Metsulfuron-methyl
CH$NAME: 2-[(4-methoxy-6-methyl-s-triazin-2-yl)carbamoylsulfamoyl]benzoic acid methyl ester
CH$COMPOUND_CLASS: N/A; Environmental Standard
CH$FORMULA: C14H15N5O6S
CH$EXACT_MASS: 381.0743
CH$SMILES: c1(c(cccc1)C(OC)=O)S(NC(Nc1nc(nc(n1)C)OC)=O)(=O)=O
CH$IUPAC: InChI=1S/C14H15N5O6S/c1-8-15-12(18-14(16-8)25-3)17-13(21)19-26(22,23)10-7-5-4-6-9(10)11(20)24-2/h4-7H,1-3H3,(H2,15,16,17,18,19,21)
CH$LINK: CAS 74223-64-6
CH$LINK: KEGG C10946
CH$LINK: PUBCHEM CID:52999
CH$LINK: INCHIKEY RSMUVYRMZCOLBH-UHFFFAOYSA-N
CH$LINK: CHEMSPIDER 47883
CH$LINK: COMPTOX DTXSID6023864
AC$INSTRUMENT: LTQ Orbitrap XL Thermo Scientific
AC$INSTRUMENT_TYPE: LC-ESI-ITFT
AC$MASS_SPECTROMETRY: MS_TYPE MS2
AC$MASS_SPECTROMETRY: ION_MODE NEGATIVE
AC$MASS_SPECTROMETRY: IONIZATION ESI
AC$MASS_SPECTROMETRY: FRAGMENTATION_MODE CID
AC$MASS_SPECTROMETRY: COLLISION_ENERGY 35 % (nominal)
AC$MASS_SPECTROMETRY: RESOLUTION 30000
AC$CHROMATOGRAPHY: COLUMN_NAME XBridge C18 3.5um, 2.1x50mm, Waters
AC$CHROMATOGRAPHY: FLOW_GRADIENT 90/10 at 0 min, 50/50 at 4 min, 5/95 at 17 min, 5/95 at 25 min, 90/10 at 25.1 min, 90/10 at 30 min
AC$CHROMATOGRAPHY: FLOW_RATE 200 ul/min
AC$CHROMATOGRAPHY: RETENTION_TIME 7.1 min
AC$CHROMATOGRAPHY: SOLVENT A water with 0.1% formic acid
AC$CHROMATOGRAPHY: SOLVENT B methanol with 0.1% formic acid
MS$FOCUSED_ION: BASE_PEAK 380.0664
MS$FOCUSED_ION: PRECURSOR_M/Z 380.067
MS$FOCUSED_ION: PRECURSOR_TYPE [M-H]-
MS$DATA_PROCESSING: DEPROFILE Spline
MS$DATA_PROCESSING: RECALIBRATE loess on assigned fragments and MS1
MS$DATA_PROCESSING: REANALYZE Peaks with additional N2/O included
MS$DATA_PROCESSING: WHOLE RMassBank 1.3.1
PK$SPLASH: splash10-0019-0910000000-1211edd71c3abcbae967
PK$ANNOTATION: m/z tentative_formula formula_count mass error(ppm)
  139.0627 C5H7N4O- 1 139.0625 0.9
  181.9919 C7H4NO3S- 1 181.9917 1.11
  214.0181 C8H8NO4S- 2 214.018 0.78
PK$NUM_PEAK: 3
PK$PEAK: m/z int. rel.int.
  139.0627 1233666.2 999
  181.9919 853677.3 691
  214.0181 269031.5 217
//
