ACCESSION: MSBNK-Eawag-EQ00292553
RECORD_TITLE: 8-2-PAP; LC-ESI-QFT; MS2; CE: 45%; R=17500; [M-H]-
DATE: 2024.05.15
AUTHORS: B. Beck [dtc,com], J. Hollender [dtc]
LICENSE: CC BY-SA
COPYRIGHT: Copyright (C) Eawag 2023
COMMENT: CONFIDENCE standard compound
COMMENT: UCHEM_ID 2925
CH$NAME: 8-2-PAP
CH$NAME: Perfluorodecyl phosphate
CH$NAME: 3,3,4,4,5,5,6,6,7,7,8,8,9,9,10,10,10-heptadecafluorodecyl dihydrogen phosphate
CH$COMPOUND_CLASS: N/A; Environmental Standard
CH$FORMULA: C10H6F17O4P
CH$EXACT_MASS: 543.973225042
CH$SMILES: C(COP(=O)(O)O)C(C(C(C(C(C(C(C(F)(F)F)(F)F)(F)F)(F)F)(F)F)(F)F)(F)F)(F)F
CH$IUPAC: InChI=1S/C10H6F17O4P/c11-3(12,1-2-31-32(28,29)30)4(13,14)5(15,16)6(17,18)7(19,20)8(21,22)9(23,24)10(25,26)27/h1-2H2,(H2,28,29,30)
CH$LINK: CHEBI CHEBI:83541
CH$LINK: PUBCHEM CID:10143739
CH$LINK: INCHIKEY MIABSAQIFYEDJP-UHFFFAOYSA-N
CH$LINK: CHEMSPIDER 8319248
AC$INSTRUMENT: Exploris 240 Orbitrap Thermo Scientific
AC$INSTRUMENT_TYPE: LC-ESI-QFT
AC$MASS_SPECTROMETRY: MS_TYPE MS2
AC$MASS_SPECTROMETRY: ION_MODE NEGATIVE
AC$MASS_SPECTROMETRY: IONIZATION ESI
AC$MASS_SPECTROMETRY: FRAGMENTATION_MODE HCD
AC$MASS_SPECTROMETRY: COLLISION_ENERGY 45 % (nominal)
AC$MASS_SPECTROMETRY: RESOLUTION 17500
AC$MASS_SPECTROMETRY: MASS_RANGE_M/Z 57-575
AC$CHROMATOGRAPHY: COLUMN_NAME XBridge C18 3.5um, 2.1x50mm, Waters
AC$CHROMATOGRAPHY: FLOW_GRADIENT 90/10 at 0 min, 50/50 at 4 min, 5/95 at 17 min, 5/95 at 25 min, 90/10 at 25.1 min, 90/10 at 30 min
AC$CHROMATOGRAPHY: FLOW_RATE 200 uL/min
AC$CHROMATOGRAPHY: RETENTION_TIME 11.931 min
MS$FOCUSED_ION: BASE_PEAK 542.9659
MS$FOCUSED_ION: PRECURSOR_M/Z 542.9659
MS$FOCUSED_ION: PRECURSOR_TYPE [M-H]-
MS$DATA_PROCESSING: RECALIBRATE loess on assigned fragments and MS1
MS$DATA_PROCESSING: REANALYZE Peaks with additional N2/O included
MS$DATA_PROCESSING: WHOLE RMassBank 3.15.1.1
PK$SPLASH: splash10-002b-9000000000-b9ea7d9d4f66b926305d
PK$ANNOTATION: m/z tentative_formula formula_count mass error(ppm)
  78.9591 O3P- 1 78.9591 0.03
  96.9696 H2O4P- 1 96.9696 -0.17
PK$NUM_PEAK: 2
PK$PEAK: m/z int. rel.int.
  78.9591 1303388.1 600
  96.9696 2167019.2 999
//
