ACCESSION: MSBNK-Eawag-EA295110
RECORD_TITLE: Chlorpyrifos-methyl; LC-ESI-ITFT; MS2; CE: 45%; R=15000; [M+H]+
DATE: 2014.01.14
AUTHORS: Stravs M, Schymanski E, Singer H, Department of Environmental Chemistry, Eawag
LICENSE: CC BY
COPYRIGHT: Copyright (C) 2012 Eawag, Duebendorf, Switzerland
COMMENT: CONFIDENCE standard compound
COMMENT: EAWAG_UCHEM_ID 2951
CH$NAME: Chlorpyrifos-methyl
CH$NAME: dimethoxy-sulfanylidene-(3,5,6-trichloropyridin-2-yl)oxy-{5}-phosphane
CH$COMPOUND_CLASS: N/A; Environmental Standard
CH$FORMULA: C7H7Cl3NO3PS
CH$EXACT_MASS: 320.8950
CH$SMILES: Clc1c(OP(=S)(OC)OC)nc(Cl)c(Cl)c1
CH$IUPAC: InChI=1S/C7H7Cl3NO3PS/c1-12-15(16,13-2)14-7-5(9)3-4(8)6(10)11-7/h3H,1-2H3
CH$LINK: CAS 5598-13-0
CH$LINK: CHEBI CHEBI:34632
CH$LINK: KEGG C14520
CH$LINK: PUBCHEM CID:21803
CH$LINK: INCHIKEY HRBKVYFZANMGRE-UHFFFAOYSA-N
CH$LINK: CHEMSPIDER 20493
CH$LINK: COMPTOX DTXSID6032352
AC$INSTRUMENT: LTQ Orbitrap XL Thermo Scientific
AC$INSTRUMENT_TYPE: LC-ESI-ITFT
AC$MASS_SPECTROMETRY: MS_TYPE MS2
AC$MASS_SPECTROMETRY: ION_MODE POSITIVE
AC$MASS_SPECTROMETRY: IONIZATION ESI
AC$MASS_SPECTROMETRY: FRAGMENTATION_MODE HCD
AC$MASS_SPECTROMETRY: COLLISION_ENERGY 45 % (nominal)
AC$MASS_SPECTROMETRY: RESOLUTION 15000
AC$CHROMATOGRAPHY: COLUMN_NAME XBridge C18 3.5um, 2.1x50mm, Waters
AC$CHROMATOGRAPHY: FLOW_GRADIENT 90/10 at 0 min, 50/50 at 4 min, 5/95 at 17 min, 5/95 at 25 min, 90/10 at 25.1 min, 90/10 at 30 min
AC$CHROMATOGRAPHY: FLOW_RATE 200 ul/min
AC$CHROMATOGRAPHY: RETENTION_TIME 14.0 min
AC$CHROMATOGRAPHY: SOLVENT A water with 0.1% formic acid
AC$CHROMATOGRAPHY: SOLVENT B methanol with 0.1% formic acid
MS$FOCUSED_ION: BASE_PEAK 321.9026
MS$FOCUSED_ION: PRECURSOR_M/Z 321.9023
MS$FOCUSED_ION: PRECURSOR_TYPE [M+H]+
MS$DATA_PROCESSING: DEPROFILE Spline
MS$DATA_PROCESSING: RECALIBRATE loess on assigned fragments and MS1
MS$DATA_PROCESSING: REANALYZE Peaks with additional N2/O included
MS$DATA_PROCESSING: WHOLE RMassBank 1.3.1
PK$SPLASH: splash10-00dl-0910000000-f9156de8cac1c5811099
PK$ANNOTATION: m/z tentative_formula formula_count mass error(ppm)
  62.0184 C2H6S+ 1 62.0185 -0.53
  78.9942 CH4O2P+ 2 78.9943 -1.55
  109.0048 C2H6O3P+ 2 109.0049 -1.35
  110.9663 CH4O2PS+ 2 110.9664 -1.29
  124.9819 C2H6O2PS+ 2 124.9821 -0.99
  127.0153 C3H8ClO3+ 1 127.0156 -2.35
  142.9925 C2H8O3PS+ 2 142.9926 -1.18
  197.9274 C5H3Cl3NO+ 3 197.9275 -0.32
  207.9386 C6H4Cl2NOS+ 2 207.9385 0.64
  211.8886 C4HCl2NOPS+ 2 211.8888 -0.91
  211.9429 C6H5Cl3NO+ 2 211.9431 -1.05
  229.8992 C4H3Cl2NO2PS+ 3 229.8994 -0.64
  289.8758 C6H4Cl3NO2PS+ 1 289.876 -0.71
PK$NUM_PEAK: 13
PK$PEAK: m/z int. rel.int.
  62.0184 3352.2 6
  78.9942 29554.3 54
  109.0048 7054.2 13
  110.9663 5548.2 10
  124.9819 539565.1 999
  127.0153 112441 208
  142.9925 470748.6 871
  197.9274 6174.4 11
  207.9386 1819.1 3
  211.8886 11631.4 21
  211.9429 3272.7 6
  229.8992 23094.8 42
  289.8758 148130.3 274
//
