ACCESSION: MSBNK-Eawag-EQ335206
RECORD_TITLE: Diphenhydramine; LC-ESI-QFT; MS2; CE: 90; R=35000; [M+H]+
DATE: 2015.08.25
AUTHORS: Beck B, Stravs M, Schymanski E, Singer H, Department of Environmental Chemistry, Eawag
LICENSE: CC BY
COPYRIGHT: Copyright (C) 2015 Eawag, Duebendorf, Switzerland
COMMENT: CONFIDENCE standard compound
COMMENT: EAWAG_UCHEM_ID 3352
CH$NAME: Diphenhydramine
CH$NAME: 2-benzhydryloxy-N,N-dimethylethanamine
CH$COMPOUND_CLASS: N/A; Environmental Standard
CH$FORMULA: C17H21NO
CH$EXACT_MASS: 255.16231
CH$SMILES: CN(C)CCOC(C1=CC=CC=C1)C2=CC=CC=C2
CH$IUPAC: InChI=1S/C17H21NO/c1-18(2)13-14-19-17(15-9-5-3-6-10-15)16-11-7-4-8-12-16/h3-12,17H,13-14H2,1-2H3
CH$LINK: CAS 147-24-0
CH$LINK: CHEBI CHEBI:4636
CH$LINK: KEGG C06960
CH$LINK: PUBCHEM CID:3100
CH$LINK: INCHIKEY ZZVUWRFHKOJYTH-UHFFFAOYSA-N
CH$LINK: CHEMSPIDER 2989
CH$LINK: COMPTOX DTXSID4022949
AC$INSTRUMENT: Q Exactive Plus Orbitrap Thermo Scientific
AC$INSTRUMENT_TYPE: LC-ESI-QFT
AC$MASS_SPECTROMETRY: MS_TYPE MS2
AC$MASS_SPECTROMETRY: ION_MODE POSITIVE
AC$MASS_SPECTROMETRY: IONIZATION ESI
AC$MASS_SPECTROMETRY: FRAGMENTATION_MODE HCD
AC$MASS_SPECTROMETRY: COLLISION_ENERGY 90 (nominal)
AC$MASS_SPECTROMETRY: RESOLUTION 35000
AC$CHROMATOGRAPHY: COLUMN_NAME XBridge C18 3.5um, 2.1x50mm, Waters
AC$CHROMATOGRAPHY: FLOW_GRADIENT 90/10 at 0 min, 50/50 at 4 min, 5/95 at 17 min, 5/95 at 25 min, 90/10 at 25.1 min, 90/10 at 30 min
AC$CHROMATOGRAPHY: FLOW_RATE 200 ul/min
AC$CHROMATOGRAPHY: RETENTION_TIME 6.6 min
AC$CHROMATOGRAPHY: SOLVENT A water with 0.1% formic acid
AC$CHROMATOGRAPHY: SOLVENT B methanol with 0.1% formic acid
MS$FOCUSED_ION: BASE_PEAK 256.1694
MS$FOCUSED_ION: PRECURSOR_M/Z 256.1696
MS$FOCUSED_ION: PRECURSOR_TYPE [M+H]+
MS$DATA_PROCESSING: RECALIBRATE loess on assigned fragments and MS1
MS$DATA_PROCESSING: REANALYZE Peaks with additional N2/O included
MS$DATA_PROCESSING: WHOLE RMassBank 1.9.6
PK$SPLASH: splash10-0gb9-0900000000-50251362d768cd1b1c4f
PK$ANNOTATION: m/z tentative_formula formula_count mass error(ppm)
  63.0227 C5H3+ 1 63.0229 -4.23
  65.0386 C5H5+ 1 65.0386 0.36
  115.0542 C9H7+ 1 115.0542 0.12
  128.0621 C10H8+ 1 128.0621 0.06
  139.0541 C11H7+ 1 139.0542 -1.05
  141.0699 C11H9+ 1 141.0699 0.02
  150.0464 C12H6+ 1 150.0464 -0.08
  151.0542 C12H7+ 1 151.0542 -0.24
  152.0621 C12H8+ 1 152.0621 0.19
  164.062 C13H8+ 1 164.0621 -0.56
  165.0699 C13H9+ 1 165.0699 0.32
  166.0777 C13H10+ 1 166.0777 0.23
  167.0855 C13H11+ 1 167.0855 0.02
  169.0648 C12H9O+ 1 169.0648 -0.19
  179.0604 C12H7N2+ 1 179.0604 0.14
PK$NUM_PEAK: 15
PK$PEAK: m/z int. rel.int.
  63.0227 404117 1
  65.0386 733899.6 2
  115.0542 4360955.5 14
  128.0621 17214896 56
  139.0541 1005122.1 3
  141.0699 19286722 63
  150.0464 478762.7 1
  151.0542 6248801.5 20
  152.0621 296225920 968
  164.062 1337328.6 4
  165.0699 305628096 999
  166.0777 75130832 245
  167.0855 57516576 188
  169.0648 13146430 42
  179.0604 5833205 19
//
