ACCESSION: MSBNK-Eawag-EQ327304
RECORD_TITLE: Pramoxine; LC-ESI-QFT; MS2; CE: 60; R=35000; [M+H]+
DATE: 2015.08.25
AUTHORS: Beck B, Stravs M, Schymanski E, Singer H, Department of Environmental Chemistry, Eawag
LICENSE: CC BY
COPYRIGHT: Copyright (C) 2015 Eawag, Duebendorf, Switzerland
COMMENT: CONFIDENCE standard compound
COMMENT: EAWAG_UCHEM_ID 3273
CH$NAME: Pramoxine
CH$NAME: 4-[3-(4-butoxyphenoxy)propyl]morpholine
CH$COMPOUND_CLASS: N/A; Environmental Standard
CH$FORMULA: C17H27NO3
CH$EXACT_MASS: 293.19909
CH$SMILES: CCCCOC1=CC=C(C=C1)OCCCN2CCOCC2
CH$IUPAC: InChI=1S/C17H27NO3/c1-2-3-12-20-16-5-7-17(8-6-16)21-13-4-9-18-10-14-19-15-11-18/h5-8H,2-4,9-15H2,1H3
CH$LINK: CAS 637-58-1
CH$LINK: CHEBI CHEBI:8357
CH$LINK: KEGG C07892
CH$LINK: PUBCHEM CID:4886
CH$LINK: INCHIKEY DQKXQSGTHWVTAD-UHFFFAOYSA-N
CH$LINK: CHEMSPIDER 4717
CH$LINK: COMPTOX DTXSID8040692
AC$INSTRUMENT: Q Exactive Plus Orbitrap Thermo Scientific
AC$INSTRUMENT_TYPE: LC-ESI-QFT
AC$MASS_SPECTROMETRY: MS_TYPE MS2
AC$MASS_SPECTROMETRY: ION_MODE POSITIVE
AC$MASS_SPECTROMETRY: IONIZATION ESI
AC$MASS_SPECTROMETRY: FRAGMENTATION_MODE HCD
AC$MASS_SPECTROMETRY: COLLISION_ENERGY 60 (nominal)
AC$MASS_SPECTROMETRY: RESOLUTION 35000
AC$CHROMATOGRAPHY: COLUMN_NAME XBridge C18 3.5um, 2.1x50mm, Waters
AC$CHROMATOGRAPHY: FLOW_GRADIENT 90/10 at 0 min, 50/50 at 4 min, 5/95 at 17 min, 5/95 at 25 min, 90/10 at 25.1 min, 90/10 at 30 min
AC$CHROMATOGRAPHY: FLOW_RATE 200 ul/min
AC$CHROMATOGRAPHY: RETENTION_TIME 7.3 min
AC$CHROMATOGRAPHY: SOLVENT A water with 0.1% formic acid
AC$CHROMATOGRAPHY: SOLVENT B methanol with 0.1% formic acid
MS$FOCUSED_ION: BASE_PEAK 294.206
MS$FOCUSED_ION: PRECURSOR_M/Z 294.2064
MS$FOCUSED_ION: PRECURSOR_TYPE [M+H]+
MS$DATA_PROCESSING: RECALIBRATE loess on assigned fragments and MS1
MS$DATA_PROCESSING: REANALYZE Peaks with additional N2/O included
MS$DATA_PROCESSING: WHOLE RMassBank 1.9.6
PK$SPLASH: splash10-0udi-1900000000-6dba3652b26250fc34b5
PK$ANNOTATION: m/z tentative_formula formula_count mass error(ppm)
  56.0495 C3H6N+ 1 56.0495 -0.46
  57.0573 C3H7N+ 1 57.0573 -0.89
  57.0699 C4H9+ 1 57.0699 -0.47
  58.0651 C3H8N+ 1 58.0651 -0.44
  65.0386 C5H5+ 1 65.0386 -0.41
  67.0542 C5H7+ 1 67.0542 -0.7
  68.997 C3HO2+ 1 68.9971 -0.95
  70.0651 C4H8N+ 1 70.0651 -0.79
  72.0443 C3H6NO+ 1 72.0444 -0.7
  72.0807 C4H10N+ 1 72.0808 -0.77
  79.0541 C6H7+ 1 79.0542 -2.11
  82.0651 C5H8N+ 1 82.0651 -0.07
  84.0807 C5H10N+ 1 84.0808 -0.78
  85.0521 C4H7NO+ 1 85.0522 -1
  86.06 C4H8NO+ 1 86.06 -0.7
  87.0679 C4H9NO+ 1 87.0679 0.51
  88.0756 C4H10NO+ 1 88.0757 -0.69
  95.0491 C6H7O+ 1 95.0491 -0.33
  98.06 C5H8NO+ 1 98.06 -0.61
  98.0964 C6H12N+ 1 98.0964 -0.36
  100.0756 C5H10NO+ 1 100.0757 -1
  102.0912 C5H12NO+ 1 102.0913 -0.98
  105.0698 C8H9+ 1 105.0699 -0.83
  107.0488 C7H7O+ 1 107.0491 -2.81
  109.0283 C6H5O2+ 1 109.0284 -0.6
  110.0362 C6H6O2+ 1 110.0362 -0.55
  111.044 C6H7O2+ 1 111.0441 -0.32
  121.0396 C6H5N2O+ 1 121.0396 -0.08
  123.044 C7H7O2+ 1 123.0441 -0.7
  126.0912 C7H12NO+ 1 126.0913 -0.88
  128.1069 C7H14NO+ 1 128.107 -0.71
  133.0646 C9H9O+ 1 133.0648 -1.74
  151.0753 C9H11O2+ 1 151.0754 -0.24
  179.1066 C11H15O2+ 1 179.1067 -0.26
  294.2062 C17H28NO3+ 1 294.2064 -0.51
PK$NUM_PEAK: 35
PK$PEAK: m/z int. rel.int.
  56.0495 30521740 28
  57.0573 1351407.5 1
  57.0699 9941929 9
  58.0651 11655100 10
  65.0386 1442208.8 1
  67.0542 6470206 6
  68.997 1302895.9 1
  70.0651 60314416 56
  72.0443 1490470.6 1
  72.0807 27826760 25
  79.0541 1352900.1 1
  82.0651 1672513.8 1
  84.0807 6639547 6
  85.0521 1111881.5 1
  86.06 68223976 63
  87.0679 1613467.8 1
  88.0756 19615198 18
  95.0491 19592296 18
  98.06 1349718.4 1
  98.0964 10408921 9
  100.0756 1070587520 999
  102.0912 12318072 11
  105.0698 3463057 3
  107.0488 2055927.6 1
  109.0283 6332262.5 5
  110.0362 4343701.5 4
  111.044 2784340.2 2
  121.0396 3503056.5 3
  123.044 194823312 181
  126.0912 2972722 2
  128.1069 152046912 141
  133.0646 2913190.2 2
  151.0753 65154496 60
  179.1066 12272959 11
  294.2062 5394939 5
//
