ACCESSION: MSBNK-Eawag-EQ500208
RECORD_TITLE: Sulisobenzone; LC-ESI-QFT; MS2; CE: 150%; R=15000; [M+H]+
DATE: 2021.03.16
AUTHORS: K. Kiefer [dtc], J. Hollender [dtc], H. Singer [dtc], B. Lauper [com]
LICENSE: CC BY-SA
COPYRIGHT: Copyright (C) Eawag 2019
PUBLICATION: Kiefer, K., Du, L., Singer, H., Hollender, J.. Identification of LC-HRMS Nontarget Signals in Groundwater After Source Related Prioritization. Water Research 2021, 196. DOI: https://doi.org/10.1016/j.watres.2021.116994
COMMENT: CONFIDENCE standard compound
COMMENT: UCHEM_ID 5002
CH$NAME: Sulisobenzone
CH$NAME: 5-benzoyl-4-hydroxy-2-methoxybenzenesulfonic acid
CH$COMPOUND_CLASS: N/A; Environmental Standard
CH$FORMULA: C14H12O6S
CH$EXACT_MASS: 308.0355
CH$SMILES: COC1=C(C=C(C(=C1)O)C(=O)C2=CC=CC=C2)S(=O)(=O)O
CH$IUPAC: InChI=1S/C14H12O6S/c1-20-12-8-11(15)10(7-13(12)21(17,18)19)14(16)9-5-3-2-4-6-9/h2-8,15H,1H3,(H,17,18,19)
CH$LINK: CAS 6628-37-1
CH$LINK: CHEBI CHEBI:135312
CH$LINK: PUBCHEM CID:19988
CH$LINK: INCHIKEY CXVGEDCSTKKODG-UHFFFAOYSA-N
CH$LINK: CHEMSPIDER 18829
CH$LINK: COMPTOX DTXSID2042436
AC$INSTRUMENT: Orbitrap Exploris 240 Thermo Scientific
AC$INSTRUMENT_TYPE: LC-ESI-QFT
AC$MASS_SPECTROMETRY: MS_TYPE MS2
AC$MASS_SPECTROMETRY: ION_MODE POSITIVE
AC$MASS_SPECTROMETRY: IONIZATION ESI
AC$MASS_SPECTROMETRY: FRAGMENTATION_MODE HCD
AC$MASS_SPECTROMETRY: COLLISION_ENERGY 150 % (nominal)
AC$MASS_SPECTROMETRY: RESOLUTION 15000
AC$MASS_SPECTROMETRY: MASS_RANGE_M/Z NA-NA
AC$CHROMATOGRAPHY: COLUMN_NAME Atlantis C18 3um, 3.0x150mm, Waters
AC$CHROMATOGRAPHY: FLOW_GRADIENT 100/0 at 0 min, 100/0 at 1.5 min, 5/95 at 18.5 min, 5/95 at 28.5 min, 100/0 at 29 min, 100/0 at 33 min
AC$CHROMATOGRAPHY: FLOW_RATE 300 uL/min
AC$CHROMATOGRAPHY: RETENTION_TIME 21.459 min
MS$FOCUSED_ION: BASE_PEAK 301.141
MS$FOCUSED_ION: PRECURSOR_M/Z 309.0427
MS$FOCUSED_ION: PRECURSOR_TYPE [M+H]+
MS$FOCUSED_ION: PRECURSOR_INTENSITY 2643682.25
MS$DATA_PROCESSING: RECALIBRATE loess on assigned fragments and MS1
MS$DATA_PROCESSING: REANALYZE Peaks with additional N2/O included
MS$DATA_PROCESSING: WHOLE RMassBank 2.99.4
PK$SPLASH: splash10-0udi-9000000000-e80433320f5d4b561317
PK$ANNOTATION: m/z tentative_formula formula_count mass error(ppm)
  50.0151 C4H2+ 1 50.0151 -0.76
  51.0229 C4H3+ 1 51.0229 0.24
  53.0022 C3HO+ 1 53.0022 0.49
  53.0387 C4H5+ 1 53.0386 2.56
  63.0229 C5H3+ 1 63.0229 -0.01
  64.0307 C5H4+ 1 64.0308 -0.59
  65.0386 C5H5+ 1 65.0386 -0.38
  68.9972 C3HO2+ 1 68.9971 1.81
  77.0385 C6H5+ 1 77.0386 -0.43
  79.0178 C5H3O+ 1 79.0178 0.02
  91.0179 C6H3O+ 1 91.0178 0.87
  92.0257 C6H4O+ 1 92.0257 0.59
  95.0492 C6H7O+ 1 95.0491 0.97
PK$NUM_PEAK: 14
PK$PEAK: m/z int. rel.int.
  50.0151 26958.4 170
  51.0229 129491.7 819
  53.0022 157881.4 999
  53.0387 12244.5 77
  63.0229 58935.6 372
  64.0307 25243.5 159
  65.0386 88216.5 558
  68.9972 23127.7 146
  77.0385 46811.2 296
  79.0178 62236.2 393
  91.0179 8677.5 54
  92.0257 12093.7 76
  95.0492 32965.9 208
  105.0446 38801.9 245
//
