ACCESSION: MSBNK-Eawag-EA268301
RECORD_TITLE: Ifosfamide; LC-ESI-ITFT; MS2; CE: 35%; R=7500; [M+H]+
DATE: 2014.01.14
AUTHORS: Stravs M, Schymanski E, Singer H, Department of Environmental Chemistry, Eawag
LICENSE: CC BY
COPYRIGHT: Copyright (C) 2012 Eawag, Duebendorf, Switzerland
COMMENT: CONFIDENCE standard compound
COMMENT: EAWAG_UCHEM_ID 2683
CH$NAME: Ifosfamide
CH$NAME: Isophosphamide
CH$NAME: N,3-Bis(2-chloroethyl)-1,3,2-oxazaphosphinan-2-amine 2-oxide
CH$COMPOUND_CLASS: N/A; Environmental Standard
CH$FORMULA: C7H15Cl2N2O2P
CH$EXACT_MASS: 260.0248
CH$SMILES: ClCCN(P(OC1)(=O)NCCCl)CC1
CH$IUPAC: InChI=1S/C7H15Cl2N2O2P/c8-2-4-10-14(12)11(6-3-9)5-1-7-13-14/h1-7H2,(H,10,12)
CH$LINK: CAS 3778-73-2
CH$LINK: KEGG C07047
CH$LINK: PUBCHEM CID:3690
CH$LINK: INCHIKEY HOMGKSMUEGBAAB-UHFFFAOYSA-N
CH$LINK: CHEMSPIDER 3562
CH$LINK: COMPTOX DTXSID7020760
AC$INSTRUMENT: LTQ Orbitrap XL Thermo Scientific
AC$INSTRUMENT_TYPE: LC-ESI-ITFT
AC$MASS_SPECTROMETRY: MS_TYPE MS2
AC$MASS_SPECTROMETRY: ION_MODE POSITIVE
AC$MASS_SPECTROMETRY: IONIZATION ESI
AC$MASS_SPECTROMETRY: FRAGMENTATION_MODE CID
AC$MASS_SPECTROMETRY: COLLISION_ENERGY 35 % (nominal)
AC$MASS_SPECTROMETRY: RESOLUTION 7500
AC$CHROMATOGRAPHY: COLUMN_NAME XBridge C18 3.5um, 2.1x50mm, Waters
AC$CHROMATOGRAPHY: FLOW_GRADIENT 90/10 at 0 min, 50/50 at 4 min, 5/95 at 17 min, 5/95 at 25 min, 90/10 at 25.1 min, 90/10 at 30 min
AC$CHROMATOGRAPHY: FLOW_RATE 200 ul/min
AC$CHROMATOGRAPHY: RETENTION_TIME 6.3 min
AC$CHROMATOGRAPHY: SOLVENT A water with 0.1% formic acid
AC$CHROMATOGRAPHY: SOLVENT B methanol with 0.1% formic acid
MS$FOCUSED_ION: BASE_PEAK 261.0321
MS$FOCUSED_ION: PRECURSOR_M/Z 261.0321
MS$FOCUSED_ION: PRECURSOR_TYPE [M+H]+
MS$DATA_PROCESSING: DEPROFILE Spline
MS$DATA_PROCESSING: RECALIBRATE loess on assigned fragments and MS1
MS$DATA_PROCESSING: REANALYZE Peaks with additional N2/O included
MS$DATA_PROCESSING: WHOLE RMassBank 1.3.1
PK$SPLASH: splash10-001i-0490000000-17ba12fd0e00df2723dc
PK$ANNOTATION: m/z tentative_formula formula_count mass error(ppm)
  78.0105 C2H5ClN+ 2 78.0105 0.6
  92.0262 C3H7ClN+ 2 92.0262 0.51
  115.9665 ClH4NO2P+ 3 115.9663 2.16
  118.0057 C4H5ClNO+ 4 118.0054 2.31
  118.0419 CH12ClN2P+ 3 118.0421 -1.81
  120.0575 C5H11ClN+ 2 120.0575 0.72
  127.9664 C2H4Cl2NO+ 3 127.9664 -0.36
  128.0265 C2H10ClN2P+ 3 128.0265 0.52
  139.9664 C3H4Cl2NO+ 3 139.9664 -0.25
  141.9822 C3H6Cl2NO+ 3 141.9821 0.88
  146.0366 C5H9NO2P+ 4 146.0365 0.54
  153.982 C3H6ClNO2P+ 4 153.9819 0.46
  164.9863 C5H7ClO2P+ 2 164.9867 -2.12
  182.0133 C6H10Cl2NO+ 3 182.0134 -0.36
  184.0293 C6H12Cl2NO+ 2 184.029 1.44
  185.0245 C5H11Cl2N2O+ 2 185.0243 0.95
  199.04 C6H13Cl2N2O+ 2 199.0399 0.08
  200.024 C6H12Cl2NO2+ 1 200.024 0.1
  217.9901 C5H11Cl2NO2P+ 1 217.9899 1.07
  225.0561 C7H15ClN2O2P+ 1 225.0554 3.16
  233.0008 C5H12Cl2N2O2P+ 1 233.0008 0.19
PK$NUM_PEAK: 21
PK$PEAK: m/z int. rel.int.
  78.0105 784820.3 20
  92.0262 1604282.7 41
  115.9665 59512.4 1
  118.0057 39705.4 1
  118.0419 48449.1 1
  120.0575 993525.6 26
  127.9664 153352.4 4
  128.0265 96897.2 2
  139.9664 60640.7 1
  141.9822 45593.9 1
  146.0366 1016766.7 26
  153.982 5734630.6 150
  164.9863 62034 1
  182.0133 11089389.6 290
  184.0293 75488.6 1
  185.0245 56367.4 1
  199.04 83657.9 2
  200.024 879649.3 23
  217.9901 382701.2 10
  225.0561 42539.2 1
  233.0008 38161280.4 999
//
