ACCESSION: MSBNK-Eawag-EQ345604
RECORD_TITLE: N-Nitrosodipropylamine (NDPA); LC-ESI-QFT; MS2; CE: 60; R=70000; [M+H]+
DATE: 2015.08.25
AUTHORS: Beck B, Stravs M, Schymanski E, Singer H, Department of Environmental Chemistry, Eawag
LICENSE: CC BY
COPYRIGHT: Copyright (C) 2015 Eawag, Duebendorf, Switzerland
COMMENT: CONFIDENCE standard compound
COMMENT: EAWAG_UCHEM_ID 3456
CH$NAME: N-Nitrosodipropylamine (NDPA)
CH$NAME: N,N-dipropylnitrous amide
CH$COMPOUND_CLASS: N/A; Environmental Standard
CH$FORMULA: C6H14N2O
CH$EXACT_MASS: 130.11061
CH$SMILES: O=NN(CCC)CCC
CH$IUPAC: InChI=1S/C6H14N2O/c1-3-5-8(7-9)6-4-2/h3-6H2,1-2H3
CH$LINK: CAS 621-64-7
CH$LINK: KEGG C19279
CH$LINK: PUBCHEM CID:12130
CH$LINK: INCHIKEY YLKFDHTUAUWZPQ-UHFFFAOYSA-N
CH$LINK: CHEMSPIDER 11632
CH$LINK: COMPTOX DTXSID6021032
AC$INSTRUMENT: Q Exactive Plus Orbitrap Thermo Scientific
AC$INSTRUMENT_TYPE: LC-ESI-QFT
AC$MASS_SPECTROMETRY: MS_TYPE MS2
AC$MASS_SPECTROMETRY: ION_MODE POSITIVE
AC$MASS_SPECTROMETRY: IONIZATION ESI
AC$MASS_SPECTROMETRY: FRAGMENTATION_MODE HCD
AC$MASS_SPECTROMETRY: COLLISION_ENERGY 60 (nominal)
AC$MASS_SPECTROMETRY: RESOLUTION 70000
AC$CHROMATOGRAPHY: COLUMN_NAME XBridge C18 3.5um, 2.1x50mm, Waters
AC$CHROMATOGRAPHY: FLOW_GRADIENT 90/10 at 0 min, 50/50 at 4 min, 5/95 at 17 min, 5/95 at 25 min, 90/10 at 25.1 min, 90/10 at 30 min
AC$CHROMATOGRAPHY: FLOW_RATE 200 ul/min
AC$CHROMATOGRAPHY: RETENTION_TIME 6.4 min
AC$CHROMATOGRAPHY: SOLVENT A water with 0.1% formic acid
AC$CHROMATOGRAPHY: SOLVENT B methanol with 0.1% formic acid
MS$FOCUSED_ION: BASE_PEAK 131.118
MS$FOCUSED_ION: PRECURSOR_M/Z 131.1179
MS$FOCUSED_ION: PRECURSOR_TYPE [M+H]+
MS$DATA_PROCESSING: RECALIBRATE loess on assigned fragments and MS1
MS$DATA_PROCESSING: REANALYZE Peaks with additional N2/O included
MS$DATA_PROCESSING: WHOLE RMassBank 1.9.6
PK$SPLASH: splash10-000i-9000000000-f8f6246644bd36ea4fdf
PK$ANNOTATION: m/z tentative_formula formula_count mass error(ppm)
  52.0182 C3H2N+ 1 52.0182 0.86
  53.0022 C3HO+ 1 53.0022 -0.02
  53.9974 C2NO+ 1 53.9974 -0.37
  54.01 C3H2O+ 1 54.01 -0.67
  58.0652 C3H8N+ 1 58.0651 0.42
  59.0491 C3H7O+ 1 59.0491 -0.02
  67.9893 C3O2+ 1 67.9893 -0.16
  89.0709 C3H9N2O+ 1 89.0709 -0.22
  131.1179 C6H15N2O+ 1 131.1179 0.23
PK$NUM_PEAK: 9
PK$PEAK: m/z int. rel.int.
  52.0182 6876.1 6
  53.0022 362723.3 356
  53.9974 53121.4 52
  54.01 26765.8 26
  58.0652 10570.5 10
  59.0491 10420.6 10
  67.9893 53964.7 53
  89.0709 1015876.1 999
  131.1179 122981.1 120
//
