ACCESSION: MSBNK-Eawag-EQ00304407
RECORD_TITLE: Clofentezine; LC-ESI-QFT; MS2; CE: 120%; R=15000; [M+H]+
DATE: 2024.06.14
AUTHORS: F. Jud [dtc], K. Arturi [dtc], J. Hollender [dtc], A. Dax [com]
LICENSE: CC BY-SA
COPYRIGHT: Copyright (C) Eawag 2024
COMMENT: CONFIDENCE standard compound
COMMENT: UCHEM_ID 3044
CH$NAME: Clofentezine
CH$NAME: 3,6-bis(2-chlorophenyl)-1,2,4,5-tetrazine
CH$COMPOUND_CLASS: N/A
CH$FORMULA: C14H8Cl2N4
CH$EXACT_MASS: 302.0126016
CH$SMILES: C1=CC=C(C(=C1)C2=NN=C(N=N2)C3=CC=CC=C3Cl)Cl
CH$IUPAC: InChI=1S/C14H8Cl2N4/c15-11-7-3-1-5-9(11)13-17-19-14(20-18-13)10-6-2-4-8-12(10)16/h1-8H
CH$LINK: CAS 94-02-0
CH$LINK: CHEBI CHEBI:39315
CH$LINK: KEGG C18576
CH$LINK: PUBCHEM CID:73670
CH$LINK: INCHIKEY UXADOQPNKNTIHB-UHFFFAOYSA-N
CH$LINK: CHEMSPIDER 66321
AC$INSTRUMENT: Exploris 240 Thermo Scientific
AC$INSTRUMENT_TYPE: LC-ESI-QFT
AC$MASS_SPECTROMETRY: MS_TYPE MS2
AC$MASS_SPECTROMETRY: ION_MODE POSITIVE
AC$MASS_SPECTROMETRY: IONIZATION ESI
AC$MASS_SPECTROMETRY: FRAGMENTATION_MODE HCD
AC$MASS_SPECTROMETRY: COLLISION_ENERGY 120 % (nominal)
AC$MASS_SPECTROMETRY: RESOLUTION 15000
AC$MASS_SPECTROMETRY: MASS_RANGE_M/Z 50-330
AC$CHROMATOGRAPHY: COLUMN_NAME XBridge C18 3.5um, 2.1x50mm, Waters
AC$CHROMATOGRAPHY: FLOW_GRADIENT 90/10 at 0 min, 50/50 at 4 min, 5/95 at 17 min, 5/95 at 25 min, 90/10 at 25.1 min, 90/10 at 30 min
AC$CHROMATOGRAPHY: FLOW_RATE 200 uL/min
AC$CHROMATOGRAPHY: RETENTION_TIME 11.787 min
MS$FOCUSED_ION: BASE_PEAK 303.0196
MS$FOCUSED_ION: PRECURSOR_M/Z 303.0199
MS$FOCUSED_ION: PRECURSOR_TYPE [M+H]+
MS$DATA_PROCESSING: RECALIBRATE loess on assigned fragments and MS1
MS$DATA_PROCESSING: REANALYZE Peaks with additional N2/O included
MS$DATA_PROCESSING: WHOLE RMassBank 3.15.1.1
PK$SPLASH: splash10-0fb9-9600000000-9aff075fbb9b4c7af129
PK$ANNOTATION: m/z tentative_formula formula_count mass error(ppm)
  50.0151 C4H2+ 1 50.0151 -0.9
  51.0229 C4H3+ 1 51.0229 -1.35
  52.0181 C3H2N+ 1 52.0182 -1
  74.0151 C6H2+ 1 74.0151 -0.46
  75.0228 C6H3+ 1 75.0229 -1.34
  76.0181 C5H2N+ 1 76.0182 -1.56
  102.0337 C7H4N+ 1 102.0338 -1.5
  130.0398 C7H4N3+ 1 130.04 -1.64
  138.0102 C7H5ClN+ 1 138.0105 -2.38
PK$NUM_PEAK: 9
PK$PEAK: m/z int. rel.int.
  50.0151 188620.5 46
  51.0229 1849407 457
  52.0181 186603.1 46
  74.0151 322911.5 79
  75.0228 4042506 999
  76.0181 1264199.8 312
  102.0337 2938349.8 726
  130.0398 2194084.8 542
  138.0102 193948.1 47
//
