ACCESSION: MSBNK-Eawag-EQ329356
RECORD_TITLE: Doxazosin; LC-ESI-QFT; MS2; CE: 90; R=35000; [M-H]-
DATE: 2015.08.25
AUTHORS: Otto J, Stravs M, Schymanski E, Singer H, Department of Environmental Chemistry, Eawag
LICENSE: CC BY
COPYRIGHT: Copyright (C) 2015 Eawag, Duebendorf, Switzerland
COMMENT: CONFIDENCE standard compound
COMMENT: EAWAG_UCHEM_ID 3293
CH$NAME: Doxazosin
CH$NAME: [4-(4-amino-6,7-dimethoxyquinazolin-2-yl)piperazin-1-yl]-(2,3-dihydro-1,4-benzodioxin-3-yl)methanone
CH$COMPOUND_CLASS: N/A; Environmental Standard
CH$FORMULA: C23H25N5O5
CH$EXACT_MASS: 451.18557
CH$SMILES: COC1=C(C=C2C(=C1)C(=NC(=N2)N3CCN(CC3)C(=O)C4COC5=CC=CC=C5O4)N)OC
CH$IUPAC: InChI=1S/C23H25N5O5/c1-30-18-11-14-15(12-19(18)31-2)25-23(26-21(14)24)28-9-7-27(8-10-28)22(29)20-13-32-16-5-3-4-6-17(16)33-20/h3-6,11-12,20H,7-10,13H2,1-2H3,(H2,24,25,26)
CH$LINK: CAS 74191-85-8
CH$LINK: KEGG D07874
CH$LINK: PUBCHEM CID:3157
CH$LINK: INCHIKEY RUZYUOTYCVRMRZ-UHFFFAOYSA-N
CH$LINK: CHEMSPIDER 3045
CH$LINK: COMPTOX DTXSID7022964
AC$INSTRUMENT: Q Exactive Orbitrap Thermo Scientific
AC$INSTRUMENT_TYPE: LC-ESI-QFT
AC$MASS_SPECTROMETRY: MS_TYPE MS2
AC$MASS_SPECTROMETRY: ION_MODE NEGATIVE
AC$MASS_SPECTROMETRY: IONIZATION ESI
AC$MASS_SPECTROMETRY: FRAGMENTATION_MODE HCD
AC$MASS_SPECTROMETRY: COLLISION_ENERGY 90 (nominal)
AC$MASS_SPECTROMETRY: RESOLUTION 35000
AC$CHROMATOGRAPHY: COLUMN_NAME XBridge C18 3.5um, 2.1x50mm, Waters
AC$CHROMATOGRAPHY: FLOW_GRADIENT 90/10 at 0 min, 50/50 at 4 min, 5/95 at 17 min, 5/95 at 25 min, 90/10 at 25.1 min, 90/10 at 30 min
AC$CHROMATOGRAPHY: FLOW_RATE 200 ul/min
AC$CHROMATOGRAPHY: RETENTION_TIME 7.2 min
AC$CHROMATOGRAPHY: SOLVENT A water with 0.1% formic acid
AC$CHROMATOGRAPHY: SOLVENT B methanol with 0.1% formic acid
MS$FOCUSED_ION: BASE_PEAK 496.1842
MS$FOCUSED_ION: PRECURSOR_M/Z 450.1783
MS$FOCUSED_ION: PRECURSOR_TYPE [M-H]-
MS$DATA_PROCESSING: DEPROFILE vendor picking in Proteowizard
MS$DATA_PROCESSING: RECALIBRATE loess on assigned fragments and MS1
MS$DATA_PROCESSING: REANALYZE Peaks with additional N2/O included
MS$DATA_PROCESSING: WHOLE RMassBank 1.9.6
PK$SPLASH: splash10-0a4i-1900000000-88bca2ddf2930fa0c468
PK$ANNOTATION: m/z tentative_formula formula_count mass error(ppm)
  64.0192 C4H2N- 1 64.0193 -0.67
  65.0032 C4HO- 1 65.0033 -1.05
  65.0145 C3HN2- 1 65.0145 -0.79
  65.0396 C5H5- 1 65.0397 -0.67
  65.9985 C3NO- 1 65.9985 -0.11
  66.0097 C2N3- 1 66.0098 -0.61
  67.0302 C3H3N2- 1 67.0302 -0.32
  68.0141 C3H2NO- 1 68.0142 -0.84
  70.0298 C3H4NO- 1 70.0298 -0.1
  77.0146 C4HN2- 1 77.0145 0.5
  80.0268 C5H4O- 1 80.0268 0.83
  81.0346 C5H5O- 1 81.0346 0.51
  81.0459 C4H5N2- 1 81.0458 0.35
  89.9986 C5NO- 1 89.9985 0.81
  90.0099 C4N3- 1 90.0098 0.88
  90.0349 C6H4N- 1 90.0349 -0.03
  91.019 C6H3O- 1 91.0189 0.57
  91.0302 C5H3N2- 1 91.0302 0.53
  92.0506 C6H6N- 1 92.0506 0.19
  93.0346 C6H5O- 1 93.0346 0.34
  105.0221 C6H3NO- 1 105.022 0.84
  105.0332 C5H3N3- 1 105.0332 0.04
  106.0285 C4H2N4- 1 106.0285 -0.42
  107.0378 C6H5NO- 1 107.0377 1.1
  108.0218 C6H4O2- 1 108.0217 0.76
  108.0456 C6H6NO- 1 108.0455 0.67
  109.0295 C6H5O2- 1 109.0295 0.16
  110.0722 C5H8N3- 1 110.0724 -1.1
  117.0096 C6HN2O- 1 117.0094 1.31
  117.046 C7H5N2- 1 117.0458 1.69
  118.03 C7H4NO- 1 118.0298 1.29
  119.0251 C6H3N2O- 1 119.0251 0.12
  120.033 C6H4N2O- 1 120.0329 0.91
  120.0456 C7H6NO- 1 120.0455 0.69
  121.0295 C7H5O2- 1 121.0295 -0.36
  121.0409 C6H5N2O- 1 121.0407 1.35
  130.0171 C7H2N2O- 1 130.0173 -1.01
  131.0252 C7H3N2O- 1 131.0251 0.64
  132.0331 C7H4N2O- 1 132.0329 1.05
  132.0454 C8H6NO- 1 132.0455 -0.51
  133.0284 C6H3N3O- 1 133.0282 1.65
  133.0407 C7H5N2O- 1 133.0407 -0.12
  134.0248 C7H4NO2- 1 134.0248 0.06
  134.0361 C6H4N3O- 1 134.036 1.23
  134.0611 C8H8NO- 1 134.0611 -0.2
  135.0452 C8H7O2- 1 135.0452 0.2
  142.0412 C8H4N3- 1 142.0411 0.77
  143.0255 C8H3N2O- 1 143.0251 2.75
  144.0203 C7H2N3O- 1 144.0203 -0.31
  145.0043 C7HN2O2- 1 145.0044 -0.63
  145.0282 C7H3N3O- 1 145.0282 -0.07
  145.0406 C8H5N2O- 1 145.0407 -0.8
  146.0359 C7H4N3O- 1 146.036 -0.31
  147.02 C7H3N2O2- 1 147.02 -0.28
  148.0277 C7H4N2O2- 1 148.0278 -0.65
  157.0282 C8H3N3O- 1 157.0282 0.06
  157.0519 C8H5N4- 1 157.052 -0.38
  158.0121 C8H2N2O2- 1 158.0122 -0.16
  158.036 C8H4N3O- 1 158.036 0.09
  159.0202 C8H3N2O2- 1 159.02 1.5
  159.0439 C8H5N3O- 1 159.0438 0.63
  159.0565 C9H7N2O- 1 159.0564 0.71
  159.0678 C8H7N4- 1 159.0676 0.94
  160.0516 C8H6N3O- 1 160.0516 0.09
  161.0353 C8H5N2O2- 1 161.0357 -2.06
  161.047 C7H5N4O- 1 161.0469 0.72
  171.0439 C9H5N3O- 1 171.0438 0.76
  171.0677 C9H7N4- 1 171.0676 0.29
  172.0153 C8H2N3O2- 1 172.0152 0.29
  172.0516 C9H6N3O- 1 172.0516 -0.09
  173.0234 C8H3N3O2- 1 173.0231 1.94
  173.0355 C9H5N2O2- 1 173.0357 -0.64
  173.0468 C8H5N4O- 1 173.0469 -0.49
  173.0592 C9H7N3O- 1 173.0595 -1.27
  174.0302 C8H4N3O2- 1 174.0309 -4.02
  174.0546 C8H6N4O- 1 174.0547 -0.69
  174.0672 C9H8N3O- 1 174.0673 -0.26
  184.0522 C10H6N3O- 2 184.0516 2.85
  185.0469 C9H5N4O- 1 185.0469 0.25
  185.0595 C10H7N3O- 1 185.0595 0.32
  185.0833 C10H9N4- 1 185.0833 -0.05
  186.0547 C9H6N4O- 1 186.0547 0
  187.0392 C9H5N3O2- 2 187.0387 2.27
  187.0626 C9H7N4O- 1 187.0625 0.19
  188.0341 C8H4N4O2- 1 188.034 0.67
  188.0468 C9H6N3O2- 1 188.0466 1.12
  188.0705 C9H8N4O- 1 188.0704 0.75
  189.0418 C8H5N4O2- 1 189.0418 0.01
  199.0626 C10H7N4O- 1 199.0625 0.38
  200.0703 C10H8N4O- 1 200.0704 -0.35
  201.042 C9H5N4O2- 1 201.0418 0.85
  201.0547 C10H7N3O2- 1 201.0544 1.57
  201.0784 C10H9N4O- 1 201.0782 1.02
  202.0501 C9H6N4O2- 2 202.0496 2.31
  211.0627 C11H7N4O- 1 211.0625 0.64
  213.0419 C10H5N4O2- 1 213.0418 0.29
  213.0783 C11H9N4O- 1 213.0782 0.68
  214.0497 C10H6N4O2- 1 214.0496 0.31
  215.0575 C10H7N4O2- 1 215.0574 0.33
  216.0655 C10H8N4O2- 1 216.0653 1.14
  227.0579 C11H7N4O2- 2 227.0574 2.03
  228.0654 C11H8N4O2- 1 228.0653 0.68
  228.0896 C11H10N5O- 2 228.0891 2.44
  229.0735 C11H9N4O2- 2 229.0731 1.75
  229.0971 C11H11N5O- 2 229.0969 1.05
  230.1047 C11H12N5O- 1 230.1047 -0.28
  233.0689 C10H9N4O3- 2 233.068 3.67
  241.0734 C12H9N4O2- 2 241.0731 1.37
  258.0998 C12H12N5O2- 2 258.0996 0.51
PK$NUM_PEAK: 109
PK$PEAK: m/z int. rel.int.
  64.0192 4663.6 2
  65.0032 11803.5 5
  65.0145 10035.2 4
  65.0396 8599.7 3
  65.9985 41378.4 18
  66.0097 15977.4 6
  67.0302 502801.9 219
  68.0141 2386 1
  70.0298 10268 4
  77.0146 16501.9 7
  80.0268 3141.6 1
  81.0346 38181.8 16
  81.0459 108009.1 47
  89.9986 3352.3 1
  90.0099 4208.9 1
  90.0349 27301.1 11
  91.019 47737 20
  91.0302 10646.2 4
  92.0506 156539.9 68
  93.0346 51196.4 22
  105.0221 4667.9 2
  105.0332 2566.2 1
  106.0285 43072 18
  107.0378 61732 26
  108.0218 311070.5 135
  108.0456 381343.5 166
  109.0295 2288971.8 999
  110.0722 3213.8 1
  117.0096 3576.1 1
  117.046 7706.6 3
  118.03 108845 47
  119.0251 262252.8 114
  120.033 19404.4 8
  120.0456 27477.4 11
  121.0295 7534.5 3
  121.0409 11744.5 5
  130.0171 23097.2 10
  131.0252 3721.2 1
  132.0331 7741.1 3
  132.0454 13597.1 5
  133.0284 2989.5 1
  133.0407 20113.5 8
  134.0248 68658.5 29
  134.0361 3871.5 1
  134.0611 15565.5 6
  135.0452 44969.7 19
  142.0412 3749.7 1
  143.0255 5763.9 2
  144.0203 228464.7 99
  145.0043 8592.1 3
  145.0282 135798.7 59
  145.0406 63526.8 27
  146.0359 23443.5 10
  147.02 99390.4 43
  148.0277 19796.2 8
  157.0282 3151.6 1
  157.0519 8349.7 3
  158.0121 23393 10
  158.036 15469.4 6
  159.0202 2877.6 1
  159.0439 9230.5 4
  159.0565 9139.5 3
  159.0678 3829.6 1
  160.0516 44476.1 19
  161.0353 4418.6 1
  161.047 11261.9 4
  171.0439 9162.6 3
  171.0677 3582 1
  172.0153 40419.6 17
  172.0516 189937.8 82
  173.0234 7961.7 3
  173.0355 3163 1
  173.0468 8767 3
  173.0592 45500 19
  174.0302 2313.6 1
  174.0546 39289.5 17
  174.0672 9326 4
  184.0522 4103.4 1
  185.0469 52448.6 22
  185.0595 4656 2
  185.0833 3304.4 1
  186.0547 303468 132
  187.0392 7529.7 3
  187.0626 143673.5 62
  188.0341 3673.3 1
  188.0468 12545.5 5
  188.0705 20410.2 8
  189.0418 24935.5 10
  199.0626 18005.9 7
  200.0703 14450.6 6
  201.042 4460.9 1
  201.0547 12566.1 5
  201.0784 24290.8 10
  202.0501 11916.6 5
  211.0627 2612.3 1
  213.0419 48336.1 21
  213.0783 30190.8 13
  214.0497 158265.4 69
  215.0575 94813.1 41
  216.0655 2894.8 1
  227.0579 2666.4 1
  228.0654 3718.9 1
  228.0896 4529.3 1
  229.0735 4109.7 1
  229.0971 9735.1 4
  230.1047 26626.6 11
  233.0689 8867.2 3
  241.0734 3710.7 1
  258.0998 3645.3 1
//
