ACCESSION: MSBNK-Eawag-EQ01155352
RECORD_TITLE: Phenylephrine 3-O-sulfate; LC-ESI-QFT; MS2; CE: 30%; R=17500; [M-H]-
DATE: 2024.05.08
AUTHORS: C. Meyer [dtc], B. Beck [dtc,com], J. Hollender [dtc]
LICENSE: CC BY-SA
COPYRIGHT: Copyright (C) Eawag 2023
PUBLICATION: Meyer, C., Stravs, M., Hollender, J.. How Wastewater Reflects Human Metabolism - Suspect Screening of Pharmaceutical Metabolites in Wastewater Influent. doi:10.1021/acs.est.4c00968
COMMENT: CONFIDENCE standard compound
COMMENT: UCHEM_ID 11553
CH$NAME: Phenylephrine 3-O-sulfate
CH$NAME: [3-[1-hydroxy-2-(methylamino)ethyl]phenyl] hydrogen sulfate
CH$COMPOUND_CLASS: N/A; Environmental Standard
CH$FORMULA: C9H13NO5S
CH$EXACT_MASS: 247.0514435
CH$SMILES: CNCC(C1=CC(=CC=C1)OS(=O)(=O)O)O
CH$IUPAC: InChI=1S/C9H13NO5S/c1-10-6-9(11)7-3-2-4-8(5-7)15-16(12,13)14/h2-5,9-11H,6H2,1H3,(H,12,13,14)
CH$LINK: PUBCHEM CID:139600527
CH$LINK: INCHIKEY RNPCQQLCTVIPNU-UHFFFAOYSA-N
CH$LINK: CHEMSPIDER 64880266
AC$INSTRUMENT: Exploris 240 Orbitrap Thermo Scientific
AC$INSTRUMENT_TYPE: LC-ESI-QFT
AC$MASS_SPECTROMETRY: MS_TYPE MS2
AC$MASS_SPECTROMETRY: ION_MODE NEGATIVE
AC$MASS_SPECTROMETRY: IONIZATION ESI
AC$MASS_SPECTROMETRY: FRAGMENTATION_MODE HCD
AC$MASS_SPECTROMETRY: COLLISION_ENERGY 30 % (nominal)
AC$MASS_SPECTROMETRY: RESOLUTION 17500
AC$MASS_SPECTROMETRY: MASS_RANGE_M/Z 50-272
AC$CHROMATOGRAPHY: COLUMN_NAME XBridge C18 3.5um, 2.1x50mm, Waters
AC$CHROMATOGRAPHY: FLOW_GRADIENT 90/10 at 0 min, 50/50 at 4 min, 5/95 at 17 min, 5/95 at 25 min, 90/10 at 25.1 min, 90/10 at 30 min
AC$CHROMATOGRAPHY: FLOW_RATE 200 uL/min
AC$CHROMATOGRAPHY: RETENTION_TIME 0.984 min
MS$FOCUSED_ION: BASE_PEAK 246.0441
MS$FOCUSED_ION: PRECURSOR_M/Z 246.0442
MS$FOCUSED_ION: PRECURSOR_TYPE [M-H]-
MS$DATA_PROCESSING: RECALIBRATE loess on assigned fragments and MS1
MS$DATA_PROCESSING: REANALYZE Peaks with additional N2/O included
MS$DATA_PROCESSING: WHOLE RMassBank 3.15.1
PK$SPLASH: splash10-00kb-0690000000-c06870034a6e8eaf2e74
PK$ANNOTATION: m/z tentative_formula formula_count mass error(ppm)
  79.9574 O3S- 1 79.9574 0.18
  96.96 HO4S- 1 96.9601 -0.71
  109.0292 C6H5O2- 1 109.0295 -2.47
  122.0374 C7H6O2- 1 122.0373 0.52
  123.0453 C7H7O2- 1 123.0452 1.22
  166.0873 C9H12NO2- 1 166.0874 -0.11
  246.0442 C9H12NO5S- 1 246.0442 0.04
PK$NUM_PEAK: 7
PK$PEAK: m/z int. rel.int.
  79.9574 606385.2 52
  96.96 152580.8 13
  109.0292 54507.4 4
  122.0374 52401.7 4
  123.0453 33731.3 2
  166.0873 7594470.5 658
  246.0442 11524061 999
//
