ACCESSION: MSBNK-Eawag-EA295009
RECORD_TITLE: Chlorpyrifos; LC-ESI-ITFT; MS2; CE: 30%; R=15000; [M+H]+
DATE: 2014.01.14
AUTHORS: Stravs M, Schymanski E, Singer H, Department of Environmental Chemistry, Eawag
LICENSE: CC BY
COPYRIGHT: Copyright (C) 2012 Eawag, Duebendorf, Switzerland
COMMENT: CONFIDENCE standard compound
COMMENT: EAWAG_UCHEM_ID 2950
CH$NAME: Chlorpyrifos
CH$NAME: diethoxy-sulfanylidene-(3,5,6-trichloropyridin-2-yl)oxy-{5}-phosphane
CH$COMPOUND_CLASS: N/A; Environmental Standard
CH$FORMULA: C9H11Cl3NO3PS
CH$EXACT_MASS: 348.9263
CH$SMILES: Clc1c(OP(=S)(OCC)OCC)nc(Cl)c(Cl)c1
CH$IUPAC: InChI=1S/C9H11Cl3NO3PS/c1-3-14-17(18,15-4-2)16-9-7(11)5-6(10)8(12)13-9/h5H,3-4H2,1-2H3
CH$LINK: CAS 2921-88-2
CH$LINK: CHEBI CHEBI:34631
CH$LINK: KEGG D07688
CH$LINK: PUBCHEM CID:2730
CH$LINK: INCHIKEY SBPBAQFWLVIOKP-UHFFFAOYSA-N
CH$LINK: CHEMSPIDER 2629
CH$LINK: COMPTOX DTXSID4020458
AC$INSTRUMENT: LTQ Orbitrap XL Thermo Scientific
AC$INSTRUMENT_TYPE: LC-ESI-ITFT
AC$MASS_SPECTROMETRY: MS_TYPE MS2
AC$MASS_SPECTROMETRY: ION_MODE POSITIVE
AC$MASS_SPECTROMETRY: IONIZATION ESI
AC$MASS_SPECTROMETRY: FRAGMENTATION_MODE HCD
AC$MASS_SPECTROMETRY: COLLISION_ENERGY 30 % (nominal)
AC$MASS_SPECTROMETRY: RESOLUTION 15000
AC$CHROMATOGRAPHY: COLUMN_NAME XBridge C18 3.5um, 2.1x50mm, Waters
AC$CHROMATOGRAPHY: FLOW_GRADIENT 90/10 at 0 min, 50/50 at 4 min, 5/95 at 17 min, 5/95 at 25 min, 90/10 at 25.1 min, 90/10 at 30 min
AC$CHROMATOGRAPHY: FLOW_RATE 200 ul/min
AC$CHROMATOGRAPHY: RETENTION_TIME 16.0 min
AC$CHROMATOGRAPHY: SOLVENT A water with 0.1% formic acid
AC$CHROMATOGRAPHY: SOLVENT B methanol with 0.1% formic acid
MS$FOCUSED_ION: BASE_PEAK 349.9337
MS$FOCUSED_ION: PRECURSOR_M/Z 349.9336
MS$FOCUSED_ION: PRECURSOR_TYPE [M+H]+
MS$DATA_PROCESSING: DEPROFILE Spline
MS$DATA_PROCESSING: RECALIBRATE loess on assigned fragments and MS1
MS$DATA_PROCESSING: REANALYZE Peaks with additional N2/O included
MS$DATA_PROCESSING: WHOLE RMassBank 1.3.1
PK$SPLASH: splash10-0002-1910000000-bfd22e25d1af7f7accb3
PK$ANNOTATION: m/z tentative_formula formula_count mass error(ppm)
  96.9508 H2O2PS+ 2 96.9508 0.17
  110.9664 CH4O2PS+ 2 110.9664 -0.12
  114.9613 H4O3PS+ 2 114.9613 -0.07
  124.9821 C2H6O2PS+ 2 124.9821 -0.03
  128.9769 CH6O3PS+ 3 128.977 -0.45
  142.9927 C2H8O3PS+ 2 142.9926 0.29
  153.0134 C4H10O2PS+ 2 153.0134 0.11
  171.0239 C4H12O3PS+ 2 171.0239 0.01
  197.9275 C5H3Cl3NO+ 4 197.9275 0.14
  213.9047 C5H3Cl3NS+ 4 213.9046 0.14
  225.9588 C7H7Cl3NO+ 3 225.9588 0.12
  275.8603 C5H2Cl3NO2PS+ 1 275.8604 -0.16
  293.8709 C5H4Cl3NO3PS+ 2 293.871 -0.2
  303.8913 C7H6Cl3NO2PS+ 1 303.8917 -1.27
  321.9021 C7H8Cl3NO3PS+ 1 321.9023 -0.37
  321.9218 C6H7Cl3N3O4S+ 1 321.9217 0.26
PK$NUM_PEAK: 16
PK$PEAK: m/z int. rel.int.
  96.9508 713198.3 379
  110.9664 2963.8 1
  114.9613 1099568.7 585
  124.9821 277125.1 147
  128.9769 4513.3 2
  142.9927 67861.4 36
  153.0134 62114.1 33
  171.0239 105756.8 56
  197.9275 1875801.5 999
  213.9047 100094.3 53
  225.9588 19680 10
  275.8603 56116.1 29
  293.8709 590646.2 314
  303.8913 5503.2 2
  321.9021 126991 67
  321.9218 17121.2 9
//
