ACCESSION: MSBNK-Eawag-EQ362702
RECORD_TITLE: Lacosamide; LC-ESI-QFT; MS2; CE: 30; R=35000; [M+H]+
DATE: 2015.08.25
AUTHORS: Stravs M, Schymanski E, Singer H, Department of Environmental Chemistry, Eawag and Thomaidis N, University of Athens
LICENSE: CC BY
COPYRIGHT: Copyright (C) 2015 Eawag, Duebendorf, Switzerland
COMMENT: CONFIDENCE standard compound
COMMENT: EAWAG_UCHEM_ID 3627
CH$NAME: Lacosamide
CH$NAME: N2-Acetyl-N-benzyl-O-methyl-D-serinamide
CH$NAME: 2-acetamido-N-benzyl-3-methoxypropanamide
CH$COMPOUND_CLASS: N/A; Environmental Standard
CH$FORMULA: C13H18N2O3
CH$EXACT_MASS: 250.13174
CH$SMILES: CC(=O)NC(COC)C(=O)NCC1=CC=CC=C1
CH$IUPAC: InChI=1S/C13H18N2O3/c1-10(16)15-12(9-18-2)13(17)14-8-11-6-4-3-5-7-11/h3-7,12H,8-9H2,1-2H3,(H,14,17)(H,15,16)
CH$LINK: CAS 175481-36-4
CH$LINK: PUBCHEM CID:21634109
CH$LINK: INCHIKEY VPPJLAIAVCUEMN-UHFFFAOYSA-N
CH$LINK: CHEMSPIDER 10266281
AC$INSTRUMENT: Q Exactive Plus Orbitrap Thermo Scientific
AC$INSTRUMENT_TYPE: LC-ESI-QFT
AC$MASS_SPECTROMETRY: MS_TYPE MS2
AC$MASS_SPECTROMETRY: ION_MODE POSITIVE
AC$MASS_SPECTROMETRY: IONIZATION ESI
AC$MASS_SPECTROMETRY: FRAGMENTATION_MODE HCD
AC$MASS_SPECTROMETRY: COLLISION_ENERGY 30 (nominal)
AC$MASS_SPECTROMETRY: RESOLUTION 35000
AC$CHROMATOGRAPHY: COLUMN_NAME XBridge C18 3.5um, 2.1x50mm, Waters
AC$CHROMATOGRAPHY: FLOW_GRADIENT 90/10 at 0 min, 50/50 at 4 min, 5/95 at 17 min, 5/95 at 25 min, 90/10 at 25.1 min, 90/10 at 30 min
AC$CHROMATOGRAPHY: FLOW_RATE 200 ul/min
AC$CHROMATOGRAPHY: RETENTION_TIME 5.1 min
AC$CHROMATOGRAPHY: SOLVENT A water with 0.1% formic acid
AC$CHROMATOGRAPHY: SOLVENT B methanol with 0.1% formic acid
MS$FOCUSED_ION: BASE_PEAK 251.138
MS$FOCUSED_ION: PRECURSOR_M/Z 251.139
MS$FOCUSED_ION: PRECURSOR_TYPE [M+H]+
MS$DATA_PROCESSING: RECALIBRATE loess on assigned fragments and MS1
MS$DATA_PROCESSING: REANALYZE Peaks with additional N2/O included
MS$DATA_PROCESSING: WHOLE RMassBank 1.9.6
PK$SPLASH: splash10-05mo-5900000000-17c9381dbfe6dd54ccea
PK$ANNOTATION: m/z tentative_formula formula_count mass error(ppm)
  59.0491 C3H7O+ 1 59.0491 -0.87
  74.0599 C3H8NO+ 1 74.06 -2.03
  91.0541 C7H7+ 1 91.0542 -1.5
  108.0806 C7H10N+ 1 108.0808 -1.72
  112.0391 C5H6NO2+ 1 112.0393 -1.65
  116.0704 C5H10NO2+ 1 116.0706 -1.59
  117.0696 C9H9+ 1 117.0699 -2.19
  120.0808 C8H10N+ 1 120.0808 0.2
  132.0807 C9H10N+ 1 132.0808 -0.65
  144.0653 C6H10NO3+ 1 144.0655 -1.18
  148.0755 C9H10NO+ 1 148.0757 -1.42
  160.0753 C10H10NO+ 1 160.0757 -2.13
  164.1068 C10H14NO+ 1 164.107 -1.04
  177.102 C10H13N2O+ 1 177.1022 -1.3
  206.1173 C12H16NO2+ 1 206.1176 -1.43
  209.1282 C11H17N2O2+ 1 209.1285 -1.12
  219.1125 C12H15N2O2+ 1 219.1128 -1.34
  233.1282 C13H17N2O2+ 1 233.1285 -1
  251.1388 C13H19N2O3+ 1 251.139 -1.03
PK$NUM_PEAK: 19
PK$PEAK: m/z int. rel.int.
  59.0491 493622.6 3
  74.0599 39837140 262
  91.0541 151796112 999
  108.0806 118449712 779
  112.0391 6875995 45
  116.0704 132926784 874
  117.0696 408979.9 2
  120.0808 153952.8 1
  132.0807 872646.1 5
  144.0653 24527116 161
  148.0755 405356.4 2
  160.0753 1595088.1 10
  164.1068 3763269 24
  177.102 17122596 112
  206.1173 283505.4 1
  209.1282 13859850 91
  219.1125 4406792.5 29
  233.1282 613822.9 4
  251.1388 163425.2 1
//
