ACCESSION: MSBNK-Eawag-EA294913
RECORD_TITLE: Lenacil; LC-ESI-ITFT; MS2; CE: 90%; R=30000; [M+H]+
DATE: 2014.01.14
AUTHORS: Stravs M, Schymanski E, Singer H, Department of Environmental Chemistry, Eawag
LICENSE: CC BY
COPYRIGHT: Copyright (C) 2012 Eawag, Duebendorf, Switzerland
COMMENT: CONFIDENCE standard compound
COMMENT: EAWAG_UCHEM_ID 2949
CH$NAME: Lenacil
CH$NAME: 3-cyclohexyl-1,5,6,7-tetrahydrocyclopenta[d]pyrimidine-2,4-dione
CH$COMPOUND_CLASS: N/A; Environmental Standard
CH$FORMULA: C13H18N2O2
CH$EXACT_MASS: 234.1368
CH$SMILES: O=C1\C3=C(/NC(=O)N1C2CCCCC2)CCC3
CH$IUPAC: InChI=1S/C13H18N2O2/c16-12-10-7-4-8-11(10)14-13(17)15(12)9-5-2-1-3-6-9/h9H,1-8H2,(H,14,17)
CH$LINK: CAS 2164-08-1
CH$LINK: KEGG C11200
CH$LINK: PUBCHEM CID:16559
CH$LINK: INCHIKEY ZTMKADLOSYKWCA-UHFFFAOYSA-N
CH$LINK: CHEMSPIDER 15699
CH$LINK: COMPTOX DTXSID9042093
AC$INSTRUMENT: LTQ Orbitrap XL Thermo Scientific
AC$INSTRUMENT_TYPE: LC-ESI-ITFT
AC$MASS_SPECTROMETRY: MS_TYPE MS2
AC$MASS_SPECTROMETRY: ION_MODE POSITIVE
AC$MASS_SPECTROMETRY: IONIZATION ESI
AC$MASS_SPECTROMETRY: FRAGMENTATION_MODE HCD
AC$MASS_SPECTROMETRY: COLLISION_ENERGY 90 % (nominal)
AC$MASS_SPECTROMETRY: RESOLUTION 30000
AC$CHROMATOGRAPHY: COLUMN_NAME XBridge C18 3.5um, 2.1x50mm, Waters
AC$CHROMATOGRAPHY: FLOW_GRADIENT 90/10 at 0 min, 50/50 at 4 min, 5/95 at 17 min, 5/95 at 25 min, 90/10 at 25.1 min, 90/10 at 30 min
AC$CHROMATOGRAPHY: FLOW_RATE 200 ul/min
AC$CHROMATOGRAPHY: RETENTION_TIME 8.6 min
AC$CHROMATOGRAPHY: SOLVENT A water with 0.1% formic acid
AC$CHROMATOGRAPHY: SOLVENT B methanol with 0.1% formic acid
MS$FOCUSED_ION: BASE_PEAK 235.1446
MS$FOCUSED_ION: PRECURSOR_M/Z 235.1441
MS$FOCUSED_ION: PRECURSOR_TYPE [M+H]+
MS$DATA_PROCESSING: DEPROFILE Spline
MS$DATA_PROCESSING: RECALIBRATE loess on assigned fragments and MS1
MS$DATA_PROCESSING: REANALYZE Peaks with additional N2/O included
MS$DATA_PROCESSING: WHOLE RMassBank 1.3.1
PK$SPLASH: splash10-0f79-1900000000-c8412e8f5a32647a648d
PK$ANNOTATION: m/z tentative_formula formula_count mass error(ppm)
  53.0386 C4H5+ 1 53.0386 -0.5
  55.0542 C4H7+ 1 55.0542 -0.67
  65.0386 C5H5+ 1 65.0386 -0.1
  67.0417 C4H5N+ 1 67.0417 0.29
  80.0495 C5H6N+ 1 80.0495 -0.2
  82.0652 C5H8N+ 1 82.0651 0.3
  83.0855 C6H11+ 1 83.0855 -0.68
  92.0494 C6H6N+ 1 92.0495 -0.6
  107.0604 C6H7N2+ 1 107.0604 0.14
  108.0443 C6H6NO+ 1 108.0444 -0.46
  109.076 C6H9N2+ 1 109.076 -0.41
  110.0601 C6H8NO+ 1 110.06 0.18
  125.0707 C6H9N2O+ 1 125.0709 -1.83
  126.0547 C6H8NO2+ 1 126.055 -2.18
  135.0553 C7H7N2O+ 1 135.0553 0.15
  136.0392 C7H6NO2+ 1 136.0393 -0.48
  151.0501 C7H7N2O2+ 1 151.0502 -0.56
  153.0657 C7H9N2O2+ 1 153.0659 -1.2
PK$NUM_PEAK: 18
PK$PEAK: m/z int. rel.int.
  53.0386 34239.4 3
  55.0542 171215.3 17
  65.0386 118530 11
  67.0417 122112.9 12
  80.0495 415604.9 41
  82.0652 2082127.5 207
  83.0855 134728 13
  92.0494 34319.2 3
  107.0604 21590 2
  108.0443 142237.3 14
  109.076 238109.5 23
  110.0601 3212688.6 320
  125.0707 41230.3 4
  126.0547 20031.4 2
  135.0553 3970115.7 396
  136.0392 6378115.5 637
  151.0501 37579.4 3
  153.0657 10001493.9 999
//
