ACCESSION: MSBNK-Eawag-EA010405
RECORD_TITLE: Acetochlor; LC-ESI-ITFT; MS2; CE: 60%; R=7500; [M+H]+
DATE: 2014.01.14
AUTHORS: Stravs M, Schymanski E, Singer H, Department of Environmental Chemistry, Eawag
LICENSE: CC BY
COPYRIGHT: Copyright (C) 2012 Eawag, Duebendorf, Switzerland
COMMENT: CONFIDENCE standard compound
COMMENT: EAWAG_UCHEM_ID 104
CH$NAME: Acetochlor
CH$NAME: 2-chloranyl-N-(ethoxymethyl)-N-(2-ethyl-6-methyl-phenyl)ethanamide
CH$COMPOUND_CLASS: N/A; Environmental Standard
CH$FORMULA: C14H20ClNO2
CH$EXACT_MASS: 269.1177
CH$SMILES: CCOCN(C(=O)CCl)C1=C(C)C=CC=C1CC
CH$IUPAC: InChI=1S/C14H20ClNO2/c1-4-12-8-6-7-11(3)14(12)16(10-18-5-2)13(17)9-15/h6-8H,4-5,9-10H2,1-3H3
CH$LINK: CAS 34256-82-1
CH$LINK: CHEBI CHEBI:2394
CH$LINK: KEGG C10925
CH$LINK: PUBCHEM CID:1988
CH$LINK: INCHIKEY VTNQPKFIQCLBDU-UHFFFAOYSA-N
CH$LINK: CHEMSPIDER 1911
CH$LINK: COMPTOX DTXSID8023848
AC$INSTRUMENT: LTQ Orbitrap XL Thermo Scientific
AC$INSTRUMENT_TYPE: LC-ESI-ITFT
AC$MASS_SPECTROMETRY: MS_TYPE MS2
AC$MASS_SPECTROMETRY: ION_MODE POSITIVE
AC$MASS_SPECTROMETRY: IONIZATION ESI
AC$MASS_SPECTROMETRY: FRAGMENTATION_MODE HCD
AC$MASS_SPECTROMETRY: COLLISION_ENERGY 60 % (nominal)
AC$MASS_SPECTROMETRY: RESOLUTION 7500
AC$CHROMATOGRAPHY: COLUMN_NAME XBridge C18 3.5um, 2.1x50mm, Waters
AC$CHROMATOGRAPHY: FLOW_GRADIENT 90/10 at 0 min, 50/50 at 4 min, 5/95 at 17 min, 5/95 at 25 min, 90/10 at 25.1 min, 90/10 at 30 min
AC$CHROMATOGRAPHY: FLOW_RATE 200 ul/min
AC$CHROMATOGRAPHY: RETENTION_TIME 11.7 min
AC$CHROMATOGRAPHY: SOLVENT A water with 0.1% formic acid
AC$CHROMATOGRAPHY: SOLVENT B methanol with 0.1% formic acid
MS$FOCUSED_ION: BASE_PEAK 292.1079
MS$FOCUSED_ION: PRECURSOR_M/Z 270.1255
MS$FOCUSED_ION: PRECURSOR_TYPE [M+H]+
MS$DATA_PROCESSING: DEPROFILE Spline
MS$DATA_PROCESSING: RECALIBRATE loess on assigned fragments and MS1
MS$DATA_PROCESSING: REANALYZE Peaks with additional N2/O included
MS$DATA_PROCESSING: WHOLE RMassBank 1.3.1
PK$SPLASH: splash10-0002-0900000000-534ee582bcfce096fe67
PK$ANNOTATION: m/z tentative_formula formula_count mass error(ppm)
  59.0492 C3H7O+ 1 59.0491 0.99
  90.0104 C3H5ClN+ 2 90.0105 -1.26
  131.0859 C10H11+ 1 131.0855 2.92
  133.0885 C9H11N+ 1 133.0886 -0.53
  148.112 C10H14N+ 1 148.1121 -0.51
  149.0962 C10H13O+ 2 149.0961 0.53
PK$NUM_PEAK: 6
PK$PEAK: m/z int. rel.int.
  59.0492 9492.8 66
  90.0104 8017.8 56
  131.0859 6361.7 44
  133.0885 45142.6 316
  148.112 142313.6 999
  149.0962 13420.6 94
//
