ACCESSION: MSBNK-Eawag-EQ319056
RECORD_TITLE: 2-Mercaptobenzothiazole; LC-ESI-QFT; MS2; CE: 90; R=35000; [M-H]-
DATE: 2015.08.26
AUTHORS: Beck B, Stravs M, Schymanski E, Singer H, Department of Environmental Chemistry, Eawag
LICENSE: CC BY
COPYRIGHT: Copyright (C) 2015 Eawag, Duebendorf, Switzerland
COMMENT: CONFIDENCE standard compound
COMMENT: EAWAG_UCHEM_ID 3190
CH$NAME: 2-Mercaptobenzothiazole
CH$NAME: 1,3-Benzothiazole-2(3H)-thione
CH$NAME: 3H-1,3-benzothiazole-2-thione
CH$COMPOUND_CLASS: N/A; Environmental Standard
CH$FORMULA: C7H5NS2
CH$EXACT_MASS: 166.98634
CH$SMILES: S=C2Sc1ccccc1N2
CH$IUPAC: InChI=1S/C7H5NS2/c9-7-8-5-3-1-2-4-6(5)10-7/h1-4H,(H,8,9)
CH$LINK: CAS 149-30-4
CH$LINK: CHEBI CHEBI:34292
CH$LINK: KEGG C14437
CH$LINK: PUBCHEM CID:697993
CH$LINK: INCHIKEY YXIWHUQXZSMYRE-UHFFFAOYSA-N
CH$LINK: CHEMSPIDER 608157
CH$LINK: COMPTOX DTXSID1020807
AC$INSTRUMENT: Q Exactive Plus Orbitrap Thermo Scientific
AC$INSTRUMENT_TYPE: LC-ESI-QFT
AC$MASS_SPECTROMETRY: MS_TYPE MS2
AC$MASS_SPECTROMETRY: ION_MODE NEGATIVE
AC$MASS_SPECTROMETRY: IONIZATION ESI
AC$MASS_SPECTROMETRY: FRAGMENTATION_MODE HCD
AC$MASS_SPECTROMETRY: COLLISION_ENERGY 90 (nominal)
AC$MASS_SPECTROMETRY: RESOLUTION 35000
AC$CHROMATOGRAPHY: COLUMN_NAME XBridge C18 3.5um, 2.1x50mm, Waters
AC$CHROMATOGRAPHY: FLOW_GRADIENT 90/10 at 0 min, 50/50 at 4 min, 5/95 at 17 min, 5/95 at 25 min, 90/10 at 25.1 min, 90/10 at 30 min
AC$CHROMATOGRAPHY: FLOW_RATE 200 ul/min
AC$CHROMATOGRAPHY: RETENTION_TIME 6.7 min
AC$CHROMATOGRAPHY: SOLVENT A water with 0.1% formic acid
AC$CHROMATOGRAPHY: SOLVENT B methanol with 0.1% formic acid
MS$FOCUSED_ION: BASE_PEAK 165.9789
MS$FOCUSED_ION: PRECURSOR_M/Z 165.9791
MS$FOCUSED_ION: PRECURSOR_TYPE [M-H]-
MS$DATA_PROCESSING: RECALIBRATE loess on assigned fragments and MS1
MS$DATA_PROCESSING: REANALYZE Peaks with additional N2/O included
MS$DATA_PROCESSING: WHOLE RMassBank 1.9.6
PK$SPLASH: splash10-0a59-8900000000-6da3258b33992f29c78c
PK$ANNOTATION: m/z tentative_formula formula_count mass error(ppm)
  57.9757 CNS- 1 57.9757 0.46
  63.9447 S2- 1 63.9447 0.46
  90.035 C6H4N- 1 90.0349 1.3
  102.0349 C7H4N- 1 102.0349 0.27
  134.0071 C7H4NS- 1 134.007 0.49
  164.9712 C7H3NS2- 1 164.9712 -0.36
  165.9791 C7H4NS2- 1 165.9791 0.39
PK$NUM_PEAK: 7
PK$PEAK: m/z int. rel.int.
  57.9757 149072592 999
  63.9447 7034408 47
  90.035 338884.8 2
  102.0349 14151399 94
  134.0071 128291328 859
  164.9712 997769.9 6
  165.9791 24916972 166
//
