ACCESSION: MSBNK-Eawag-EA293614
RECORD_TITLE: Iprovalicarb; LC-ESI-ITFT; MS2; CE: 35%; R=30000; [M+H]+
DATE: 2014.01.14
AUTHORS: Stravs M, Schymanski E, Singer H, Department of Environmental Chemistry, Eawag
LICENSE: CC BY
COPYRIGHT: Copyright (C) 2012 Eawag, Duebendorf, Switzerland
COMMENT: CONFIDENCE standard compound
COMMENT: EAWAG_UCHEM_ID 2936
CH$NAME: Iprovalicarb
CH$NAME: Isopropyl (3-methyl-1-{[(1S)-1-(4-methylphenyl)ethyl]amino}-1-oxo-2-butanyl)carbamate
CH$COMPOUND_CLASS: N/A; Environmental Standard
CH$FORMULA: C18H28N2O3
CH$EXACT_MASS: 320.2100
CH$SMILES: CC(C)OC(=O)NC(C(=O)N[C@@H](C)c1ccc(C)cc1)C(C)C
CH$IUPAC: InChI=1S/C18H28N2O3/c1-11(2)16(20-18(22)23-12(3)4)17(21)19-14(6)15-9-7-13(5)8-10-15/h7-12,14,16H,1-6H3,(H,19,21)(H,20,22)/t14-,16?/m0/s1
CH$LINK: CAS 140923-17-7
CH$LINK: PUBCHEM CID:178565
CH$LINK: INCHIKEY NWUWYYSKZYIQAE-LBAUFKAWSA-N
CH$LINK: CHEMSPIDER 155431
AC$INSTRUMENT: LTQ Orbitrap XL Thermo Scientific
AC$INSTRUMENT_TYPE: LC-ESI-ITFT
AC$MASS_SPECTROMETRY: MS_TYPE MS2
AC$MASS_SPECTROMETRY: ION_MODE POSITIVE
AC$MASS_SPECTROMETRY: IONIZATION ESI
AC$MASS_SPECTROMETRY: FRAGMENTATION_MODE CID
AC$MASS_SPECTROMETRY: COLLISION_ENERGY 35 % (nominal)
AC$MASS_SPECTROMETRY: RESOLUTION 30000
AC$CHROMATOGRAPHY: COLUMN_NAME XBridge C18 3.5um, 2.1x50mm, Waters
AC$CHROMATOGRAPHY: FLOW_GRADIENT 90/10 at 0 min, 50/50 at 4 min, 5/95 at 17 min, 5/95 at 25 min, 90/10 at 25.1 min, 90/10 at 30 min
AC$CHROMATOGRAPHY: FLOW_RATE 200 ul/min
AC$CHROMATOGRAPHY: RETENTION_TIME 11.4 min
AC$CHROMATOGRAPHY: SOLVENT A water with 0.1% formic acid
AC$CHROMATOGRAPHY: SOLVENT B methanol with 0.1% formic acid
MS$FOCUSED_ION: BASE_PEAK 321.2181
MS$FOCUSED_ION: PRECURSOR_M/Z 321.2173
MS$FOCUSED_ION: PRECURSOR_TYPE [M+H]+
MS$DATA_PROCESSING: DEPROFILE Spline
MS$DATA_PROCESSING: RECALIBRATE loess on assigned fragments and MS1
MS$DATA_PROCESSING: REANALYZE Peaks with additional N2/O included
MS$DATA_PROCESSING: WHOLE RMassBank 1.3.1
PK$SPLASH: splash10-0uxr-0960000000-e778d40e298fdd781417
PK$ANNOTATION: m/z tentative_formula formula_count mass error(ppm)
  98.0601 C5H8NO+ 1 98.06 0.2
  115.0543 C9H7+ 1 115.0542 0.46
  116.0706 C5H10NO2+ 1 116.0706 -0.04
  117.0699 C9H9+ 1 117.0699 0.28
  117.1022 C5H13N2O+ 1 117.1022 -0.34
  119.0856 C9H11+ 1 119.0855 0.36
  136.112 C9H14N+ 1 136.1121 -0.41
  144.0656 C6H10NO3+ 1 144.0655 0.42
  158.1175 C8H16NO2+ 1 158.1176 -0.03
  161.092 C6H13N2O3+ 1 161.0921 -0.36
  186.1125 C9H16NO3+ 1 186.1125 0.22
  203.139 C9H19N2O3+ 1 203.139 0.01
  235.1807 C14H23N2O+ 1 235.1805 0.81
PK$NUM_PEAK: 13
PK$PEAK: m/z int. rel.int.
  98.0601 464083.7 39
  115.0543 27155.3 2
  116.0706 4689013 403
  117.0699 108347.9 9
  117.1022 122161.5 10
  119.0856 2384500.2 205
  136.112 47681.8 4
  144.0656 3125872.5 268
  158.1175 710685.9 61
  161.092 58861 5
  186.1125 3907690.3 336
  203.139 11610369.8 999
  235.1807 25790 2
//
