ACCESSION: MSBNK-Eawag-EQ356251
RECORD_TITLE: Haloxyfop; LC-ESI-QFT; MS2; CE: 15; R=35000; [M-H]-
DATE: 2015.08.26
AUTHORS: Stravs M, Schymanski E, Singer H, Department of Environmental Chemistry, Eawag and Thomaidis N, University of Athens
LICENSE: CC BY
COPYRIGHT: Copyright (C) 2015 Eawag, Duebendorf, Switzerland
COMMENT: CONFIDENCE standard compound
COMMENT: EAWAG_UCHEM_ID 3562
CH$NAME: Haloxyfop
CH$NAME: 2-[4-[3-chloro-5-(trifluoromethyl)pyridin-2-yl]oxyphenoxy]propanoic acid
CH$COMPOUND_CLASS: N/A; Environmental Standard
CH$FORMULA: C15H11ClF3NO4
CH$EXACT_MASS: 361.03287
CH$SMILES: CC(C(=O)O)OC1=CC=C(C=C1)OC2=C(C=C(C=N2)C(F)(F)F)Cl
CH$IUPAC: InChI=1S/C15H11ClF3NO4/c1-8(14(21)22)23-10-2-4-11(5-3-10)24-13-12(16)6-9(7-20-13)15(17,18)19/h2-8H,1H3,(H,21,22)
CH$LINK: CAS 69806-34-4
CH$LINK: CHEBI CHEBI:365
CH$LINK: KEGG C04871
CH$LINK: PUBCHEM CID:50895
CH$LINK: INCHIKEY GOCUAJYOYBLQRH-UHFFFAOYSA-N
CH$LINK: CHEMSPIDER 46140
CH$LINK: COMPTOX DTXSID7042019
AC$INSTRUMENT: Q Exactive Plus Orbitrap Thermo Scientific
AC$INSTRUMENT_TYPE: LC-ESI-QFT
AC$MASS_SPECTROMETRY: MS_TYPE MS2
AC$MASS_SPECTROMETRY: ION_MODE NEGATIVE
AC$MASS_SPECTROMETRY: IONIZATION ESI
AC$MASS_SPECTROMETRY: FRAGMENTATION_MODE HCD
AC$MASS_SPECTROMETRY: COLLISION_ENERGY 15 (nominal)
AC$MASS_SPECTROMETRY: RESOLUTION 35000
AC$CHROMATOGRAPHY: COLUMN_NAME XBridge C18 3.5um, 2.1x50mm, Waters
AC$CHROMATOGRAPHY: FLOW_GRADIENT 90/10 at 0 min, 50/50 at 4 min, 5/95 at 17 min, 5/95 at 25 min, 90/10 at 25.1 min, 90/10 at 30 min
AC$CHROMATOGRAPHY: FLOW_RATE 200 ul/min
AC$CHROMATOGRAPHY: RETENTION_TIME 13.6 min
AC$CHROMATOGRAPHY: SOLVENT A water with 0.1% formic acid
AC$CHROMATOGRAPHY: SOLVENT B methanol with 0.1% formic acid
MS$FOCUSED_ION: BASE_PEAK 277.1447
MS$FOCUSED_ION: PRECURSOR_M/Z 360.0256
MS$FOCUSED_ION: PRECURSOR_TYPE [M-H]-
MS$DATA_PROCESSING: RECALIBRATE loess on assigned fragments and MS1
MS$DATA_PROCESSING: REANALYZE Peaks with additional N2/O included
MS$DATA_PROCESSING: WHOLE RMassBank 1.9.6
PK$SPLASH: splash10-000i-0093000000-bc33db39426e5fc66624
PK$ANNOTATION: m/z tentative_formula formula_count mass error(ppm)
  71.014 C3H3O2- 1 71.0139 2.49
  195.9774 C6H2ClF3NO- 2 195.9782 -4.13
  288.0051 C12H6ClF3NO2- 2 288.0045 2.17
  360.0263 C15H10ClF3NO4- 1 360.0256 1.99
PK$NUM_PEAK: 4
PK$PEAK: m/z int. rel.int.
  71.014 70909.4 73
  195.9774 6610.3 6
  288.0051 969251 999
  360.0263 391880.9 403
//
