ACCESSION: MSBNK-Eawag-EA274413
RECORD_TITLE: Morphine; LC-ESI-ITFT; MS2; CE: 90%; R=30000; [M+H]+
DATE: 2014.01.14
AUTHORS: Stravs M, Schymanski E, Singer H, Department of Environmental Chemistry, Eawag
LICENSE: CC BY
COPYRIGHT: Copyright (C) 2012 Eawag, Duebendorf, Switzerland
COMMENT: CONFIDENCE standard compound
COMMENT: EAWAG_UCHEM_ID 2744
CH$NAME: Morphine
CH$NAME: (4R,4aR,7S,7aR,12bS)-3-methyl-2,4,4a,7,7a,13-hexahydro-1H-4,12-methanobenzofuro[3,2-e]isoquinoline-7,9-diol
CH$COMPOUND_CLASS: N/A; Environmental Standard
CH$FORMULA: C17H19NO3
CH$EXACT_MASS: 285.1364935
CH$SMILES: CN1CC[C@]23[C@@H]4[C@H]1CC5=C2C(=C(C=C5)O)O[C@H]3[C@H](C=C4)O
CH$IUPAC: InChI=1S/C17H19NO3/c1-18-7-6-17-10-3-5-13(20)16(17)21-15-12(19)4-2-9(14(15)17)8-11(10)18/h2-5,10-11,13,16,19-20H,6-8H2,1H3/t10-,11+,13-,16-,17-/m0/s1
CH$LINK: CAS 57-27-2
CH$LINK: CHEBI CHEBI:17303
CH$LINK: CHEMSPIDER 4450907
CH$LINK: COMPTOX DTXSID9023336
CH$LINK: INCHIKEY BQJCRHHNABKAKU-KBQPJGBKSA-N
CH$LINK: KEGG C01516
CH$LINK: PUBCHEM CID:5288826
AC$INSTRUMENT: LTQ Orbitrap XL Thermo Scientific
AC$INSTRUMENT_TYPE: LC-ESI-ITFT
AC$MASS_SPECTROMETRY: MS_TYPE MS2
AC$MASS_SPECTROMETRY: ION_MODE POSITIVE
AC$MASS_SPECTROMETRY: IONIZATION ESI
AC$MASS_SPECTROMETRY: FRAGMENTATION_MODE HCD
AC$MASS_SPECTROMETRY: COLLISION_ENERGY 90 % (nominal)
AC$MASS_SPECTROMETRY: RESOLUTION 30000
AC$CHROMATOGRAPHY: COLUMN_NAME XBridge C18 3.5um, 2.1x50mm, Waters
AC$CHROMATOGRAPHY: FLOW_GRADIENT 90/10 at 0 min, 50/50 at 4 min, 5/95 at 17 min, 5/95 at 25 min, 90/10 at 25.1 min, 90/10 at 30 min
AC$CHROMATOGRAPHY: FLOW_RATE 200 ul/min
AC$CHROMATOGRAPHY: RETENTION_TIME 1.1 min
AC$CHROMATOGRAPHY: SOLVENT A water with 0.1% formic acid
AC$CHROMATOGRAPHY: SOLVENT B methanol with 0.1% formic acid
MS$FOCUSED_ION: BASE_PEAK 286.1448
MS$FOCUSED_ION: PRECURSOR_M/Z 286.1438
MS$FOCUSED_ION: PRECURSOR_TYPE [M+H]+
MS$DATA_PROCESSING: DEPROFILE Spline
MS$DATA_PROCESSING: RECALIBRATE loess on assigned fragments and MS1
MS$DATA_PROCESSING: REANALYZE Peaks with additional N2/O included
MS$DATA_PROCESSING: WHOLE RMassBank 1.3.1
PK$SPLASH: splash10-100r-0900000000-467f39309be5edfa4c01
PK$ANNOTATION: m/z tentative_formula formula_count mass error(ppm)
  55.0178 C3H3O+ 1 55.0178 -0.2
  57.0335 C3H5O+ 1 57.0335 0.86
  58.0651 C3H8N+ 1 58.0651 0.25
  67.0542 C5H7+ 1 67.0542 0.2
  69.0336 C4H5O+ 1 69.0335 1.58
  81.0335 C5H5O+ 1 81.0335 -0.51
  83.0494 C5H7O+ 1 83.0491 2.87
  91.0543 C7H7+ 1 91.0542 0.59
  93.0699 C7H9+ 1 93.0699 0.47
  103.0542 C8H7+ 1 103.0542 0.13
  105.07 C8H9+ 1 105.0699 0.98
  107.0492 C7H7O+ 1 107.0491 0.74
  115.0543 C9H7+ 1 115.0542 0.38
  117.07 C9H9+ 1 117.0699 0.71
  121.0648 C8H9O+ 1 121.0648 -0.26
  123.0441 C7H7O2+ 1 123.0441 0.6
  128.0621 C10H8+ 1 128.0621 0.46
  129.0699 C10H9+ 1 129.0699 0.26
  131.0492 C9H7O+ 1 131.0491 0.45
  131.0856 C10H11+ 1 131.0855 0.94
  132.0808 C9H10N+ 1 132.0808 0.18
  139.0542 C11H7+ 1 139.0542 -0.12
  141.0699 C11H9+ 1 141.0699 0.17
  143.0492 C10H7O+ 1 143.0491 0.13
  143.0856 C11H11+ 1 143.0855 0.3
  144.057 C10H8O+ 1 144.057 0.51
  144.0809 C10H10N+ 1 144.0808 0.93
  145.0649 C10H9O+ 1 145.0648 0.4
  145.1013 C11H13+ 1 145.1012 1.12
  147.0441 C9H7O2+ 1 147.0441 0.3
  151.0541 C12H7+ 1 151.0542 -1.1
  152.0621 C12H8+ 1 152.0621 0.58
  153.07 C12H9+ 1 153.0699 0.81
  154.0778 C12H10+ 1 154.0777 0.7
  155.0604 C10H7N2+ 1 155.0604 0.29
  155.0856 C12H11+ 1 155.0855 0.47
  157.0649 C11H9O+ 1 157.0648 0.56
  158.0727 C11H10O+ 1 158.0726 0.28
  159.0804 C11H11O+ 1 159.0804 -0.07
  160.0519 C10H8O2+ 1 160.0519 0.31
  160.0755 C10H10NO+ 1 160.0757 -1
  161.0598 C10H9O2+ 1 161.0597 0.83
  165.07 C13H9+ 1 165.0699 0.63
  166.0777 C13H10+ 1 166.0777 0.23
  167.0855 C13H11+ 1 167.0855 -0.22
  168.057 C12H8O+ 1 168.057 0.32
  169.0649 C12H9O+ 1 169.0648 0.82
  170.0726 C12H10O+ 1 170.0726 -0.21
  171.0442 C11H7O2+ 1 171.0441 0.55
  171.0805 C12H11O+ 1 171.0804 0.63
  172.0519 C11H8O2+ 1 172.0519 0.34
  173.0598 C11H9O2+ 1 173.0597 0.43
  173.0961 C12H13O+ 1 173.0961 -0.01
  178.0777 C14H10+ 1 178.0777 0.1
  179.0856 C14H11+ 1 179.0855 0.13
  181.0649 C13H9O+ 1 181.0648 0.49
  182.0727 C13H10O+ 1 182.0726 0.29
  183.0805 C13H11O+ 1 183.0804 0.43
  184.052 C12H8O2+ 1 184.0519 0.38
  185.0598 C12H9O2+ 1 185.0597 0.24
  186.0676 C12H10O2+ 1 186.0675 0.21
  187.075 C12H11O2+ 1 187.0754 -1.74
  189.0701 C15H9+ 1 189.0699 1.18
  190.0778 C15H10+ 1 190.0777 0.52
  191.0856 C15H11+ 1 191.0855 0.38
  193.0649 C14H9O+ 1 193.0648 0.67
  193.0762 C13H9N2+ 1 193.076 1.06
  194.0727 C14H10O+ 1 194.0726 0.48
  197.0598 C13H9O2+ 1 197.0597 0.33
  198.0676 C13H10O2+ 1 198.0675 0.25
  199.0754 C13H11O2+ 1 199.0754 0.32
  200.0833 C13H12O2+ 1 200.0832 0.49
  201.0694 C16H9+ 1 201.0699 -2.27
  201.091 C13H13O2+ 1 201.091 0.12
  207.0806 C15H11O+ 1 207.0804 0.86
  209.0598 C14H9O2+ 1 209.0597 0.4
  209.0961 C15H13O+ 1 209.0961 0.28
  211.0755 C14H11O2+ 1 211.0754 0.54
  213.0544 C13H9O3+ 1 213.0546 -0.85
  218.0728 C16H10O+ 1 218.0726 1.07
  219.0802 C16H11O+ 1 219.0804 -1.28
  222.0676 C15H10O2+ 1 222.0675 0.22
  227.0703 C14H11O3+ 1 227.0703 0.04
  229.0856 C14H13O3+ 1 229.0859 -1.31
PK$NUM_PEAK: 84
PK$PEAK: m/z int. rel.int.
  55.0178 2471.4 14
  57.0335 1879 11
  58.0651 13838.8 82
  67.0542 2192.5 13
  69.0336 1482.7 8
  81.0335 3592.2 21
  83.0494 1829.2 10
  91.0543 11481.7 68
  93.0699 3769.8 22
  103.0542 7863.3 46
  105.07 4748.8 28
  107.0492 5298.2 31
  115.0543 24760 147
  117.07 21390.8 127
  121.0648 3100.4 18
  123.0441 16951.9 101
  128.0621 29089.2 173
  129.0699 26444.2 157
  131.0492 14146.6 84
  131.0856 1652.9 9
  132.0808 3320.9 19
  139.0542 1984.1 11
  141.0699 29043.9 173
  143.0492 4739.4 28
  143.0856 7439.9 44
  144.057 13956.7 83
  144.0809 1567.6 9
  145.0649 34160.5 203
  145.1013 3136 18
  147.0441 43683.1 260
  151.0541 3317.6 19
  152.0621 45528.4 271
  153.07 167576.7 999
  154.0778 15061.5 89
  155.0604 31183.5 185
  155.0856 72132.7 430
  157.0649 129926.9 774
  158.0727 9313.7 55
  159.0804 3309.1 19
  160.0519 8201.4 48
  160.0755 1695.5 10
  161.0598 6734.8 40
  165.07 149485.7 891
  166.0777 23197.3 138
  167.0855 7293.6 43
  168.057 17059.1 101
  169.0649 14937.6 89
  170.0726 6361.5 37
  171.0442 23990.7 143
  171.0805 16907.5 100
  172.0519 3475 20
  173.0598 20115.3 119
  173.0961 5008.5 29
  178.0777 11922.9 71
  179.0856 8388.3 50
  181.0649 122194.2 728
  182.0727 6451.7 38
  183.0805 30936.2 184
  184.052 40048.7 238
  185.0598 47396 282
  186.0676 7915.7 47
  187.075 3301.9 19
  189.0701 11281.8 67
  190.0778 15265.6 91
  191.0856 21000.7 125
  193.0649 6617.1 39
  193.0762 4073.2 24
  194.0727 14597.1 87
  197.0598 10604.5 63
  198.0676 16162.7 96
  199.0754 14213.5 84
  200.0833 2401.5 14
  201.0694 1733.6 10
  201.091 13501.6 80
  207.0806 3360.2 20
  209.0598 24702.9 147
  209.0961 4509.3 26
  211.0755 17121 102
  213.0544 2763.5 16
  218.0728 4384.3 26
  219.0802 3116.1 18
  222.0676 3637.2 21
  227.0703 8911.7 53
  229.0856 2077 12
//
