ACCESSION: MSBNK-Eawag-EQ361809
RECORD_TITLE: 4-Toluenesulfonamide; LC-ESI-QFT; MS2; CE: 180; R=35000; [M+H]+
DATE: 2015.08.25
AUTHORS: Stravs M, Schymanski E, Singer H, Department of Environmental Chemistry, Eawag and Thomaidis N, University of Athens
LICENSE: CC BY
COPYRIGHT: Copyright (C) 2015 Eawag, Duebendorf, Switzerland
COMMENT: CONFIDENCE standard compound
COMMENT: EAWAG_UCHEM_ID 3618
CH$NAME: 4-Toluenesulfonamide
CH$NAME: p-Toluenesulfonamide
CH$NAME: 4-methylbenzenesulfonimidic acid
CH$COMPOUND_CLASS: N/A; Environmental Standard
CH$FORMULA: C7H9NO2S
CH$EXACT_MASS: 171.03540
CH$SMILES: CC1=CC=C(C=C1)S(=O)(=O)N
CH$IUPAC: InChI=1S/C7H9NO2S/c1-6-2-4-7(5-3-6)11(8,9)10/h2-5H,1H3,(H2,8,9,10)
CH$LINK: CAS 70-55-3
CH$LINK: CHEBI CHEBI:34435
CH$LINK: KEGG C14412
CH$LINK: PUBCHEM CID:6269
CH$LINK: INCHIKEY LMYRWZFENFIFIT-UHFFFAOYSA-N
CH$LINK: CHEMSPIDER 6033
CH$LINK: COMPTOX DTXSID8029105
AC$INSTRUMENT: Q Exactive Plus Orbitrap Thermo Scientific
AC$INSTRUMENT_TYPE: LC-ESI-QFT
AC$MASS_SPECTROMETRY: MS_TYPE MS2
AC$MASS_SPECTROMETRY: ION_MODE POSITIVE
AC$MASS_SPECTROMETRY: IONIZATION ESI
AC$MASS_SPECTROMETRY: FRAGMENTATION_MODE HCD
AC$MASS_SPECTROMETRY: COLLISION_ENERGY 180 (nominal)
AC$MASS_SPECTROMETRY: RESOLUTION 35000
AC$CHROMATOGRAPHY: COLUMN_NAME XBridge C18 3.5um, 2.1x50mm, Waters
AC$CHROMATOGRAPHY: FLOW_GRADIENT 90/10 at 0 min, 50/50 at 4 min, 5/95 at 17 min, 5/95 at 25 min, 90/10 at 25.1 min, 90/10 at 30 min
AC$CHROMATOGRAPHY: FLOW_RATE 200 ul/min
AC$CHROMATOGRAPHY: RETENTION_TIME 4.6 min
AC$CHROMATOGRAPHY: SOLVENT A water with 0.1% formic acid
AC$CHROMATOGRAPHY: SOLVENT B methanol with 0.1% formic acid
MS$FOCUSED_ION: BASE_PEAK 189.0689
MS$FOCUSED_ION: PRECURSOR_M/Z 172.0427
MS$FOCUSED_ION: PRECURSOR_TYPE [M+H]+
MS$DATA_PROCESSING: RECALIBRATE loess on assigned fragments and MS1
MS$DATA_PROCESSING: REANALYZE Peaks with additional N2/O included
MS$DATA_PROCESSING: WHOLE RMassBank 1.9.6
PK$SPLASH: splash10-014i-9000000000-5b0dba361fae3f6a9c45
PK$ANNOTATION: m/z tentative_formula formula_count mass error(ppm)
  50.0152 C4H2+ 1 50.0151 1.17
  51.023 C4H3+ 1 51.0229 1.24
  53.0022 C3HO+ 1 53.0022 0.92
  53.9975 C2NO+ 1 53.9974 0.93
  54.0101 C3H2O+ 1 54.01 1.37
  61.0073 C5H+ 1 61.0073 0.55
  62.0151 C5H2+ 1 62.0151 0.46
  63.023 C5H3+ 1 63.0229 0.53
  64.0307 C5H4+ 1 64.0308 -0.02
  65.0386 C5H5+ 1 65.0386 0.36
  66.0464 C5H6+ 1 66.0464 0.43
  67.9893 C3O2+ 1 67.9893 0.43
  75.0228 C6H3+ 1 75.0229 -1.15
  78.0087 C3N3+ 1 78.0087 -0.17
  89.0387 C7H5+ 1 89.0386 1.16
  91.0543 C7H7+ 1 91.0542 0.59
PK$NUM_PEAK: 16
PK$PEAK: m/z int. rel.int.
  50.0152 405723.5 67
  51.023 672975.9 112
  53.0022 489622.8 81
  53.9975 134521.8 22
  54.0101 25951.3 4
  61.0073 91611.6 15
  62.0151 530351.4 88
  63.023 1357311 226
  64.0307 9999.9 1
  65.0386 5991474.5 999
  66.0464 10933.5 1
  67.9893 96076.8 16
  75.0228 14903.5 2
  78.0087 38249.5 6
  89.0387 91856 15
  91.0543 411329.3 68
//
