ACCESSION: MSBNK-Eawag-EQ01043654
RECORD_TITLE: Hydroxychloroquine; LC-ESI-QFT; MS2; CE: 60%; R=15000; [M-H]-
DATE: 2024.06.14
AUTHORS: E. Ceppi [dtc], K. Fenner [dtc], A. Dax [com]
LICENSE: CC BY-SA
COPYRIGHT: Copyright (C) Eawag 2024
COMMENT: CONFIDENCE standard compound
COMMENT: UCHEM_ID 10436
CH$NAME: Hydroxychloroquine
CH$NAME: 2-[4-[(7-chloroquinolin-4-yl)amino]pentyl-ethylamino]ethanol
CH$NAME: 2-[4-[(7-chloranylquinolin-4-yl)amino]pentyl-ethyl-amino]ethanol
CH$COMPOUND_CLASS: N/A
CH$FORMULA: C18H26ClN3O
CH$EXACT_MASS: 335.1764401
CH$SMILES: CCN(CCCC(C)NC1=C2C=CC(=CC2=NC=C1)Cl)CCO
CH$IUPAC: InChI=1S/C18H26ClN3O/c1-3-22(11-12-23)10-4-5-14(2)21-17-8-9-20-18-13-15(19)6-7-16(17)18/h6-9,13-14,23H,3-5,10-12H2,1-2H3,(H,20,21)
CH$LINK: CAS 747-36-4
CH$LINK: CHEBI CHEBI:5801
CH$LINK: KEGG C07043
CH$LINK: PUBCHEM CID:3652
CH$LINK: INCHIKEY XXSMGPRMXLTPCZ-UHFFFAOYSA-N
CH$LINK: CHEMSPIDER 3526
AC$INSTRUMENT: Q Exactive
AC$INSTRUMENT_TYPE: LC-ESI-QFT
AC$MASS_SPECTROMETRY: MS_TYPE MS2
AC$MASS_SPECTROMETRY: ION_MODE NEGATIVE
AC$MASS_SPECTROMETRY: IONIZATION ESI
AC$MASS_SPECTROMETRY: FRAGMENTATION_MODE HCD
AC$MASS_SPECTROMETRY: COLLISION_ENERGY 60 % (nominal)
AC$MASS_SPECTROMETRY: RESOLUTION 15000
AC$MASS_SPECTROMETRY: MASS_RANGE_M/Z 50-360
AC$CHROMATOGRAPHY: COLUMN_NAME XBridge C18 3.5um, 2.1x50mm, Waters
AC$CHROMATOGRAPHY: FLOW_GRADIENT 90/10 at 0 min, 50/50 at 4 min, 5/95 at 17 min, 5/95 at 25 min, 90/10 at 25.1 min, 100/0 at 29.5 min
AC$CHROMATOGRAPHY: FLOW_RATE 200 uL/min
AC$CHROMATOGRAPHY: RETENTION_TIME 2.709 min
MS$FOCUSED_ION: BASE_PEAK 334.1693
MS$FOCUSED_ION: PRECURSOR_M/Z 334.1692
MS$FOCUSED_ION: PRECURSOR_TYPE [M-H]-
MS$FOCUSED_ION: PRECURSOR_INTENSITY 17961335.22
MS$DATA_PROCESSING: RECALIBRATE loess on assigned fragments and MS1
MS$DATA_PROCESSING: REANALYZE Peaks with additional N2/O included
MS$DATA_PROCESSING: WHOLE RMassBank 3.15.1.1
PK$SPLASH: splash10-004i-0900000000-c9cf3dcce91ce096ccb5
PK$ANNOTATION: m/z tentative_formula formula_count mass error(ppm)
  68.0504 C4H6N- 1 68.0506 -2.46
  177.0224 C9H6ClN2- 2 177.0225 -0.51
  188.0147 C10H5ClN2- 2 188.0147 -0.07
PK$NUM_PEAK: 3
PK$PEAK: m/z int. rel.int.
  68.0504 25006.3 23
  177.0224 1079339 999
  188.0147 24727.1 22
//
