ACCESSION: MSBNK-Eawag-EQ328104
RECORD_TITLE: Nordeprenyl; LC-ESI-QFT; MS2; CE: 60; R=35000; [M+H]+
DATE: 2015.08.25
AUTHORS: Beck B, Stravs M, Schymanski E, Singer H, Department of Environmental Chemistry, Eawag
LICENSE: CC BY
COPYRIGHT: Copyright (C) 2015 Eawag, Duebendorf, Switzerland
COMMENT: CONFIDENCE standard compound
COMMENT: EAWAG_UCHEM_ID 3281
CH$NAME: Nordeprenyl
CH$NAME: Desmethylselegiline
CH$NAME: 1-phenyl-N-prop-2-ynylpropan-2-amine
CH$COMPOUND_CLASS: N/A; Environmental Standard
CH$FORMULA: C12H15N
CH$EXACT_MASS: 173.12045
CH$SMILES: CC(Cc1ccccc1)NCC#C
CH$IUPAC: InChI=1S/C12H15N/c1-3-9-13-11(2)10-12-7-5-4-6-8-12/h1,4-8,11,13H,9-10H2,2H3
CH$LINK: CAS 18913-84-3
CH$LINK: PUBCHEM CID:200718
CH$LINK: INCHIKEY UUFAJPMQSFXDFR-UHFFFAOYSA-N
CH$LINK: CHEMSPIDER 173756
CH$LINK: COMPTOX DTXSID30891483
AC$INSTRUMENT: Q Exactive Plus Orbitrap Thermo Scientific
AC$INSTRUMENT_TYPE: LC-ESI-QFT
AC$MASS_SPECTROMETRY: MS_TYPE MS2
AC$MASS_SPECTROMETRY: ION_MODE POSITIVE
AC$MASS_SPECTROMETRY: IONIZATION ESI
AC$MASS_SPECTROMETRY: FRAGMENTATION_MODE HCD
AC$MASS_SPECTROMETRY: COLLISION_ENERGY 60 (nominal)
AC$MASS_SPECTROMETRY: RESOLUTION 35000
AC$CHROMATOGRAPHY: COLUMN_NAME XBridge C18 3.5um, 2.1x50mm, Waters
AC$CHROMATOGRAPHY: FLOW_GRADIENT 90/10 at 0 min, 50/50 at 4 min, 5/95 at 17 min, 5/95 at 25 min, 90/10 at 25.1 min, 90/10 at 30 min
AC$CHROMATOGRAPHY: FLOW_RATE 200 ul/min
AC$CHROMATOGRAPHY: RETENTION_TIME 4.2 min
AC$CHROMATOGRAPHY: SOLVENT A water with 0.1% formic acid
AC$CHROMATOGRAPHY: SOLVENT B methanol with 0.1% formic acid
MS$FOCUSED_ION: BASE_PEAK 174.1275
MS$FOCUSED_ION: PRECURSOR_M/Z 174.1277
MS$FOCUSED_ION: PRECURSOR_TYPE [M+H]+
MS$DATA_PROCESSING: RECALIBRATE loess on assigned fragments and MS1
MS$DATA_PROCESSING: REANALYZE Peaks with additional N2/O included
MS$DATA_PROCESSING: WHOLE RMassBank 1.9.6
PK$SPLASH: splash10-0006-9000000000-cad58720bf7a496952c1
PK$ANNOTATION: m/z tentative_formula formula_count mass error(ppm)
  56.0495 C3H6N+ 1 56.0495 -0.46
  65.0385 C5H5+ 1 65.0386 -1.33
  91.0542 C7H7+ 1 91.0542 -0.51
  119.0855 C9H11+ 1 119.0855 -0.22
PK$NUM_PEAK: 4
PK$PEAK: m/z int. rel.int.
  56.0495 27867778 15
  65.0385 5871616 3
  91.0542 1764218624 999
  119.0855 35737860 20
//
