ACCESSION: MSBNK-Eawag-EQ01151606
RECORD_TITLE: Benzophenone; LC-ESI-QFT; MS2; CE: 90%; R=17500; [M+H]+
DATE: 2024.05.08
AUTHORS: C. Meyer [dtc], B. Beck [dtc,com], J. Hollender [dtc]
LICENSE: CC BY-SA
COPYRIGHT: Copyright (C) Eawag 2023
PUBLICATION: Meyer, C., Stravs, M., Hollender, J.. How Wastewater Reflects Human Metabolism - Suspect Screening of Pharmaceutical Metabolites in Wastewater Influent. doi:10.1021/acs.est.4c00968
COMMENT: CONFIDENCE standard compound
COMMENT: UCHEM_ID 11516
CH$NAME: Benzophenone
CH$NAME: diphenylmethanone
CH$COMPOUND_CLASS: N/A; Environmental Standard
CH$FORMULA: C13H10O
CH$EXACT_MASS: 182.0731649
CH$SMILES: C1=CC=C(C=C1)C(=O)C2=CC=CC=C2
CH$IUPAC: InChI=1S/C13H10O/c14-13(11-7-3-1-4-8-11)12-9-5-2-6-10-12/h1-10H
CH$LINK: CHEBI CHEBI:41308
CH$LINK: PUBCHEM CID:3102
CH$LINK: INCHIKEY RWCCWEUUXYIKHB-UHFFFAOYSA-N
CH$LINK: CHEMSPIDER 2991
AC$INSTRUMENT: Exploris 240 Orbitrap Thermo Scientific
AC$INSTRUMENT_TYPE: LC-ESI-QFT
AC$MASS_SPECTROMETRY: MS_TYPE MS2
AC$MASS_SPECTROMETRY: ION_MODE POSITIVE
AC$MASS_SPECTROMETRY: IONIZATION ESI
AC$MASS_SPECTROMETRY: FRAGMENTATION_MODE HCD
AC$MASS_SPECTROMETRY: COLLISION_ENERGY 90 % (nominal)
AC$MASS_SPECTROMETRY: RESOLUTION 17500
AC$MASS_SPECTROMETRY: MASS_RANGE_M/Z 41-208
AC$CHROMATOGRAPHY: COLUMN_NAME XBridge C18 3.5um, 2.1x50mm, Waters
AC$CHROMATOGRAPHY: FLOW_GRADIENT 90/10 at 0 min, 50/50 at 4 min, 5/95 at 17 min, 5/95 at 25 min, 90/10 at 25.1 min, 90/10 at 30 min
AC$CHROMATOGRAPHY: FLOW_RATE 200 uL/min
AC$CHROMATOGRAPHY: RETENTION_TIME 8.799 min
MS$FOCUSED_ION: BASE_PEAK 183.0803
MS$FOCUSED_ION: PRECURSOR_M/Z 183.0804
MS$FOCUSED_ION: PRECURSOR_TYPE [M+H]+
MS$DATA_PROCESSING: RECALIBRATE loess on assigned fragments and MS1
MS$DATA_PROCESSING: REANALYZE Peaks with additional N2/O included
MS$DATA_PROCESSING: WHOLE RMassBank 3.15.1
PK$SPLASH: splash10-0a6r-9600000000-8d5276b021e89af94c51
PK$ANNOTATION: m/z tentative_formula formula_count mass error(ppm)
  51.023 C4H3+ 1 51.0229 1.23
  53.0386 C4H5+ 1 53.0386 -0.07
  77.0386 C6H5+ 1 77.0386 -0.33
  94.0414 C6H6O+ 1 94.0413 0.51
  95.0491 C6H7O+ 1 95.0491 -0.37
  105.0335 C7H5O+ 1 105.0335 0.21
PK$NUM_PEAK: 6
PK$PEAK: m/z int. rel.int.
  51.023 781751.8 15
  53.0386 5701173.5 116
  77.0386 48660240 990
  94.0414 944158.2 19
  95.0491 16921282 344
  105.0335 49095600 999
//
