ACCESSION: MSBNK-Eawag-EQ01097209
RECORD_TITLE: Chloroprocaine; LC-ESI-QFT; MS2; CE: 80%; R=15000; [M+H]+
DATE: 2024.06.14
AUTHORS: B. Beck [dtc], J. Bosshard [dtc], H. Singer [dtc], A. Dax [com]
LICENSE: CC BY-SA
COPYRIGHT: Copyright (C) Eawag 2024
COMMENT: CONFIDENCE standard compound
COMMENT: UCHEM_ID 10972
CH$NAME: Chloroprocaine
CH$NAME: 2-(diethylamino)ethyl 4-azanyl-2-chloranyl-benzoate
CH$COMPOUND_CLASS: N/A
CH$FORMULA: C13H19ClN2O2
CH$EXACT_MASS: 270.1135055
CH$SMILES: CCN(CC)CCOC(=O)C1=C(C=C(C=C1)N)Cl
CH$IUPAC: InChI=1S/C13H19ClN2O2/c1-3-16(4-2)7-8-18-13(17)11-6-5-10(15)9-12(11)14/h5-6,9H,3-4,7-8,15H2,1-2H3
CH$LINK: CAS 133-16-4
CH$LINK: CHEBI CHEBI:3636
CH$LINK: KEGG C07877
CH$LINK: PUBCHEM CID:8612
CH$LINK: INCHIKEY VDANGULDQQJODZ-UHFFFAOYSA-N
CH$LINK: CHEMSPIDER 8293
AC$INSTRUMENT: Exploris 240 Thermo Scientific
AC$INSTRUMENT_TYPE: LC-ESI-QFT
AC$MASS_SPECTROMETRY: MS_TYPE MS2
AC$MASS_SPECTROMETRY: ION_MODE POSITIVE
AC$MASS_SPECTROMETRY: IONIZATION ESI
AC$MASS_SPECTROMETRY: FRAGMENTATION_MODE HCD
AC$MASS_SPECTROMETRY: COLLISION_ENERGY 80 % (nominal)
AC$MASS_SPECTROMETRY: RESOLUTION 15000
AC$MASS_SPECTROMETRY: MASS_RANGE_M/Z 50-298
AC$CHROMATOGRAPHY: COLUMN_NAME XBridge C18 3.5um, 2.1x50mm, Waters
AC$CHROMATOGRAPHY: FLOW_GRADIENT 90/10 at 0 min, 50/50 at 4 min, 5/95 at 17 min, 5/95 at 25 min, 90/10 at 25.1 min, 90/10 at 30 min
AC$CHROMATOGRAPHY: FLOW_RATE 200 uL/min
AC$CHROMATOGRAPHY: RETENTION_TIME 2.385 min
MS$FOCUSED_ION: BASE_PEAK 271.1203
MS$FOCUSED_ION: PRECURSOR_M/Z 271.1208
MS$FOCUSED_ION: PRECURSOR_TYPE [M+H]+
MS$DATA_PROCESSING: RECALIBRATE loess on assigned fragments and MS1
MS$DATA_PROCESSING: REANALYZE Peaks with additional N2/O included
MS$DATA_PROCESSING: WHOLE RMassBank 3.15.1.1
PK$SPLASH: splash10-0229-9000000000-8093a6811198151ee8a2
PK$ANNOTATION: m/z tentative_formula formula_count mass error(ppm)
  62.0152 C5H2+ 1 62.0151 1.47
  63.0229 C5H3+ 1 63.0229 -0.37
  64.0182 C4H2N+ 1 64.0182 0.44
  64.0309 C5H4+ 1 64.0308 1.71
  72.9839 C3H2Cl+ 1 72.984 -0.26
  90.0339 C6H4N+ 1 90.0338 0.68
  91.0417 C6H5N+ 1 91.0417 0.2
  98.9996 C5H4Cl+ 1 98.9996 0.09
  203.0832 C10H16ClO2+ 1 203.0833 -0.77
PK$NUM_PEAK: 9
PK$PEAK: m/z int. rel.int.
  62.0152 1981533 16
  63.0229 56104592 455
  64.0182 13133759 106
  64.0309 5047749.5 40
  72.9839 123145824 999
  90.0339 21050178 170
  91.0417 14253371 115
  98.9996 58013676 470
  203.0832 11894387 96
//
