ACCESSION: MSBNK-Eawag-EA012510
RECORD_TITLE: 2-Methyl-4-amino-6-methoxy-s-triazine; LC-ESI-ITFT; MS2; CE: 45%; R=15000; [M+H]+
DATE: 2014.01.14
AUTHORS: Stravs M, Schymanski E, Singer H, Department of Environmental Chemistry, Eawag
LICENSE: CC BY
COPYRIGHT: Copyright (C) 2012 Eawag, Duebendorf, Switzerland
COMMENT: CONFIDENCE standard compound
COMMENT: EAWAG_UCHEM_ID 125
CH$NAME: 2-Methyl-4-amino-6-methoxy-s-triazine
CH$NAME: (4-methoxy-6-methyl-s-triazin-2-yl)amine
CH$COMPOUND_CLASS: N/A; Environmental Standard
CH$FORMULA: C5H8N4O
CH$EXACT_MASS: 140.0698
CH$SMILES: CC1=NC(OC)=NC(N)=N1
CH$IUPAC: InChI=1S/C5H8N4O/c1-3-7-4(6)9-5(8-3)10-2/h1-2H3,(H2,6,7,8,9)
CH$LINK: CAS 1668-54-8
CH$LINK: PUBCHEM CID:15466
CH$LINK: INCHIKEY NXFQWRWXEYTOTK-UHFFFAOYSA-N
CH$LINK: CHEMSPIDER 14716
CH$LINK: COMPTOX DTXSID4041230
AC$INSTRUMENT: LTQ Orbitrap XL Thermo Scientific
AC$INSTRUMENT_TYPE: LC-ESI-ITFT
AC$MASS_SPECTROMETRY: MS_TYPE MS2
AC$MASS_SPECTROMETRY: ION_MODE POSITIVE
AC$MASS_SPECTROMETRY: IONIZATION ESI
AC$MASS_SPECTROMETRY: FRAGMENTATION_MODE HCD
AC$MASS_SPECTROMETRY: COLLISION_ENERGY 45 % (nominal)
AC$MASS_SPECTROMETRY: RESOLUTION 15000
AC$CHROMATOGRAPHY: COLUMN_NAME XBridge C18 3.5um, 2.1x50mm, Waters
AC$CHROMATOGRAPHY: FLOW_GRADIENT 90/10 at 0 min, 50/50 at 4 min, 5/95 at 17 min, 5/95 at 25 min, 90/10 at 25.1 min, 90/10 at 30 min
AC$CHROMATOGRAPHY: FLOW_RATE 200 ul/min
AC$CHROMATOGRAPHY: RETENTION_TIME 1.7 min
AC$CHROMATOGRAPHY: SOLVENT A water with 0.1% formic acid
AC$CHROMATOGRAPHY: SOLVENT B methanol with 0.1% formic acid
MS$FOCUSED_ION: BASE_PEAK 141.0771
MS$FOCUSED_ION: PRECURSOR_M/Z 141.0771
MS$FOCUSED_ION: PRECURSOR_TYPE [M+H]+
MS$DATA_PROCESSING: DEPROFILE Spline
MS$DATA_PROCESSING: RECALIBRATE loess on assigned fragments and MS1
MS$DATA_PROCESSING: REANALYZE Peaks with additional N2/O included
MS$DATA_PROCESSING: WHOLE RMassBank 1.3.1
PK$SPLASH: splash10-0006-0900000000-ec23d69ba3fee80f510b
PK$ANNOTATION: m/z tentative_formula formula_count mass error(ppm)
  56.0494 C3H6N+ 1 56.0495 -1.88
  57.0446 C2H5N2+ 1 57.0447 -1.83
  58.0286 C2H4NO+ 1 58.0287 -3.28
  68.024 C2H2N3+ 1 68.0243 -4.46
  83.0238 C3H3N2O+ 1 83.024 -1.8
  84.0555 C3H6N3+ 1 84.0556 -1.47
  85.0395 C3H5N2O+ 1 85.0396 -1.17
  100.0504 C3H6N3O+ 1 100.0505 -1.38
  141.077 C5H9N4O+ 1 141.0771 -0.9
PK$NUM_PEAK: 9
PK$PEAK: m/z int. rel.int.
  56.0494 203423.1 15
  57.0446 471050.9 35
  58.0286 34991.6 2
  68.024 19256.6 1
  83.0238 38613.9 2
  84.0555 22867.2 1
  85.0395 270007.4 20
  100.0504 302632 22
  141.077 13313002 999
//
