ACCESSION: MSBNK-Eawag-EQ301254
RECORD_TITLE: Atazanavir; LC-ESI-QFT; MS2; CE: 60; R=35000; [M-H]-
DATE: 2015.08.25
AUTHORS: Beck B, Stravs M, Schymanski E, Singer H, Department of Environmental Chemistry, Eawag
LICENSE: CC BY
COPYRIGHT: Copyright (C) 2015 Eawag, Duebendorf, Switzerland
COMMENT: CONFIDENCE standard compound
COMMENT: EAWAG_UCHEM_ID 3012
CH$NAME: Atazanavir
CH$NAME: N-[(1S)-1-[[(1S,2S)-1-benzyl-3-[[[(2S)-2-(carbomethoxyamino)-3,3-dimethyl-butanoyl]amino]-[4-(2-pyridyl)benzyl]amino]-2-hydroxy-propyl]carbamoyl]-2,2-dimethyl-propyl]carbamic acid methyl ester
CH$COMPOUND_CLASS: N/A; Environmental Standard
CH$FORMULA: C38H52N6O7
CH$EXACT_MASS: 704.38975
CH$SMILES: CC(C)(C)C(C(=O)NC(CC1=CC=CC=C1)C(CN(CC2=CC=C(C=C2)C3=CC=CC=N3)NC(=O)C(C(C)(C)C)NC(=O)OC)O)NC(=O)OC
CH$IUPAC: InChI=1S/C38H52N6O7/c1-37(2,3)31(41-35(48)50-7)33(46)40-29(22-25-14-10-9-11-15-25)30(45)24-44(43-34(47)32(38(4,5)6)42-36(49)51-8)23-26-17-19-27(20-18-26)28-16-12-13-21-39-28/h9-21,29-32,45H,22-24H2,1-8H3,(H,40,46)(H,41,48)(H,42,49)(H,43,47)/t29-,30-,31+,32+/m0/s1
CH$LINK: CAS 198904-31-3
CH$LINK: KEGG D07471
CH$LINK: PUBCHEM CID:148192
CH$LINK: INCHIKEY AXRYRYVKAWYZBR-GASGPIRDSA-N
CH$LINK: CHEMSPIDER 130642
CH$LINK: COMPTOX DTXSID9048691
AC$INSTRUMENT: Q Exactive Orbitrap Thermo Scientific
AC$INSTRUMENT_TYPE: LC-ESI-QFT
AC$MASS_SPECTROMETRY: MS_TYPE MS2
AC$MASS_SPECTROMETRY: ION_MODE NEGATIVE
AC$MASS_SPECTROMETRY: IONIZATION ESI
AC$MASS_SPECTROMETRY: FRAGMENTATION_MODE HCD
AC$MASS_SPECTROMETRY: COLLISION_ENERGY 60 (nominal)
AC$MASS_SPECTROMETRY: RESOLUTION 35000
AC$CHROMATOGRAPHY: COLUMN_NAME XBridge C18 3.5um, 2.1x50mm, Waters
AC$CHROMATOGRAPHY: FLOW_GRADIENT 90/10 at 0 min, 50/50 at 4 min, 5/95 at 17 min, 5/95 at 25 min, 90/10 at 25.1 min, 90/10 at 30 min
AC$CHROMATOGRAPHY: FLOW_RATE 200 ul/min
AC$CHROMATOGRAPHY: RETENTION_TIME 11.8 min
AC$CHROMATOGRAPHY: SOLVENT A water with 0.1% formic acid
AC$CHROMATOGRAPHY: SOLVENT B methanol with 0.1% formic acid
MS$FOCUSED_ION: BASE_PEAK 703.3829
MS$FOCUSED_ION: PRECURSOR_M/Z 703.3825
MS$FOCUSED_ION: PRECURSOR_TYPE [M-H]-
MS$DATA_PROCESSING: DEPROFILE Spline
MS$DATA_PROCESSING: RECALIBRATE loess on assigned fragments and MS1
MS$DATA_PROCESSING: REANALYZE Peaks with additional N2/O included
MS$DATA_PROCESSING: WHOLE RMassBank 1.9.6
PK$SPLASH: splash10-0a4i-4900000000-6dd9a933c1ce344af8c7
PK$ANNOTATION: m/z tentative_formula formula_count mass error(ppm)
  97.0044 C3HN2O2- 1 97.0044 0.51
  98.0122 C3H2N2O2- 1 98.0122 -0.16
  99.02 C3H3N2O2- 1 99.02 -0.41
  111.0201 C4H3N2O2- 1 111.02 0.71
  116.0507 C8H6N- 1 116.0506 0.75
  126.0309 C4H4N3O2- 1 126.0309 0.16
  139.0149 C5H3N2O3- 1 139.0149 -0.11
  139.0512 C6H7N2O2- 1 139.0513 -0.8
  153.067 C7H9N2O2- 1 153.067 0.19
  155.0825 C7H11N2O2- 1 155.0826 -0.46
  168.0819 C12H10N- 1 168.0819 0.28
  181.0982 C9H13N2O2- 1 181.0983 -0.34
  193.077 C13H9N2- 1 193.0771 -0.42
  195.0927 C13H11N2- 1 195.0928 -0.52
  230.0699 C12H10N2O3- 1 230.0697 0.91
  287.1404 C16H19N2O3- 1 287.1401 1.16
PK$NUM_PEAK: 16
PK$PEAK: m/z int. rel.int.
  97.0044 1156727.7 47
  98.0122 11926071.8 493
  99.02 251947.7 10
  111.0201 44365.2 1
  116.0507 40780.5 1
  126.0309 67497.5 2
  139.0149 30311.7 1
  139.0512 168951.7 6
  153.067 74924 3
  155.0825 24154578.6 999
  168.0819 177121 7
  181.0982 35455.8 1
  193.077 156212.7 6
  195.0927 623443.7 25
  230.0699 109336.5 4
  287.1404 36340.5 1
//
