ACCESSION: MSBNK-Eawag-EA275813
RECORD_TITLE: Ephedrine; LC-ESI-ITFT; MS2; CE: 90%; R=30000; [M+H]+
DATE: 2014.01.14
AUTHORS: Stravs M, Schymanski E, Singer H, Department of Environmental Chemistry, Eawag
LICENSE: CC BY
COPYRIGHT: Copyright (C) 2012 Eawag, Duebendorf, Switzerland
COMMENT: CONFIDENCE standard compound
COMMENT: EAWAG_UCHEM_ID 2758
CH$NAME: Ephedrine
CH$NAME: (1R,2S)-2-(methylamino)-1-phenyl-1-propanol
CH$COMPOUND_CLASS: N/A; Environmental Standard
CH$FORMULA: C10H15NO
CH$EXACT_MASS: 165.1154
CH$SMILES: c1([C@H]([C@@H](NC)C)O)ccccc1
CH$IUPAC: InChI=1S/C10H15NO/c1-8(11-2)10(12)9-6-4-3-5-7-9/h3-8,10-12H,1-2H3/t8-,10-/m0/s1
CH$LINK: CAS 299-42-3
CH$LINK: CHEBI CHEBI:15407
CH$LINK: KEGG C01575
CH$LINK: PUBCHEM CID:9294
CH$LINK: INCHIKEY KWGRBVOPPLSCSI-WPRPVWTQSA-N
CH$LINK: CHEMSPIDER 8935
CH$LINK: COMPTOX DTXSID0022985
AC$INSTRUMENT: LTQ Orbitrap XL Thermo Scientific
AC$INSTRUMENT_TYPE: LC-ESI-ITFT
AC$MASS_SPECTROMETRY: MS_TYPE MS2
AC$MASS_SPECTROMETRY: ION_MODE POSITIVE
AC$MASS_SPECTROMETRY: IONIZATION ESI
AC$MASS_SPECTROMETRY: FRAGMENTATION_MODE HCD
AC$MASS_SPECTROMETRY: COLLISION_ENERGY 90 % (nominal)
AC$MASS_SPECTROMETRY: RESOLUTION 30000
AC$CHROMATOGRAPHY: COLUMN_NAME XBridge C18 3.5um, 2.1x50mm, Waters
AC$CHROMATOGRAPHY: FLOW_GRADIENT 90/10 at 0 min, 50/50 at 4 min, 5/95 at 17 min, 5/95 at 25 min, 90/10 at 25.1 min, 90/10 at 30 min
AC$CHROMATOGRAPHY: FLOW_RATE 200 ul/min
AC$CHROMATOGRAPHY: RETENTION_TIME 2.9 min
AC$CHROMATOGRAPHY: SOLVENT A water with 0.1% formic acid
AC$CHROMATOGRAPHY: SOLVENT B methanol with 0.1% formic acid
MS$FOCUSED_ION: BASE_PEAK 166.123
MS$FOCUSED_ION: PRECURSOR_M/Z 166.1226
MS$FOCUSED_ION: PRECURSOR_TYPE [M+H]+
MS$DATA_PROCESSING: DEPROFILE Spline
MS$DATA_PROCESSING: RECALIBRATE loess on assigned fragments and MS1
MS$DATA_PROCESSING: REANALYZE Peaks with additional N2/O included
MS$DATA_PROCESSING: WHOLE RMassBank 1.3.1
PK$SPLASH: splash10-0159-2900000000-7c8549f8cd727886d67d
PK$ANNOTATION: m/z tentative_formula formula_count mass error(ppm)
  56.0494 C3H6N+ 1 56.0495 -0.81
  70.0651 C4H8N+ 1 70.0651 -0.51
  77.0386 C6H5+ 1 77.0386 -0.09
  79.0542 C6H7+ 1 79.0542 -0.46
  91.0542 C7H7+ 1 91.0542 0.04
  92.062 C7H8+ 1 92.0621 -0.67
  93.0698 C7H9+ 1 93.0699 -0.5
  104.062 C8H8+ 1 104.0621 -0.4
  105.0698 C8H9+ 1 105.0699 -0.63
  115.0542 C9H7+ 1 115.0542 -0.14
  116.062 C9H8+ 1 116.0621 -0.62
  117.0698 C9H9+ 1 117.0699 -0.31
  118.065 C8H8N+ 1 118.0651 -0.64
  120.0807 C8H10N+ 1 120.0808 -0.3
  130.0651 C9H8N+ 1 130.0651 -0.04
  132.0808 C9H10N+ 1 132.0808 -0.12
  133.0886 C9H11N+ 1 133.0886 -0.23
  146.0964 C10H12N+ 1 146.0964 -0.38
  148.112 C10H14N+ 1 148.1121 -0.44
  166.1234 C10H16NO+ 1 166.1226 4.75
PK$NUM_PEAK: 20
PK$PEAK: m/z int. rel.int.
  56.0494 199840.5 137
  70.0651 105793.3 72
  77.0386 7684.6 5
  79.0542 21605.5 14
  91.0542 756305.8 520
  92.062 13550.5 9
  93.0698 31427 21
  104.062 108517.4 74
  105.0698 53479.1 36
  115.0542 1061297.2 730
  116.062 125367.7 86
  117.0698 987516.6 679
  118.065 87885.4 60
  120.0807 6812.7 4
  130.0651 12780.8 8
  132.0808 521368.3 358
  133.0886 1452301.3 999
  146.0964 9501.6 6
  148.112 594268.6 408
  166.1234 7334.1 5
//
