ACCESSION: MSBNK-Eawag-EA030508
RECORD_TITLE: Iodocarb; LC-ESI-ITFT; MS2; CE: 15%; R=15000; [M+H]+
DATE: 2014.01.14
AUTHORS: Stravs M, Schymanski E, Singer H, Department of Environmental Chemistry, Eawag
LICENSE: CC BY
COPYRIGHT: Copyright (C) 2012 Eawag, Duebendorf, Switzerland
COMMENT: CONFIDENCE standard compound
COMMENT: EAWAG_UCHEM_ID 305
CH$NAME: Iodocarb
CH$NAME: Iodopropynyl butylcarbamate (IPBC)
CH$NAME: 3-iodanylprop-2-ynyl N-butylcarbamate
CH$COMPOUND_CLASS: N/A; Environmental Standard
CH$FORMULA: C8H12INO2
CH$EXACT_MASS: 280.9913
CH$SMILES: N(C(OCC#CI)=O)CCCC
CH$IUPAC: InChI=1S/C8H12INO2/c1-2-3-6-10-8(11)12-7-4-5-9/h2-3,6-7H2,1H3,(H,10,11)
CH$LINK: CAS 55406-53-6
CH$LINK: PUBCHEM CID:62097
CH$LINK: INCHIKEY WYVVKGNFXHOCQV-UHFFFAOYSA-N
CH$LINK: CHEMSPIDER 55933
CH$LINK: COMPTOX DTXSID0028038
AC$INSTRUMENT: LTQ Orbitrap XL Thermo Scientific
AC$INSTRUMENT_TYPE: LC-ESI-ITFT
AC$MASS_SPECTROMETRY: MS_TYPE MS2
AC$MASS_SPECTROMETRY: ION_MODE POSITIVE
AC$MASS_SPECTROMETRY: IONIZATION ESI
AC$MASS_SPECTROMETRY: FRAGMENTATION_MODE HCD
AC$MASS_SPECTROMETRY: COLLISION_ENERGY 15 % (nominal)
AC$MASS_SPECTROMETRY: RESOLUTION 15000
AC$CHROMATOGRAPHY: COLUMN_NAME XBridge C18 3.5um, 2.1x50mm, Waters
AC$CHROMATOGRAPHY: FLOW_GRADIENT 90/10 at 0 min, 50/50 at 4 min, 5/95 at 17 min, 5/95 at 25 min, 90/10 at 25.1 min, 90/10 at 30 min
AC$CHROMATOGRAPHY: FLOW_RATE 200 ul/min
AC$CHROMATOGRAPHY: RETENTION_TIME 8.4 min
AC$CHROMATOGRAPHY: SOLVENT A water with 0.1% formic acid
AC$CHROMATOGRAPHY: SOLVENT B methanol with 0.1% formic acid
MS$FOCUSED_ION: BASE_PEAK 281.9991
MS$FOCUSED_ION: PRECURSOR_M/Z 281.9986
MS$FOCUSED_ION: PRECURSOR_TYPE [M+H]+
MS$DATA_PROCESSING: DEPROFILE Spline
MS$DATA_PROCESSING: RECALIBRATE loess on assigned fragments and MS1
MS$DATA_PROCESSING: REANALYZE Peaks with additional N2/O included
MS$DATA_PROCESSING: WHOLE RMassBank 1.3.1
PK$SPLASH: splash10-03di-1920000000-32751998864a058c26fb
PK$ANNOTATION: m/z tentative_formula formula_count mass error(ppm)
  55.0179 C3H3O+ 1 55.0178 0.34
  57.0699 C4H9+ 1 57.0699 0.58
  68.0495 C4H6N+ 1 68.0495 0.95
  74.0237 C2H4NO2+ 1 74.0237 0.48
  82.0653 C5H8N+ 1 82.0651 1.51
  86.0965 C5H12N+ 1 86.0964 0.51
  96.0809 C6H10N+ 1 96.0808 1.29
  100.0757 C5H10NO+ 1 100.0757 0.4
  110.0965 C7H12N+ 1 110.0964 0.76
  111.1046 C7H13N+ 1 111.1043 2.87
  116.0707 C5H10NO2+ 1 116.0706 0.65
  155.0941 C8H13NO2+ 1 155.0941 0.39
  164.9196 C3H2I+ 1 164.9196 0.03
  181.9462 C3H5IN+ 1 181.9461 0.53
  182.9302 C3H4IO+ 1 182.9301 0.55
  195.9617 C4H7IN+ 1 195.9618 -0.43
  238.0088 C7H13IN+ 1 238.0087 0.19
  281.9986 C8H13INO2+ 1 281.9986 0.31
PK$NUM_PEAK: 18
PK$PEAK: m/z int. rel.int.
  55.0179 202027.1 18
  57.0699 2043027.5 188
  68.0495 59194.3 5
  74.0237 88821.2 8
  82.0653 16082.9 1
  86.0965 105380.6 9
  96.0809 55565.6 5
  100.0757 268972.5 24
  110.0965 41873.3 3
  111.1046 25909.4 2
  116.0707 134468.8 12
  155.0941 453530.6 41
  164.9196 10856059.6 999
  181.9462 92897.7 8
  182.9302 245438.1 22
  195.9617 45639.4 4
  238.0088 320002.1 29
  281.9986 3635607.1 334
//
