ACCESSION: MSBNK-Eawag-EQ01123801
RECORD_TITLE: Disulfoton-sulfoxide; LC-ESI-QFT; MS2; CE: 15%; R=17500; [M+H]+
DATE: 2023.04.27
AUTHORS: B. Beck [dtc,com], J. Hollender [dtc]
LICENSE: CC BY-SA
COPYRIGHT: Copyright (C) Eawag 2023
COMMENT: CONFIDENCE standard compound
COMMENT: UCHEM_ID 11238
CH$NAME: Disulfoton-sulfoxide
CH$NAME: Oxydisulfoton
CH$NAME: diethoxy-(2-ethylsulfinylethylsulfanyl)-sulfanylidene-lambda5-phosphane
CH$COMPOUND_CLASS: N/A; Environmental Standard
CH$FORMULA: C8H19O3PS3
CH$EXACT_MASS: 290.0234
CH$SMILES: CCOP(=S)(OCC)SCCS(=O)CC
CH$IUPAC: InChI=1S/C8H19O3PS3/c1-4-10-12(13,11-5-2)14-7-8-15(9)6-3/h4-8H2,1-3H3
CH$LINK: CAS 2497-07-6
CH$LINK: CHEBI CHEBI:82143
CH$LINK: KEGG C19009
CH$LINK: PUBCHEM CID:17242
CH$LINK: INCHIKEY UPUGLJYNCXXUQV-UHFFFAOYSA-N
CH$LINK: CHEMSPIDER 16321
AC$INSTRUMENT: Exploris 240 Orbitrap Thermo Scientific
AC$INSTRUMENT_TYPE: LC-ESI-QFT
AC$MASS_SPECTROMETRY: MS_TYPE MS2
AC$MASS_SPECTROMETRY: ION_MODE POSITIVE
AC$MASS_SPECTROMETRY: IONIZATION ESI
AC$MASS_SPECTROMETRY: FRAGMENTATION_MODE HCD
AC$MASS_SPECTROMETRY: COLLISION_ENERGY 15 % (nominal)
AC$MASS_SPECTROMETRY: RESOLUTION 17500
AC$MASS_SPECTROMETRY: MASS_RANGE_M/Z 50-318
AC$CHROMATOGRAPHY: COLUMN_NAME XBridge C18 3.5um, 2.1x50mm, Waters
AC$CHROMATOGRAPHY: FLOW_GRADIENT 90/10 at 0 min, 50/50 at 4 min, 5/95 at 17 min, 5/95 at 25 min, 90/10 at 25.1 min, 90/10 at 30 min
AC$CHROMATOGRAPHY: FLOW_RATE 200 uL/min
AC$CHROMATOGRAPHY: RETENTION_TIME 6.653 min
MS$FOCUSED_ION: BASE_PEAK 282.279
MS$FOCUSED_ION: PRECURSOR_M/Z 291.0307
MS$FOCUSED_ION: PRECURSOR_TYPE [M+H]+
MS$DATA_PROCESSING: RECALIBRATE loess on assigned fragments and MS1
MS$DATA_PROCESSING: REANALYZE Peaks with additional N2/O included
MS$DATA_PROCESSING: WHOLE RMassBank 3.11.0.1
PK$SPLASH: splash10-03e9-0690000000-2b3f8ecb921529746045
PK$ANNOTATION: m/z tentative_formula formula_count mass error(ppm)
  124.9826 C2H6O2PS+ 1 124.9821 3.97
  153.0133 C4H10O2PS+ 1 153.0134 -0.12
  156.9542 C2H6O2PS2+ 1 156.9541 0.71
  171.024 C4H12O3PS+ 1 171.0239 0.14
  184.9854 C4H10O2PS2+ 1 184.9854 -0.32
  213.0167 C6H14O2PS2+ 1 213.0167 -0.27
PK$NUM_PEAK: 6
PK$PEAK: m/z int. rel.int.
  124.9826 941325.9 6
  153.0133 12308974 85
  156.9542 2220830 15
  171.024 1626879 11
  184.9854 94600976 657
  213.0167 143826880 999
//
