ACCESSION: MSBNK-Eawag-EQ01154351
RECORD_TITLE: 3-Desmethyltrimethoprim; LC-ESI-QFT; MS2; CE: 15%; R=17500; [M-H]-
DATE: 2024.05.08
AUTHORS: C. Meyer [dtc], B. Beck [dtc,com], J. Hollender [dtc]
LICENSE: CC BY-SA
COPYRIGHT: Copyright (C) Eawag 2023
PUBLICATION: Meyer, C., Stravs, M., Hollender, J.. How Wastewater Reflects Human Metabolism - Suspect Screening of Pharmaceutical Metabolites in Wastewater Influent. doi:10.1021/acs.est.4c00968
COMMENT: CONFIDENCE standard compound
COMMENT: UCHEM_ID 11543
CH$NAME: 3-Desmethyltrimethoprim
CH$NAME: 5-[(2,4-diaminopyrimidin-5-yl)methyl]-2,3-dimethoxyphenol
CH$COMPOUND_CLASS: N/A; Environmental Standard
CH$FORMULA: C13H16N4O3
CH$EXACT_MASS: 276.1222404
CH$SMILES: COC1=CC(=CC(=C1OC)O)CC2=CN=C(N=C2N)N
CH$IUPAC: InChI=1S/C13H16N4O3/c1-19-10-5-7(4-9(18)11(10)20-2)3-8-6-16-13(15)17-12(8)14/h4-6,18H,3H2,1-2H3,(H4,14,15,16,17)
CH$LINK: CHEBI CHEBI:186190
CH$LINK: PUBCHEM CID:12849769
CH$LINK: INCHIKEY HWBPOLWLLFXEJY-UHFFFAOYSA-N
CH$LINK: CHEMSPIDER 11217076
AC$INSTRUMENT: Exploris 240 Orbitrap Thermo Scientific
AC$INSTRUMENT_TYPE: LC-ESI-QFT
AC$MASS_SPECTROMETRY: MS_TYPE MS2
AC$MASS_SPECTROMETRY: ION_MODE NEGATIVE
AC$MASS_SPECTROMETRY: IONIZATION ESI
AC$MASS_SPECTROMETRY: FRAGMENTATION_MODE HCD
AC$MASS_SPECTROMETRY: COLLISION_ENERGY 15 % (nominal)
AC$MASS_SPECTROMETRY: RESOLUTION 17500
AC$MASS_SPECTROMETRY: MASS_RANGE_M/Z 50-302
AC$CHROMATOGRAPHY: COLUMN_NAME XBridge C18 3.5um, 2.1x50mm, Waters
AC$CHROMATOGRAPHY: FLOW_GRADIENT 90/10 at 0 min, 50/50 at 4 min, 5/95 at 17 min, 5/95 at 25 min, 90/10 at 25.1 min, 90/10 at 30 min
AC$CHROMATOGRAPHY: FLOW_RATE 200 uL/min
AC$CHROMATOGRAPHY: RETENTION_TIME 2.593 min
MS$FOCUSED_ION: BASE_PEAK 146.9386
MS$FOCUSED_ION: PRECURSOR_M/Z 275.115
MS$FOCUSED_ION: PRECURSOR_TYPE [M-H]-
MS$DATA_PROCESSING: RECALIBRATE loess on assigned fragments and MS1
MS$DATA_PROCESSING: REANALYZE Peaks with additional N2/O included
MS$DATA_PROCESSING: WHOLE RMassBank 3.15.1
PK$SPLASH: splash10-004i-0090000000-e7b2286c822f277ad90e
PK$ANNOTATION: m/z tentative_formula formula_count mass error(ppm)
  245.0691 C11H9N4O3- 1 245.068 4.59
  260.0913 C12H12N4O3- 1 260.0915 -0.76
  275.115 C13H15N4O3- 1 275.115 0.03
PK$NUM_PEAK: 3
PK$PEAK: m/z int. rel.int.
  245.0691 3093.9 7
  260.0913 72962.2 182
  275.115 399114.9 999
//
