ACCESSION: MSBNK-Eawag-EQ417702
RECORD_TITLE: Terbuthylazine-TP CSCD692760 (LM3); LC-ESI-QFT; MS2; CE: 30%; R=17500; [M+H]+
DATE: 2019.12.03
AUTHORS: K. Kiefer [dtc], J. Hollender [dtc], H. Singer [dtc], M. Stravs [com]
LICENSE: CC BY-SA
COPYRIGHT: Copyright (C) Eawag 2019
PUBLICATION: Kiefer, K.; Mueller, A.; Singer, H.; Hollender, J. New relevant pesticide transformation products in groundwater detected using target and suspect screening for agricultural and urban micropollutants with LC-HRMS. Water Research 2019, 165. DOI: https://doi.org/10.1016/j.watres.2019.114972
COMMENT: CONFIDENCE standard compound
COMMENT: UCHEM_ID 4177
CH$NAME: Terbuthylazine-TP CSCD692760 (LM3)
CH$NAME: 6-Hydroxy-7,7-dimethyl-7,8-dihydroimidazo[1,2-a][1,3,5]triazine-2,4(3H,6H)-dione
CH$COMPOUND_CLASS: N/A; Environmental Standard
CH$FORMULA: C7H10N4O3
CH$EXACT_MASS: 198.0753
CH$SMILES: CC1(C)NC2=NC(O)=NC(=O)N2C1O
CH$IUPAC: InChI=1S/C7H10N4O3/c1-7(2)3(12)11-4(10-7)8-5(13)9-6(11)14/h3,12H,1-2H3,(H2,8,9,10,13,14)
CH$LINK: INCHIKEY SDFNUIRNRULFGI-UHFFFAOYSA-N
CH$LINK: CHEMSPIDER 71047231
AC$INSTRUMENT: Q Exactive Plus Orbitrap Thermo Scientific
AC$INSTRUMENT_TYPE: LC-ESI-QFT
AC$MASS_SPECTROMETRY: MS_TYPE MS2
AC$MASS_SPECTROMETRY: ION_MODE POSITIVE
AC$MASS_SPECTROMETRY: IONIZATION ESI
AC$MASS_SPECTROMETRY: FRAGMENTATION_MODE HCD
AC$MASS_SPECTROMETRY: COLLISION_ENERGY 30 % (nominal)
AC$MASS_SPECTROMETRY: RESOLUTION 17500
AC$CHROMATOGRAPHY: COLUMN_NAME XBridge C18 3.5um, 2.1x50mm, Waters
AC$CHROMATOGRAPHY: FLOW_GRADIENT 90/10 at 0 min, 50/50 at 4 min, 5/95 at 17 min, 5/95 at 25 min, 90/10 at 25.1 min, 90/10 at 30 min
AC$CHROMATOGRAPHY: FLOW_RATE 200 uL/min
AC$CHROMATOGRAPHY: RETENTION_TIME 1.307 min
AC$CHROMATOGRAPHY: SOLVENT A water with 0.1% formic acid
AC$CHROMATOGRAPHY: SOLVENT B MeOH with 0.1% formic acid
MS$FOCUSED_ION: BASE_PEAK 199.0826
MS$FOCUSED_ION: PRECURSOR_M/Z 199.0826
MS$FOCUSED_ION: PRECURSOR_TYPE [M+H]+
MS$DATA_PROCESSING: RECALIBRATE loess on assigned fragments and MS1
MS$DATA_PROCESSING: REANALYZE Peaks with additional N2/O included
MS$DATA_PROCESSING: WHOLE RMassBank 2.99.1
PK$SPLASH: splash10-0002-0900000000-7d8befa99a4ea39ac87f
PK$ANNOTATION: m/z tentative_formula formula_count mass error(ppm)
  70.0651 C4H8N+ 1 70.0651 -0.01
  71.0491 C4H7O+ 1 71.0491 -0.51
  86.0349 C2H4N3O+ 1 86.0349 0.65
  87.0191 C2H3N2O2+ 1 87.0189 2.58
  110.071 C5H8N3+ 1 110.0713 -2.81
  113.0708 C5H9N2O+ 1 113.0709 -0.95
  114.0662 C4H8N3O+ 1 114.0662 0.33
  129.0407 C3H5N4O2+ 1 129.0407 -0.18
  138.0662 C6H8N3O+ 1 138.0662 -0.11
  139.0502 C6H7N2O2+ 1 139.0502 -0.03
  156.0769 C6H10N3O2+ 1 156.0768 0.64
  157.061 C6H9N2O3+ 1 157.0608 1.29
  157.0726 C5H9N4O2+ 1 157.072 3.51
  181.072 C7H9N4O2+ 1 181.072 -0.26
  182.0555 C7H8N3O3+ 1 182.056 -3.05
  199.0825 C7H11N4O3+ 1 199.0826 -0.15
PK$NUM_PEAK: 16
PK$PEAK: m/z int. rel.int.
  70.0651 202940 2
  71.0491 397075.9 4
  86.0349 256811 3
  87.0191 102106.5 1
  110.071 393616.2 4
  113.0708 713809.4 8
  114.0662 1331354.9 16
  129.0407 5047705 60
  138.0662 4427878 53
  139.0502 956384.8 11
  156.0769 3600735.2 43
  157.061 196497.1 2
  157.0726 111731.5 1
  181.072 11699240 140
  182.0555 188808.3 2
  199.0825 82934264 999
//
