ACCESSION: MSBNK-Eawag-EA013307
RECORD_TITLE: Prometryn; LC-ESI-ITFT; MS2; CE: 90%; R=7500; [M+H]+
DATE: 2014.01.14
AUTHORS: Stravs M, Schymanski E, Singer H, Department of Environmental Chemistry, Eawag
LICENSE: CC BY
COPYRIGHT: Copyright (C) 2012 Eawag, Duebendorf, Switzerland
COMMENT: CONFIDENCE standard compound
COMMENT: EAWAG_UCHEM_ID 133
CH$NAME: Prometryn
CH$NAME: 6-(methylthio)-N2,N4-di(propan-2-yl)-1,3,5-triazine-2,4-diamine
CH$COMPOUND_CLASS: N/A; Environmental Standard
CH$FORMULA: C10H19N5S
CH$EXACT_MASS: 241.1356
CH$SMILES: c1(nc(NC(C)C)nc(n1)SC)NC(C)C
CH$IUPAC: InChI=1S/C10H19N5S/c1-6(2)11-8-13-9(12-7(3)4)15-10(14-8)16-5/h6-7H,1-5H3,(H2,11,12,13,14,15)
CH$LINK: CAS 7287-19-6
CH$LINK: CHEBI CHEBI:26276
CH$LINK: PUBCHEM CID:4929
CH$LINK: INCHIKEY AAEVYOVXGOFMJO-UHFFFAOYSA-N
CH$LINK: CHEMSPIDER 4760
CH$LINK: COMPTOX DTXSID4024272
AC$INSTRUMENT: LTQ Orbitrap XL Thermo Scientific
AC$INSTRUMENT_TYPE: LC-ESI-ITFT
AC$MASS_SPECTROMETRY: MS_TYPE MS2
AC$MASS_SPECTROMETRY: ION_MODE POSITIVE
AC$MASS_SPECTROMETRY: IONIZATION ESI
AC$MASS_SPECTROMETRY: FRAGMENTATION_MODE HCD
AC$MASS_SPECTROMETRY: COLLISION_ENERGY 90 % (nominal)
AC$MASS_SPECTROMETRY: RESOLUTION 7500
AC$CHROMATOGRAPHY: COLUMN_NAME XBridge C18 3.5um, 2.1x50mm, Waters
AC$CHROMATOGRAPHY: FLOW_GRADIENT 90/10 at 0 min, 50/50 at 4 min, 5/95 at 17 min, 5/95 at 25 min, 90/10 at 25.1 min, 90/10 at 30 min
AC$CHROMATOGRAPHY: FLOW_RATE 200 ul/min
AC$CHROMATOGRAPHY: RETENTION_TIME 8.5 min
AC$CHROMATOGRAPHY: SOLVENT A water with 0.1% formic acid
AC$CHROMATOGRAPHY: SOLVENT B methanol with 0.1% formic acid
MS$FOCUSED_ION: BASE_PEAK 242.1438
MS$FOCUSED_ION: PRECURSOR_M/Z 242.1434
MS$FOCUSED_ION: PRECURSOR_TYPE [M+H]+
MS$DATA_PROCESSING: DEPROFILE Spline
MS$DATA_PROCESSING: RECALIBRATE loess on assigned fragments and MS1
MS$DATA_PROCESSING: REANALYZE Peaks with additional N2/O included
MS$DATA_PROCESSING: WHOLE RMassBank 1.3.1
PK$SPLASH: splash10-066r-8900000000-9cab43ebd7231b6246b7
PK$ANNOTATION: m/z tentative_formula formula_count mass error(ppm)
  68.0243 C2H2N3+ 1 68.0243 0.24
  74.0059 C2H4NS+ 1 74.0059 0.32
  85.0509 C2H5N4+ 1 85.0509 0.56
  91.0325 C2H7N2S+ 1 91.0324 0.27
  110.0461 C3H4N5+ 1 110.0461 0.26
  116.0277 C3H6N3S+ 1 116.0277 0.39
  143.0264 C3H5N5S+ 1 143.026 2.88
  158.0495 C4H8N5S+ 1 158.0495 0.3
  200.0973 C7H14N5S+ 1 200.0964 4.33
PK$NUM_PEAK: 9
PK$PEAK: m/z int. rel.int.
  68.0243 2768537 904
  74.0059 757601.4 247
  85.0509 1403772.3 458
  91.0325 449069.5 146
  110.0461 614851.3 200
  116.0277 1702644.6 556
  143.0264 32505.8 10
  158.0495 3056158.9 999
  200.0973 80064.4 26
//
