ACCESSION: MSBNK-Eawag-EQ306404
RECORD_TITLE: Pencycuron; LC-ESI-QFT; MS2; CE: 60; R=35000; [M+H]+
DATE: 2015.08.25
AUTHORS: Beck B, Stravs M, Schymanski E, Singer H, Department of Environmental Chemistry, Eawag
LICENSE: CC BY
COPYRIGHT: Copyright (C) 2015 Eawag, Duebendorf, Switzerland
COMMENT: CONFIDENCE standard compound
COMMENT: EAWAG_UCHEM_ID 3064
CH$NAME: Pencycuron
CH$NAME: 1-(4-chlorobenzyl)-1-cyclopentyl-3-phenyl-urea
CH$COMPOUND_CLASS: N/A; Environmental Standard
CH$FORMULA: C19H21ClN2O
CH$EXACT_MASS: 328.13424
CH$SMILES: Clc1ccc(cc1)CN(C(=O)Nc2ccccc2)C3CCCC3
CH$IUPAC: InChI=1S/C19H21ClN2O/c20-16-12-10-15(11-13-16)14-22(18-8-4-5-9-18)19(23)21-17-6-2-1-3-7-17/h1-3,6-7,10-13,18H,4-5,8-9,14H2,(H,21,23)
CH$LINK: CAS 66063-05-6
CH$LINK: KEGG C11012
CH$LINK: PUBCHEM CID:91692
CH$LINK: INCHIKEY OGYFATSSENRIKG-UHFFFAOYSA-N
CH$LINK: CHEMSPIDER 82795
CH$LINK: COMPTOX DTXSID3042261
AC$INSTRUMENT: Q Exactive Orbitrap Thermo Scientific
AC$INSTRUMENT_TYPE: LC-ESI-QFT
AC$MASS_SPECTROMETRY: MS_TYPE MS2
AC$MASS_SPECTROMETRY: ION_MODE POSITIVE
AC$MASS_SPECTROMETRY: IONIZATION ESI
AC$MASS_SPECTROMETRY: FRAGMENTATION_MODE HCD
AC$MASS_SPECTROMETRY: COLLISION_ENERGY 60 (nominal)
AC$MASS_SPECTROMETRY: RESOLUTION 35000
AC$CHROMATOGRAPHY: COLUMN_NAME XBridge C18 3.5um, 2.1x50mm, Waters
AC$CHROMATOGRAPHY: FLOW_GRADIENT 90/10 at 0 min, 50/50 at 4 min, 5/95 at 17 min, 5/95 at 25 min, 90/10 at 25.1 min, 90/10 at 30 min
AC$CHROMATOGRAPHY: FLOW_RATE 200 ul/min
AC$CHROMATOGRAPHY: RETENTION_TIME 13.9 min
AC$CHROMATOGRAPHY: SOLVENT A water with 0.1% formic acid
AC$CHROMATOGRAPHY: SOLVENT B methanol with 0.1% formic acid
MS$FOCUSED_ION: BASE_PEAK 329.1417
MS$FOCUSED_ION: PRECURSOR_M/Z 329.1415
MS$FOCUSED_ION: PRECURSOR_TYPE [M+H]+
MS$DATA_PROCESSING: DEPROFILE Spline
MS$DATA_PROCESSING: RECALIBRATE loess on assigned fragments and MS1
MS$DATA_PROCESSING: REANALYZE Peaks with additional N2/O included
MS$DATA_PROCESSING: WHOLE RMassBank 1.9.6
PK$SPLASH: splash10-004i-0900000000-129bad79baa2e0247d1d
PK$ANNOTATION: m/z tentative_formula formula_count mass error(ppm)
  63.0228 C5H3+ 1 63.0229 -1.69
  69.0698 C5H9+ 1 69.0699 -0.82
  72.9837 C3H2Cl+ 1 72.984 -3.21
  84.0807 C5H10N+ 1 84.0808 -0.43
  89.0385 C7H5+ 1 89.0386 -1.08
  90.0463 C7H6+ 1 90.0464 -1.46
  92.0493 C6H6N+ 1 92.0495 -1.69
  93.0571 C6H7N+ 1 93.0573 -2.16
  94.0651 C6H8N+ 1 94.0651 -0.7
  95.0491 C6H7O+ 1 95.0491 -0.01
  98.0964 C6H12N+ 1 98.0964 -0.57
  98.9995 C5H4Cl+ 1 98.9996 -1.46
  106.0651 C7H8N+ 1 106.0651 -0.34
  119.0603 C7H7N2+ 1 119.0604 -0.37
  120.0443 C7H6NO+ 2 120.0444 -0.42
  125.0152 C7H6Cl+ 1 125.0153 -0.19
  132.0442 C8H6NO+ 2 132.0444 -1.21
  218.0732 C13H13ClN+ 2 218.0731 0.63
PK$NUM_PEAK: 18
PK$PEAK: m/z int. rel.int.
  63.0228 389823.6 1
  69.0698 2362144.4 7
  72.9837 357067 1
  84.0807 1382197.9 4
  89.0385 3223184.9 9
  90.0463 566710 1
  92.0493 693908.2 2
  93.0571 332957.3 1
  94.0651 8921594 27
  95.0491 889134.2 2
  98.0964 1823109 5
  98.9995 1378226.2 4
  106.0651 5123520.5 15
  119.0603 834136.4 2
  120.0443 805544.4 2
  125.0152 327554946.6 999
  132.0442 698296.8 2
  218.0732 354072.6 1
//
