ACCESSION: MSBNK-Eawag-EA027603
RECORD_TITLE: Ciprofloxacin; LC-ESI-ITFT; MS2; CE: 30%; R=7500; [M+H]+
DATE: 2014.01.14
AUTHORS: Stravs M, Schymanski E, Singer H, Department of Environmental Chemistry, Eawag
LICENSE: CC BY
COPYRIGHT: Copyright (C) 2012 Eawag, Duebendorf, Switzerland
COMMENT: CONFIDENCE standard compound
COMMENT: EAWAG_UCHEM_ID 276
CH$NAME: Ciprofloxacin
CH$NAME: 1-cyclopropyl-6-fluoro-4-keto-7-piperazin-4-ium-1-yl-quinoline-3-carboxylate
CH$COMPOUND_CLASS: N/A; Environmental Standard
CH$FORMULA: C17H18FN3O3
CH$EXACT_MASS: 331.1332
CH$SMILES: C(C1)C1N(C=C(C-2=O)C(=O)O)-c(cc(c3F)N(CCN4)CC4)c2c3
CH$IUPAC: InChI=1S/C17H18FN3O3/c18-13-7-11-14(8-15(13)20-5-3-19-4-6-20)21(10-1-2-10)9-12(16(11)22)17(23)24/h7-10,19H,1-6H2,(H,23,24)
CH$LINK: CAS 85721-33-1
CH$LINK: KEGG C05349
CH$LINK: PUBCHEM CID:2764
CH$LINK: INCHIKEY MYSWGUAQZAJSOK-UHFFFAOYSA-N
CH$LINK: CHEMSPIDER 2662
CH$LINK: COMPTOX DTXSID8022824
AC$INSTRUMENT: LTQ Orbitrap XL Thermo Scientific
AC$INSTRUMENT_TYPE: LC-ESI-ITFT
AC$MASS_SPECTROMETRY: MS_TYPE MS2
AC$MASS_SPECTROMETRY: ION_MODE POSITIVE
AC$MASS_SPECTROMETRY: IONIZATION ESI
AC$MASS_SPECTROMETRY: FRAGMENTATION_MODE HCD
AC$MASS_SPECTROMETRY: COLLISION_ENERGY 30 % (nominal)
AC$MASS_SPECTROMETRY: RESOLUTION 7500
AC$CHROMATOGRAPHY: COLUMN_NAME XBridge C18 3.5um, 2.1x50mm, Waters
AC$CHROMATOGRAPHY: FLOW_GRADIENT 90/10 at 0 min, 50/50 at 4 min, 5/95 at 17 min, 5/95 at 25 min, 90/10 at 25.1 min, 90/10 at 30 min
AC$CHROMATOGRAPHY: FLOW_RATE 200 ul/min
AC$CHROMATOGRAPHY: RETENTION_TIME 4.5 min
AC$CHROMATOGRAPHY: SOLVENT A water with 0.1% formic acid
AC$CHROMATOGRAPHY: SOLVENT B methanol with 0.1% formic acid
MS$FOCUSED_ION: BASE_PEAK 332.1415
MS$FOCUSED_ION: PRECURSOR_M/Z 332.1405
MS$FOCUSED_ION: PRECURSOR_TYPE [M+H]+
MS$DATA_PROCESSING: DEPROFILE Spline
MS$DATA_PROCESSING: RECALIBRATE loess on assigned fragments and MS1
MS$DATA_PROCESSING: REANALYZE Peaks with additional N2/O included
MS$DATA_PROCESSING: WHOLE RMassBank 1.3.1
PK$SPLASH: splash10-01qi-0039000000-9cb66ef0790c686ea2b2
PK$ANNOTATION: m/z tentative_formula formula_count mass error(ppm)
  204.069 C11H9FN2O+ 2 204.0693 -1.58
  205.0777 C11H10FN2O+ 1 205.0772 2.4
  231.0929 C13H12FN2O+ 1 231.0928 0.49
  245.1088 C14H14FN2O+ 1 245.1085 1.31
  260.1556 C15H19FN3+ 1 260.1558 -0.7
  268.1451 C13H19FN3O2+ 2 268.1456 -1.98
  286.136 C16H17FN3O+ 1 286.135 3.3
  288.1511 C16H19FN3O+ 1 288.1507 1.64
  289.0988 C15H14FN2O3+ 1 289.0983 1.84
  314.1304 C17H17FN3O2+ 1 314.1299 1.49
  332.1411 C17H19FN3O3+ 1 332.1405 1.97
PK$NUM_PEAK: 11
PK$PEAK: m/z int. rel.int.
  204.069 21983.1 1
  205.0777 22254.2 1
  231.0929 93665 8
  245.1088 998047.8 85
  260.1556 13009.1 1
  268.1451 237130.1 20
  286.136 77880.3 6
  288.1511 7329530.1 627
  289.0988 14280.5 1
  314.1304 8195123.6 701
  332.1411 11663939.4 999
//
