ACCESSION: MSBNK-Eawag-EA009964
RECORD_TITLE: Alachlor ESA; LC-ESI-ITFT; MS2; CE: 35%; R=30000; [M-H]-
DATE: 2014.01.14
AUTHORS: Stravs M, Schymanski E, Singer H, Department of Environmental Chemistry, Eawag
LICENSE: CC BY
COPYRIGHT: Copyright (C) 2012 Eawag, Duebendorf, Switzerland
COMMENT: CONFIDENCE standard compound
COMMENT: EAWAG_UCHEM_ID 99
CH$NAME: Alachlor ESA
CH$NAME: 2-[(2,6-diethylphenyl)-(methoxymethyl)amino]-2-oxidanylidene-ethanesulfonic acid
CH$COMPOUND_CLASS: N/A; Environmental Standard
CH$FORMULA: C14H21NO5S
CH$EXACT_MASS: 315.1140
CH$SMILES: CCC1=CC=CC(CC)=C1N(COC)C(=O)CS(O)(=O)=O
CH$IUPAC: InChI=1S/C14H21NO5S/c1-4-11-7-6-8-12(5-2)14(11)15(10-20-3)13(16)9-21(17,18)19/h6-8H,4-5,9-10H2,1-3H3,(H,17,18,19)
CH$LINK: CAS 142363-53-9
CH$LINK: PUBCHEM CID:115236
CH$LINK: INCHIKEY UTCJUUGCHWHUNI-UHFFFAOYSA-N
CH$LINK: CHEMSPIDER 103108
CH$LINK: COMPTOX DTXSID6037485
AC$INSTRUMENT: LTQ Orbitrap XL Thermo Scientific
AC$INSTRUMENT_TYPE: LC-ESI-ITFT
AC$MASS_SPECTROMETRY: MS_TYPE MS2
AC$MASS_SPECTROMETRY: ION_MODE NEGATIVE
AC$MASS_SPECTROMETRY: IONIZATION ESI
AC$MASS_SPECTROMETRY: FRAGMENTATION_MODE CID
AC$MASS_SPECTROMETRY: COLLISION_ENERGY 35 % (nominal)
AC$MASS_SPECTROMETRY: RESOLUTION 30000
AC$CHROMATOGRAPHY: COLUMN_NAME XBridge C18 3.5um, 2.1x50mm, Waters
AC$CHROMATOGRAPHY: FLOW_GRADIENT 90/10 at 0 min, 50/50 at 4 min, 5/95 at 17 min, 5/95 at 25 min, 90/10 at 25.1 min, 90/10 at 30 min
AC$CHROMATOGRAPHY: FLOW_RATE 200 ul/min
AC$CHROMATOGRAPHY: RETENTION_TIME 7.7 min
AC$CHROMATOGRAPHY: SOLVENT A water with 0.1% formic acid
AC$CHROMATOGRAPHY: SOLVENT B methanol with 0.1% formic acid
MS$FOCUSED_ION: BASE_PEAK 314.1062
MS$FOCUSED_ION: PRECURSOR_M/Z 314.1068
MS$FOCUSED_ION: PRECURSOR_TYPE [M-H]-
MS$DATA_PROCESSING: DEPROFILE Spline
MS$DATA_PROCESSING: RECALIBRATE loess on assigned fragments and MS1
MS$DATA_PROCESSING: REANALYZE Peaks with additional N2/O included
MS$DATA_PROCESSING: WHOLE RMassBank 1.3.1
PK$SPLASH: splash10-00di-0900000000-07f812db30bb2ae778ba
PK$ANNOTATION: m/z tentative_formula formula_count mass error(ppm)
  76.9703 CHO2S- 1 76.9703 0.73
  119.9757 C2H2NO3S- 1 119.9761 -2.98
  120.96 C2HO4S- 1 120.9601 -1.18
  149.0969 C10H13O- 1 149.0972 -1.87
  158.0973 C11H12N- 1 158.0975 -1.41
  160.1129 C11H14N- 1 160.1132 -1.89
  176.1078 C11H14NO- 1 176.1081 -1.63
  218.1183 C13H16NO2- 1 218.1187 -1.57
  270.0804 C12H16NO4S- 1 270.0806 -0.38
  282.0798 C13H16NO4S- 1 282.0806 -2.74
PK$NUM_PEAK: 10
PK$PEAK: m/z int. rel.int.
  76.9703 11153.4 5
  119.9757 26280.3 13
  120.96 1878447.6 999
  149.0969 47308.2 25
  158.0973 61576.1 32
  160.1129 193180.7 102
  176.1078 224024.2 119
  218.1183 36521.8 19
  270.0804 7176.4 3
  282.0798 12709.3 6
//
