ACCESSION: MSBNK-Eawag-EA066004
RECORD_TITLE: Galaxolidone; LC-ESI-ITFT; MS2; CE: 45%; R=7500; [M+H]+
DATE: 2014.01.14
AUTHORS: Stravs M, Schymanski E, Singer H, Department of Environmental Chemistry, Eawag
LICENSE: CC BY
COPYRIGHT: Copyright (C) 2012 Eawag, Duebendorf, Switzerland
COMMENT: CONFIDENCE standard compound
COMMENT: EAWAG_UCHEM_ID 660
CH$NAME: Galaxolidone
CH$NAME: 1,3,4,6,7,8-Hexahydro-4,6,6,7,8,8-hexamethylcyclopenta[g]-2-benzopyran-1-on
CH$COMPOUND_CLASS: N/A; Environmental Standard
CH$FORMULA: C18H24O2
CH$EXACT_MASS: 272.1776
CH$SMILES: CC2(C)c1cc3C(=O)OCC(C)c3cc1C(C)(C)C2C
CH$IUPAC: InChI=1S/C18H24O2/c1-10-9-20-16(19)13-8-15-14(7-12(10)13)17(3,4)11(2)18(15,5)6/h7-8,10-11H,9H2,1-6H3
CH$LINK: CAS 256393-37-0
CH$LINK: PUBCHEM CID:69131857
CH$LINK: INCHIKEY PGMHPYRIXBRRQD-UHFFFAOYSA-N
CH$LINK: CHEMSPIDER 28290252
CH$LINK: COMPTOX DTXSID10881089
AC$INSTRUMENT: LTQ Orbitrap XL Thermo Scientific
AC$INSTRUMENT_TYPE: LC-ESI-ITFT
AC$MASS_SPECTROMETRY: MS_TYPE MS2
AC$MASS_SPECTROMETRY: ION_MODE POSITIVE
AC$MASS_SPECTROMETRY: IONIZATION ESI
AC$MASS_SPECTROMETRY: FRAGMENTATION_MODE HCD
AC$MASS_SPECTROMETRY: COLLISION_ENERGY 45 % (nominal)
AC$MASS_SPECTROMETRY: RESOLUTION 7500
AC$CHROMATOGRAPHY: COLUMN_NAME XBridge C18 3.5um, 2.1x50mm, Waters
AC$CHROMATOGRAPHY: FLOW_GRADIENT 90/10 at 0 min, 50/50 at 4 min, 5/95 at 17 min, 5/95 at 25 min, 90/10 at 25.1 min, 90/10 at 30 min
AC$CHROMATOGRAPHY: FLOW_RATE 200 ul/min
AC$CHROMATOGRAPHY: RETENTION_TIME 14.7 min
AC$CHROMATOGRAPHY: SOLVENT A water with 0.1% formic acid
AC$CHROMATOGRAPHY: SOLVENT B methanol with 0.1% formic acid
MS$FOCUSED_ION: BASE_PEAK 295.1677
MS$FOCUSED_ION: PRECURSOR_M/Z 273.1849
MS$FOCUSED_ION: PRECURSOR_TYPE [M+H]+
MS$DATA_PROCESSING: DEPROFILE Spline
MS$DATA_PROCESSING: RECALIBRATE loess on assigned fragments and MS1
MS$DATA_PROCESSING: REANALYZE Peaks with additional N2/O included
MS$DATA_PROCESSING: WHOLE RMassBank 1.3.1
PK$SPLASH: splash10-0a4i-0090000000-3ec20ccd1b9fbc739ffc
PK$ANNOTATION: m/z tentative_formula formula_count mass error(ppm)
  157.101 C12H13+ 1 157.1012 -1.32
  175.1116 C12H15O+ 1 175.1117 -0.87
  185.0959 C13H13O+ 1 185.0961 -1.25
  203.1062 C13H15O2+ 1 203.1067 -2.3
  212.1553 C16H20+ 1 212.156 -3.07
  227.1792 C17H23+ 1 227.1794 -0.87
  239.1429 C17H19O+ 1 239.143 -0.76
  240.1506 C17H20O+ 1 240.1509 -1.03
  245.1546 C16H21O2+ 1 245.1536 3.85
  255.1742 C18H23O+ 1 255.1743 -0.44
  273.1845 C18H25O2+ 1 273.1849 -1.67
PK$NUM_PEAK: 11
PK$PEAK: m/z int. rel.int.
  157.101 20597.7 15
  175.1116 37266.7 28
  185.0959 20667.1 15
  203.1062 12062 9
  212.1553 5924.7 4
  227.1792 38612.8 29
  239.1429 3054.1 2
  240.1506 96675.6 74
  245.1546 5132.5 3
  255.1742 1293896.3 999
  273.1845 508092.3 392
//
