ACCESSION: MSBNK-Eawag-EQ310105
RECORD_TITLE: Phosmet; LC-ESI-QFT; MS2; CE: 75; R=35000; [M+H]+
DATE: 2015.08.25
AUTHORS: Beck B, Stravs M, Schymanski E, Singer H, Department of Environmental Chemistry, Eawag
LICENSE: CC BY
COPYRIGHT: Copyright (C) 2015 Eawag, Duebendorf, Switzerland
COMMENT: CONFIDENCE standard compound
COMMENT: EAWAG_UCHEM_ID 3101
CH$NAME: Phosmet
CH$NAME: Fosmet
CH$NAME: 2-(dimethoxyphosphinothioylsulfanylmethyl)isoindole-1,3-dione
CH$COMPOUND_CLASS: N/A; Environmental Standard
CH$FORMULA: C11H12NO4PS2
CH$EXACT_MASS: 316.99454
CH$SMILES: COP(=S)(OC)SCN1C(=O)C2=CC=CC=C2C1=O
CH$IUPAC: InChI=1S/C11H12NO4PS2/c1-15-17(18,16-2)19-7-12-10(13)8-5-3-4-6-9(8)11(12)14/h3-6H,7H2,1-2H3
CH$LINK: CAS 5104-30-3
CH$LINK: PUBCHEM CID:12901
CH$LINK: INCHIKEY LMNZTLDVJIUSHT-UHFFFAOYSA-N
CH$LINK: CHEMSPIDER 12367
CH$LINK: COMPTOX DTXSID5024261
AC$INSTRUMENT: Q Exactive Orbitrap Thermo Scientific
AC$INSTRUMENT_TYPE: LC-ESI-QFT
AC$MASS_SPECTROMETRY: MS_TYPE MS2
AC$MASS_SPECTROMETRY: ION_MODE POSITIVE
AC$MASS_SPECTROMETRY: IONIZATION ESI
AC$MASS_SPECTROMETRY: FRAGMENTATION_MODE HCD
AC$MASS_SPECTROMETRY: COLLISION_ENERGY 75 (nominal)
AC$MASS_SPECTROMETRY: RESOLUTION 35000
AC$CHROMATOGRAPHY: COLUMN_NAME XBridge C18 3.5um, 2.1x50mm, Waters
AC$CHROMATOGRAPHY: FLOW_GRADIENT 90/10 at 0 min, 50/50 at 4 min, 5/95 at 17 min, 5/95 at 25 min, 90/10 at 25.1 min, 90/10 at 30 min
AC$CHROMATOGRAPHY: FLOW_RATE 200 ul/min
AC$CHROMATOGRAPHY: RETENTION_TIME 9.5 min
AC$CHROMATOGRAPHY: SOLVENT A water with 0.1% formic acid
AC$CHROMATOGRAPHY: SOLVENT B methanol with 0.1% formic acid
MS$FOCUSED_ION: BASE_PEAK 149.0234
MS$FOCUSED_ION: PRECURSOR_M/Z 318.0018
MS$FOCUSED_ION: PRECURSOR_TYPE [M+H]+
MS$DATA_PROCESSING: DEPROFILE Spline
MS$DATA_PROCESSING: RECALIBRATE loess on assigned fragments and MS1
MS$DATA_PROCESSING: REANALYZE Peaks with additional N2/O included
MS$DATA_PROCESSING: WHOLE RMassBank 1.9.6
PK$SPLASH: splash10-03e9-1900000000-c59e05b23007bdd07bd7
PK$ANNOTATION: m/z tentative_formula formula_count mass error(ppm)
  50.0152 C4H2+ 1 50.0151 1.97
  51.0229 C4H3+ 1 51.0229 0.07
  53.0387 C4H5+ 2 53.0386 2.33
  67.0543 C5H7+ 2 67.0542 0.5
  69.0699 C5H9+ 1 69.0699 0.34
  77.0385 C6H5+ 2 77.0386 -0.47
  81.0335 C5H5O+ 2 81.0335 0.11
  92.0255 C6H4O+ 1 92.0257 -1.7
  92.0369 C5H4N2+ 2 92.0369 -0.54
  95.0492 C6H7O+ 2 95.0491 0.2
  104.0257 C7H4O+ 2 104.0257 0.13
  104.0496 C7H6N+ 1 104.0495 0.81
  105.0336 C7H5O+ 2 105.0335 0.66
  105.0448 C6H5N2+ 2 105.0447 1
  120.0447 C7H6NO+ 1 120.0444 2.41
  130.0289 C8H4NO+ 2 130.0287 0.92
  130.0401 C7H4N3+ 2 130.04 1.13
  132.0443 C8H6NO+ 1 132.0444 -0.53
  133.0285 C8H5O2+ 2 133.0284 0.41
  160.0394 C9H6NO2+ 1 160.0393 0.34
  178.0502 C9H8NO3+ 1 178.0499 1.8
PK$NUM_PEAK: 21
PK$PEAK: m/z int. rel.int.
  50.0152 676.8 2
  51.0229 824.4 3
  53.0387 1548.1 5
  67.0543 1665.9 6
  69.0699 669 2
  77.0385 8693.3 32
  81.0335 1493.5 5
  92.0255 1091.8 4
  92.0369 972.5 3
  95.0492 50736 192
  104.0257 915.5 3
  104.0496 13304.1 50
  105.0336 69281.1 262
  105.0448 10285 38
  120.0447 2853.5 10
  130.0289 23293.4 88
  130.0401 6172 23
  132.0443 9111.2 34
  133.0285 167192.1 633
  160.0394 263675.6 999
  178.0502 708.8 2
//
