ACCESSION: MSBNK-Eawag-EQ01145953
RECORD_TITLE: 8-2-FTCA; LC-ESI-QFT; MS2; CE: 45%; R=17500; [M-H]-
DATE: 2024.05.15
AUTHORS: B. Beck [dtc,com], J. Hollender [dtc]
LICENSE: CC BY-SA
COPYRIGHT: Copyright (C) Eawag 2023
COMMENT: CONFIDENCE standard compound
COMMENT: UCHEM_ID 11459
CH$NAME: 8-2-FTCA
CH$NAME: Decanoic acid, 3,3,4,4,5,5,6,6,7,7,8,8,9,9,10,10,10-heptadecafluoro-
CH$NAME: 3,3,4,4,5,5,6,6,7,7,8,8,9,9,10,10,10-heptadecafluorodecanoic acid
CH$COMPOUND_CLASS: N/A; Environmental Standard
CH$FORMULA: C10H3F17O2
CH$EXACT_MASS: 477.986159076
CH$SMILES: C(C(=O)O)C(C(C(C(C(C(C(C(F)(F)F)(F)F)(F)F)(F)F)(F)F)(F)F)(F)F)(F)F
CH$IUPAC: InChI=1S/C10H3F17O2/c11-3(12,1-2(28)29)4(13,14)5(15,16)6(17,18)7(19,20)8(21,22)9(23,24)10(25,26)27/h1H2,(H,28,29)
CH$LINK: PUBCHEM CID:10994425
CH$LINK: INCHIKEY XTBXSCIWOVSSGB-UHFFFAOYSA-N
CH$LINK: CHEMSPIDER 9169620
AC$INSTRUMENT: Exploris 240 Orbitrap Thermo Scientific
AC$INSTRUMENT_TYPE: LC-ESI-QFT
AC$MASS_SPECTROMETRY: MS_TYPE MS2
AC$MASS_SPECTROMETRY: ION_MODE NEGATIVE
AC$MASS_SPECTROMETRY: IONIZATION ESI
AC$MASS_SPECTROMETRY: FRAGMENTATION_MODE HCD
AC$MASS_SPECTROMETRY: COLLISION_ENERGY 45 % (nominal)
AC$MASS_SPECTROMETRY: RESOLUTION 17500
AC$MASS_SPECTROMETRY: MASS_RANGE_M/Z 50-508
AC$CHROMATOGRAPHY: COLUMN_NAME XBridge C18 3.5um, 2.1x50mm, Waters
AC$CHROMATOGRAPHY: FLOW_GRADIENT 90/10 at 0 min, 50/50 at 4 min, 5/95 at 17 min, 5/95 at 25 min, 90/10 at 25.1 min, 90/10 at 30 min
AC$CHROMATOGRAPHY: FLOW_RATE 200 uL/min
AC$CHROMATOGRAPHY: RETENTION_TIME 13.905 min
MS$FOCUSED_ION: BASE_PEAK 325.1842
MS$FOCUSED_ION: PRECURSOR_M/Z 476.9789
MS$FOCUSED_ION: PRECURSOR_TYPE [M-H]-
MS$DATA_PROCESSING: RECALIBRATE loess on assigned fragments and MS1
MS$DATA_PROCESSING: REANALYZE Peaks with additional N2/O included
MS$DATA_PROCESSING: WHOLE RMassBank 3.15.1.1
PK$SPLASH: splash10-0006-4019000000-ffea0457929ea448a40b
PK$ANNOTATION: m/z tentative_formula formula_count mass error(ppm)
  62.9888 CFO2- 1 62.9888 -0.03
  68.9957 CF3- 1 68.9958 -1.28
  118.9927 C2F5- 1 118.9926 1.32
  192.9898 C5F7- 3 192.9894 2.25
  242.9863 C6F9- 2 242.9862 0.43
  342.9798 C8F13- 2 342.9798 -0.04
  392.9766 C9F15- 2 392.9766 -0.05
PK$NUM_PEAK: 7
PK$PEAK: m/z int. rel.int.
  62.9888 192077.4 502
  68.9957 8743.4 22
  118.9927 15815.9 41
  192.9898 18821.8 49
  242.9863 64911 169
  342.9798 8239.7 21
  392.9766 382226.8 999
//
