ACCESSION: MSBNK-Eawag-EQ01131057
RECORD_TITLE: Spirotetramat BYI08330-enol; LC-ESI-QFT; MS2; CE: 120%; R=17500; [M-H]-
DATE: 2023.04.27
AUTHORS: B. Beck [dtc,com], J. Hollender [dtc]
LICENSE: CC BY-SA
COPYRIGHT: Copyright (C) Eawag 2023
COMMENT: CONFIDENCE standard compound
COMMENT: UCHEM_ID 11310
CH$NAME: Spirotetramat BYI08330-enol
CH$NAME: Cis-3-(2,5-dimethylphenyl)-4-hydroxy-8-methoxy-1-azaspiro(4.5)dec-3-en-2-one
CH$NAME: 3-(2,5-dimethylphenyl)-4-hydroxy-8-methoxy-1-azaspiro[4.5]dec-3-en-2-one
CH$COMPOUND_CLASS: N/A; Environmental Standard
CH$FORMULA: C18H23NO3
CH$EXACT_MASS: 301.1678
CH$SMILES: CC1=CC(=C(C=C1)C)C2=C(C3(CCC(CC3)OC)NC2=O)O
CH$IUPAC: InChI=1S/C18H23NO3/c1-11-4-5-12(2)14(10-11)15-16(20)18(19-17(15)21)8-6-13(22-3)7-9-18/h4-5,10,13,20H,6-9H2,1-3H3,(H,19,21)
CH$LINK: CHEBI CHEBI:141400
CH$LINK: PUBCHEM CID:54708610
CH$LINK: INCHIKEY IDJJHEIUIYGFDX-UHFFFAOYSA-N
CH$LINK: CHEMSPIDER 23350261
AC$INSTRUMENT: Exploris 240 Orbitrap Thermo Scientific
AC$INSTRUMENT_TYPE: LC-ESI-QFT
AC$MASS_SPECTROMETRY: MS_TYPE MS2
AC$MASS_SPECTROMETRY: ION_MODE NEGATIVE
AC$MASS_SPECTROMETRY: IONIZATION ESI
AC$MASS_SPECTROMETRY: FRAGMENTATION_MODE HCD
AC$MASS_SPECTROMETRY: COLLISION_ENERGY 120 % (nominal)
AC$MASS_SPECTROMETRY: RESOLUTION 17500
AC$MASS_SPECTROMETRY: MASS_RANGE_M/Z 50-327
AC$CHROMATOGRAPHY: COLUMN_NAME XBridge C18 3.5um, 2.1x50mm, Waters
AC$CHROMATOGRAPHY: FLOW_GRADIENT 90/10 at 0 min, 50/50 at 4 min, 5/95 at 17 min, 5/95 at 25 min, 90/10 at 25.1 min, 90/10 at 30 min
AC$CHROMATOGRAPHY: FLOW_RATE 200 uL/min
AC$CHROMATOGRAPHY: RETENTION_TIME 6.525 min
MS$FOCUSED_ION: BASE_PEAK 300.1604
MS$FOCUSED_ION: PRECURSOR_M/Z 300.1605
MS$FOCUSED_ION: PRECURSOR_TYPE [M-H]-
MS$DATA_PROCESSING: RECALIBRATE loess on assigned fragments and MS1
MS$DATA_PROCESSING: REANALYZE Peaks with additional N2/O included
MS$DATA_PROCESSING: WHOLE RMassBank 3.11.0.1
PK$SPLASH: splash10-0002-0900000000-32d23fbedc08a0292656
PK$ANNOTATION: m/z tentative_formula formula_count mass error(ppm)
  65.9984 C3NO- 1 65.9985 -1.35
  68.0143 C3H2NO- 1 68.0142 0.95
  129.0708 C10H9- 1 129.071 -1.4
  130.0423 C9H6O- 1 130.0424 -0.59
  143.0864 C11H11- 1 143.0866 -1.75
  144.0581 C10H8O- 1 144.0581 0.03
  145.0659 C10H9O- 1 145.0659 0.06
  154.0663 C11H8N- 1 154.0662 0.52
PK$NUM_PEAK: 8
PK$PEAK: m/z int. rel.int.
  65.9984 1372870.9 103
  68.0143 430583.3 32
  129.0708 1325500.1 99
  130.0423 4148917.8 311
  143.0864 910188.6 68
  144.0581 1307016.6 98
  145.0659 13297730 999
  154.0663 2019294.1 151
//
