ACCESSION: MSBNK-Eawag-EQ009153
RECORD_TITLE: Metribuzin-desamino; LC-ESI-QFT; MS2; CE: 45; R=35000; [M-H]-
DATE: 2015.08.26
AUTHORS: Beck B, Stravs M, Schymanski E, Singer H, Department of Environmental Chemistry, Eawag
LICENSE: CC BY
COPYRIGHT: Copyright (C) 2015 Eawag, Duebendorf, Switzerland
COMMENT: CONFIDENCE standard compound
COMMENT: EAWAG_UCHEM_ID 91
CH$NAME: Metribuzin-desamino
CH$NAME: Deaminometribuzin
CH$NAME: 6-tert-butyl-3-(methylthio)-2H-1,2,4-triazin-5-one
CH$COMPOUND_CLASS: N/A; Environmental Standard
CH$FORMULA: C8H13N3OS
CH$EXACT_MASS: 199.27332
CH$SMILES: CC(C)(C)C1=NNC(=NC1=O)SC
CH$IUPAC: InChI=1S/C8H13N3OS/c1-8(2,3)5-6(12)9-7(13-4)11-10-5/h1-4H3,(H,9,11,12)
CH$LINK: CAS 35045-02-4
CH$LINK: PUBCHEM CID:37208
CH$LINK: INCHIKEY MIWRSUQXSCLDNV-UHFFFAOYSA-N
CH$LINK: CHEMSPIDER 33978
CH$LINK: COMPTOX DTXSID0052839
AC$INSTRUMENT: Q Exactive Plus Orbitrap Thermo Scientific
AC$INSTRUMENT_TYPE: LC-ESI-QFT
AC$MASS_SPECTROMETRY: MS_TYPE MS2
AC$MASS_SPECTROMETRY: ION_MODE NEGATIVE
AC$MASS_SPECTROMETRY: IONIZATION ESI
AC$MASS_SPECTROMETRY: FRAGMENTATION_MODE HCD
AC$MASS_SPECTROMETRY: COLLISION_ENERGY 45 (nominal)
AC$MASS_SPECTROMETRY: RESOLUTION 35000
AC$CHROMATOGRAPHY: COLUMN_NAME XBridge C18 3.5um, 2.1x50mm, Waters
AC$CHROMATOGRAPHY: FLOW_GRADIENT 90/10 at 0 min, 50/50 at 4 min, 5/95 at 17 min, 5/95 at 25 min, 90/10 at 25.1 min, 90/10 at 30 min
AC$CHROMATOGRAPHY: FLOW_RATE 200 ul/min
AC$CHROMATOGRAPHY: RETENTION_TIME 7.3 min
AC$CHROMATOGRAPHY: SOLVENT A water with 0.1% formic acid
AC$CHROMATOGRAPHY: SOLVENT B methanol with 0.1% formic acid
MS$FOCUSED_ION: BASE_PEAK 198.0703
MS$FOCUSED_ION: PRECURSOR_M/Z 198.0707
MS$FOCUSED_ION: PRECURSOR_TYPE [M-H]-
MS$DATA_PROCESSING: RECALIBRATE loess on assigned fragments and MS1
MS$DATA_PROCESSING: REANALYZE Peaks with additional N2/O included
MS$DATA_PROCESSING: WHOLE RMassBank 1.9.6
PK$SPLASH: splash10-0002-0900000000-ff716774517f9fe5293f
PK$ANNOTATION: m/z tentative_formula formula_count mass error(ppm)
  56.0015 CN2O- 1 56.0016 -1.63
  57.9756 CNS- 1 57.9757 -0.92
  59.9914 CH2NS- 1 59.9913 0.44
  68.0016 C2N2O- 1 68.0016 -0.02
  70.9836 C2HNS- 1 70.9835 0.58
  71.9789 CN2S- 1 71.9788 1.28
  71.9914 C2H2NS- 1 71.9913 1.06
  87.0021 C2H3N2S- 1 87.0022 -1.3
  94.0046 C3N3O- 1 94.0047 -0.91
  97.0658 C6H9O- 1 97.0659 -0.81
  127.0876 C6H11N2O- 1 127.0877 -0.44
  136.0515 C6H6N3O- 1 136.0516 -1
  152.083 C7H10N3O- 1 152.0829 0.36
  156.0491 C7H10NOS- 1 156.0489 1.8
  168.0239 C6H6N3OS- 1 168.0237 1.21
  183.0471 C7H9N3OS- 1 183.0472 -0.55
  198.0705 C8H12N3OS- 1 198.0707 -0.54
PK$NUM_PEAK: 17
PK$PEAK: m/z int. rel.int.
  56.0015 1108252.5 1
  57.9756 16804546 30
  59.9914 821789.3 1
  68.0016 15155552 27
  70.9836 860723.2 1
  71.9789 695411.2 1
  71.9914 1352053.4 2
  87.0021 1701786.5 3
  94.0046 9413236 16
  97.0658 6948939 12
  127.0876 1150860.9 2
  136.0515 3294884.8 5
  152.083 1828920.1 3
  156.0491 666337.8 1
  168.0239 702293.4 1
  183.0471 9566416 17
  198.0705 554194176 999
//
