ACCESSION: MSBNK-Eawag-EQ00280951
RECORD_TITLE: Bicalutamide; LC-ESI-QFT; MS2; CE: 15%; R=15000; [M-H]-
DATE: 2024.06.14
AUTHORS: F. Jud [dtc], K. Arturi [dtc], J. Hollender [dtc], A. Dax [com]
LICENSE: CC BY-SA
COPYRIGHT: Copyright (C) Eawag 2024
COMMENT: CONFIDENCE standard compound
COMMENT: UCHEM_ID 2809
CH$NAME: Bicalutamide
CH$NAME: N-[4-cyano-3-(trifluoromethyl)phenyl]-3-(4-fluorophenyl)sulfonyl-2-hydroxy-2-methylpropanamide
CH$COMPOUND_CLASS: N/A
CH$FORMULA: C18H14F4N2O4S
CH$EXACT_MASS: 430.0610408
CH$SMILES: CC(O)(CS(=O)(=O)C1=CC=C(F)C=C1)C(=O)NC1=CC(=C(C=C1)C#N)C(F)(F)F
CH$IUPAC: InChI=1S/C18H14F4N2O4S/c1-17(26,10-29(27,28)14-6-3-12(19)4-7-14)16(25)24-13-5-2-11(9-23)15(8-13)18(20,21)22/h2-8,26H,10H2,1H3,(H,24,25)
CH$LINK: CAS 90357-06-5
CH$LINK: CHEBI CHEBI:91617
CH$LINK: PUBCHEM CID:2375
CH$LINK: INCHIKEY LKJPYSCBVHEWIU-UHFFFAOYSA-N
CH$LINK: CHEMSPIDER 2284
AC$INSTRUMENT: Q Exactive Plus
AC$INSTRUMENT_TYPE: LC-ESI-QFT
AC$MASS_SPECTROMETRY: MS_TYPE MS2
AC$MASS_SPECTROMETRY: ION_MODE NEGATIVE
AC$MASS_SPECTROMETRY: IONIZATION ESI
AC$MASS_SPECTROMETRY: FRAGMENTATION_MODE HCD
AC$MASS_SPECTROMETRY: COLLISION_ENERGY 15 % (nominal)
AC$MASS_SPECTROMETRY: RESOLUTION 15000
AC$MASS_SPECTROMETRY: MASS_RANGE_M/Z 50-455
AC$CHROMATOGRAPHY: COLUMN_NAME XBridge C18 3.5um, 2.1x50mm, Waters
AC$CHROMATOGRAPHY: FLOW_GRADIENT 90/10 at 0 min, 50/50 at 4 min, 5/95 at 17 min, 5/95 at 25 min, 90/10 at 25.1 min, 90/10 at 30 min
AC$CHROMATOGRAPHY: FLOW_RATE 200 uL/min
AC$CHROMATOGRAPHY: RETENTION_TIME 8.393 min
MS$FOCUSED_ION: BASE_PEAK 429.0536
MS$FOCUSED_ION: PRECURSOR_M/Z 429.0538
MS$FOCUSED_ION: PRECURSOR_TYPE [M-H]-
MS$FOCUSED_ION: PRECURSOR_INTENSITY 221455573.12
MS$DATA_PROCESSING: RECALIBRATE loess on assigned fragments and MS1
MS$DATA_PROCESSING: REANALYZE Peaks with additional N2/O included
MS$DATA_PROCESSING: WHOLE RMassBank 3.15.1.1
PK$SPLASH: splash10-0a4i-0090000000-60657556c52982e5c5ea
PK$ANNOTATION: m/z tentative_formula formula_count mass error(ppm)
  173.0075 C7H6FO2S- 4 173.0078 -1.75
  185.0323 C5H9F2NO2S- 3 185.0328 -2.56
  243.0131 C10H8FO4S- 4 243.0133 -0.87
  255.0387 C11H6F3N2O2- 5 255.0387 -0.1
  411.043 C18H11F4N2O3S- 1 411.0432 -0.38
PK$NUM_PEAK: 5
PK$PEAK: m/z int. rel.int.
  173.0075 1202966.5 11
  185.0323 1101600.4 10
  243.0131 2480117.5 23
  255.0387 107667584 999
  411.043 1585965.6 14
//
