ACCESSION: MSBNK-Eawag-EQ361201
RECORD_TITLE: Norfentanyl; LC-ESI-QFT; MS2; CE: 15; R=35000; [M+H]+
DATE: 2015.08.25
AUTHORS: Stravs M, Schymanski E, Singer H, Department of Environmental Chemistry, Eawag and Thomaidis N, University of Athens
LICENSE: CC BY
COPYRIGHT: Copyright (C) 2015 Eawag, Duebendorf, Switzerland
COMMENT: CONFIDENCE standard compound
COMMENT: EAWAG_UCHEM_ID 3612
CH$NAME: Norfentanyl
CH$NAME: N-phenyl-N-piperidin-4-ylpropanamide
CH$COMPOUND_CLASS: N/A; Environmental Standard
CH$FORMULA: C14H20N2O
CH$EXACT_MASS: 232.15756
CH$SMILES: CCC(=O)N(C1CCNCC1)C2=CC=CC=C2
CH$IUPAC: InChI=1S/C14H20N2O/c1-2-14(17)16(12-6-4-3-5-7-12)13-8-10-15-11-9-13/h3-7,13,15H,2,8-11H2,1H3
CH$LINK: CAS 1609-66-1
CH$LINK: CHEBI CHEBI:62685
CH$LINK: PUBCHEM CID:259381
CH$LINK: INCHIKEY PMCBDBWCQQBSRJ-UHFFFAOYSA-N
CH$LINK: CHEMSPIDER 227671
CH$LINK: COMPTOX DTXSID2057657
AC$INSTRUMENT: Q Exactive Plus Orbitrap Thermo Scientific
AC$INSTRUMENT_TYPE: LC-ESI-QFT
AC$MASS_SPECTROMETRY: MS_TYPE MS2
AC$MASS_SPECTROMETRY: ION_MODE POSITIVE
AC$MASS_SPECTROMETRY: IONIZATION ESI
AC$MASS_SPECTROMETRY: FRAGMENTATION_MODE HCD
AC$MASS_SPECTROMETRY: COLLISION_ENERGY 15 (nominal)
AC$MASS_SPECTROMETRY: RESOLUTION 35000
AC$CHROMATOGRAPHY: COLUMN_NAME XBridge C18 3.5um, 2.1x50mm, Waters
AC$CHROMATOGRAPHY: FLOW_GRADIENT 90/10 at 0 min, 50/50 at 4 min, 5/95 at 17 min, 5/95 at 25 min, 90/10 at 25.1 min, 90/10 at 30 min
AC$CHROMATOGRAPHY: FLOW_RATE 200 ul/min
AC$CHROMATOGRAPHY: RETENTION_TIME 4.7 min
AC$CHROMATOGRAPHY: SOLVENT A water with 0.1% formic acid
AC$CHROMATOGRAPHY: SOLVENT B methanol with 0.1% formic acid
MS$FOCUSED_ION: BASE_PEAK 233.1641
MS$FOCUSED_ION: PRECURSOR_M/Z 233.1648
MS$FOCUSED_ION: PRECURSOR_TYPE [M+H]+
MS$DATA_PROCESSING: RECALIBRATE loess on assigned fragments and MS1
MS$DATA_PROCESSING: REANALYZE Peaks with additional N2/O included
MS$DATA_PROCESSING: WHOLE RMassBank 1.9.6
PK$SPLASH: splash10-001i-1090000000-0a49897fffa5fde5c225
PK$ANNOTATION: m/z tentative_formula formula_count mass error(ppm)
  55.0541 C4H7+ 1 55.0542 -1.39
  56.0493 C3H6N+ 1 56.0495 -2.24
  57.0335 C3H5O+ 1 57.0335 -0.55
  84.0807 C5H10N+ 1 84.0808 -1.5
  150.0912 C9H12NO+ 1 150.0913 -1.14
  177.1384 C11H17N2+ 1 177.1386 -1.04
  216.1381 C14H18NO+ 1 216.1383 -1.02
  233.1645 C14H21N2O+ 1 233.1648 -1.33
PK$NUM_PEAK: 8
PK$PEAK: m/z int. rel.int.
  55.0541 2929009 2
  56.0493 5381979.5 4
  57.0335 3434414 3
  84.0807 239076976 210
  150.0912 15209164 13
  177.1384 31657296 27
  216.1381 2742231.8 2
  233.1645 1135709824 999
//
