ACCESSION: MSBNK-Eawag-EA009509
RECORD_TITLE: Epoxiconazole; LC-ESI-ITFT; MS2; CE: 30%; R=15000; [M+H]+
DATE: 2014.01.14
AUTHORS: Stravs M, Schymanski E, Singer H, Department of Environmental Chemistry, Eawag
LICENSE: CC BY
COPYRIGHT: Copyright (C) 2012 Eawag, Duebendorf, Switzerland
COMMENT: CONFIDENCE standard compound
COMMENT: EAWAG_UCHEM_ID 95
CH$NAME: Epoxiconazole
CH$NAME: 1-[[(2S,3R)-3-(2-chlorophenyl)-2-(4-fluorophenyl)-2-oxiranyl]methyl]-1,2,4-triazole
CH$COMPOUND_CLASS: N/A; Environmental Standard
CH$FORMULA: C17H13ClFN3O
CH$EXACT_MASS: 329.0726
CH$SMILES: C1=CC=C(C(=C1)C2C(O2)(CN3C=NC=N3)C4=CC=C(C=C4)F)Cl
CH$IUPAC: InChI=1S/C17H13ClFN3O/c18-15-4-2-1-3-14(15)16-17(23-16,9-22-11-20-10-21-22)12-5-7-13(19)8-6-12/h1-8,10-11,16H,9H2/t16-,17-/m1/s1
CH$LINK: CAS 133855-98-8
CH$LINK: KEGG C11229
CH$LINK: PUBCHEM CID:107901
CH$LINK: INCHIKEY ZMYFCFLJBGAQRS-IAGOWNOFSA-N
CH$LINK: CHEMSPIDER 97030
AC$INSTRUMENT: LTQ Orbitrap XL Thermo Scientific
AC$INSTRUMENT_TYPE: LC-ESI-ITFT
AC$MASS_SPECTROMETRY: MS_TYPE MS2
AC$MASS_SPECTROMETRY: ION_MODE POSITIVE
AC$MASS_SPECTROMETRY: IONIZATION ESI
AC$MASS_SPECTROMETRY: FRAGMENTATION_MODE HCD
AC$MASS_SPECTROMETRY: COLLISION_ENERGY 30 % (nominal)
AC$MASS_SPECTROMETRY: RESOLUTION 15000
AC$CHROMATOGRAPHY: COLUMN_NAME XBridge C18 3.5um, 2.1x50mm, Waters
AC$CHROMATOGRAPHY: FLOW_GRADIENT 90/10 at 0 min, 50/50 at 4 min, 5/95 at 17 min, 5/95 at 25 min, 90/10 at 25.1 min, 90/10 at 30 min
AC$CHROMATOGRAPHY: FLOW_RATE 200 ul/min
AC$CHROMATOGRAPHY: RETENTION_TIME 11.7 min
AC$CHROMATOGRAPHY: SOLVENT A water with 0.1% formic acid
AC$CHROMATOGRAPHY: SOLVENT B methanol with 0.1% formic acid
MS$FOCUSED_ION: BASE_PEAK 330.0812
MS$FOCUSED_ION: PRECURSOR_M/Z 330.0804
MS$FOCUSED_ION: PRECURSOR_TYPE [M+H]+
MS$DATA_PROCESSING: DEPROFILE Spline
MS$DATA_PROCESSING: RECALIBRATE loess on assigned fragments and MS1
MS$DATA_PROCESSING: REANALYZE Peaks with additional N2/O included
MS$DATA_PROCESSING: WHOLE RMassBank 1.3.1
PK$SPLASH: splash10-00di-0901000000-b4d9ee8f5f8b48878c85
PK$ANNOTATION: m/z tentative_formula formula_count mass error(ppm)
  70.04 C2H4N3+ 1 70.04 -0.05
  75.0226 CH2FN3+ 2 75.0227 -1.56
  77.0384 CH4FN3+ 2 77.0384 0.69
  109.0449 C7H6F+ 1 109.0448 1.15
  113.0152 C6H6Cl+ 2 113.0153 -0.3
  121.0448 C8H6F+ 1 121.0448 0.37
  123.0241 C7H4FO+ 2 123.0241 0
  129.0447 C8H5N2+ 1 129.0447 -0.27
  138.9946 C7H4ClO+ 2 138.9945 0.44
  141.0102 C7H6ClO+ 2 141.0102 -0.06
  190.0772 C10H9FN3+ 2 190.0775 -1.64
  231.0373 C14H9ClF+ 1 231.0371 0.81
  261.0476 C15H11ClFO+ 2 261.0477 -0.37
  274.0417 C15H10ClFNO+ 2 274.0429 -4.58
  330.0807 C17H14ClFN3O+ 1 330.0804 0.87
PK$NUM_PEAK: 15
PK$PEAK: m/z int. rel.int.
  70.04 340239.8 71
  75.0226 7401.4 1
  77.0384 10360.3 2
  109.0449 11038.9 2
  113.0152 37363.9 7
  121.0448 4787245.6 999
  123.0241 1314892.9 274
  129.0447 99426.9 20
  138.9946 77132 16
  141.0102 673471.1 140
  190.0772 25239.1 5
  231.0373 7586.5 1
  261.0476 32116.1 6
  274.0417 9007.6 1
  330.0807 1115836.1 232
//
