ACCESSION: MSBNK-Eawag-EA070904
RECORD_TITLE: Flufenacet; LC-ESI-ITFT; MS2; CE: 45%; R=7500; [M+H]+
DATE: 2014.01.14
AUTHORS: Stravs M, Schymanski E, Singer H, Department of Environmental Chemistry, Eawag
LICENSE: CC BY
COPYRIGHT: Copyright (C) 2012 Eawag, Duebendorf, Switzerland
COMMENT: CONFIDENCE standard compound
COMMENT: EAWAG_UCHEM_ID 709
CH$NAME: Flufenacet
CH$NAME: N-(4-fluorophenyl)-N-isopropyl-2-[[5-(trifluoromethyl)-1,3,4-thiadiazol-2-yl]oxy]acetamide
CH$COMPOUND_CLASS: N/A; Environmental Standard
CH$FORMULA: C14H13F4N3O2S
CH$EXACT_MASS: 363.0670
CH$SMILES: O=C(COc1nnc(s1)C(F)(F)F)N(c2ccc(F)cc2)C(C)C
CH$IUPAC: InChI=1S/C14H13F4N3O2S/c1-8(2)21(10-5-3-9(15)4-6-10)11(22)7-23-13-20-19-12(24-13)14(16,17)18/h3-6,8H,7H2,1-2H3
CH$LINK: CAS 142459-58-3
CH$LINK: PUBCHEM CID:86429
CH$LINK: INCHIKEY IANUJLZYFUDJIH-UHFFFAOYSA-N
CH$LINK: CHEMSPIDER 77944
CH$LINK: COMPTOX DTXSID2032552
AC$INSTRUMENT: LTQ Orbitrap XL Thermo Scientific
AC$INSTRUMENT_TYPE: LC-ESI-ITFT
AC$MASS_SPECTROMETRY: MS_TYPE MS2
AC$MASS_SPECTROMETRY: ION_MODE POSITIVE
AC$MASS_SPECTROMETRY: IONIZATION ESI
AC$MASS_SPECTROMETRY: FRAGMENTATION_MODE HCD
AC$MASS_SPECTROMETRY: COLLISION_ENERGY 45 % (nominal)
AC$MASS_SPECTROMETRY: RESOLUTION 7500
AC$CHROMATOGRAPHY: COLUMN_NAME XBridge C18 3.5um, 2.1x50mm, Waters
AC$CHROMATOGRAPHY: FLOW_GRADIENT 90/10 at 0 min, 50/50 at 4 min, 5/95 at 17 min, 5/95 at 25 min, 90/10 at 25.1 min, 90/10 at 30 min
AC$CHROMATOGRAPHY: FLOW_RATE 200 ul/min
AC$CHROMATOGRAPHY: RETENTION_TIME 11.7 min
AC$CHROMATOGRAPHY: SOLVENT A water with 0.1% formic acid
AC$CHROMATOGRAPHY: SOLVENT B methanol with 0.1% formic acid
MS$FOCUSED_ION: BASE_PEAK 386.0556
MS$FOCUSED_ION: PRECURSOR_M/Z 364.0737
MS$FOCUSED_ION: PRECURSOR_TYPE [M+H]+
MS$DATA_PROCESSING: DEPROFILE Spline
MS$DATA_PROCESSING: RECALIBRATE loess on assigned fragments and MS1
MS$DATA_PROCESSING: REANALYZE Peaks with additional N2/O included
MS$DATA_PROCESSING: WHOLE RMassBank 1.3.1
PK$SPLASH: splash10-0udi-0900000000-5a71db9bf96953f3bf73
PK$ANNOTATION: m/z tentative_formula formula_count mass error(ppm)
  57.0699 C4H9+ 1 57.0699 0.93
  97.0447 C6H6F+ 2 97.0448 -0.77
  104.0496 C7H6N+ 1 104.0495 1.68
  109.0448 C7H6F+ 2 109.0448 0.23
  110.0395 C3H10O2S+ 2 110.0396 -0.84
  124.0557 C7H7FN+ 2 124.0557 0.13
  125.0393 C2H5F2N3O+ 2 125.0395 -1.76
  132.0438 C8H6NO+ 1 132.0444 -4.09
  152.0507 C8H7FNO+ 1 152.0506 0.54
  152.087 C9H11FN+ 1 152.087 0.17
  166.1026 C10H13FN+ 1 166.1027 -0.39
  194.0976 C11H13FNO+ 1 194.0976 0.37
PK$NUM_PEAK: 12
PK$PEAK: m/z int. rel.int.
  57.0699 5791.9 3
  97.0447 17163.8 9
  104.0496 2725 1
  109.0448 249427.4 137
  110.0395 3834.4 2
  124.0557 756100.8 417
  125.0393 3253.7 1
  132.0438 5179.4 2
  152.0507 1808978 999
  152.087 262325 144
  166.1026 36225.8 20
  194.0976 44560.2 24
//
