ACCESSION: MSBNK-Eawag-EQ01127105
RECORD_TITLE: Hexaconazole; LC-ESI-QFT; MS2; CE: 75%; R=17500; [M+H]+
DATE: 2023.04.27
AUTHORS: B. Beck [dtc,com], J. Hollender [dtc]
LICENSE: CC BY-SA
COPYRIGHT: Copyright (C) Eawag 2023
COMMENT: CONFIDENCE standard compound
COMMENT: UCHEM_ID 11271
CH$NAME: Hexaconazole
CH$NAME: 2-(2,4-dichlorophenyl)-1-(1,2,4-triazol-1-yl)hexan-2-ol
CH$COMPOUND_CLASS: N/A; Environmental Standard
CH$FORMULA: C14H17Cl2N3O
CH$EXACT_MASS: 313.0749
CH$SMILES: CCCCC(CN1C=NC=N1)(C2=C(C=C(C=C2)Cl)Cl)O
CH$IUPAC: InChI=1S/C14H17Cl2N3O/c1-2-3-6-14(20,8-19-10-17-9-18-19)12-5-4-11(15)7-13(12)16/h4-5,7,9-10,20H,2-3,6,8H2,1H3
CH$LINK: CAS 79983-71-4
CH$LINK: CHEBI CHEBI:83711
CH$LINK: KEGG C18466
CH$LINK: PUBCHEM CID:66461
CH$LINK: INCHIKEY STMIIPIFODONDC-UHFFFAOYSA-N
CH$LINK: CHEMSPIDER 59833
AC$INSTRUMENT: Exploris 240 Orbitrap Thermo Scientific
AC$INSTRUMENT_TYPE: LC-ESI-QFT
AC$MASS_SPECTROMETRY: MS_TYPE MS2
AC$MASS_SPECTROMETRY: ION_MODE POSITIVE
AC$MASS_SPECTROMETRY: IONIZATION ESI
AC$MASS_SPECTROMETRY: FRAGMENTATION_MODE HCD
AC$MASS_SPECTROMETRY: COLLISION_ENERGY 75 % (nominal)
AC$MASS_SPECTROMETRY: RESOLUTION 17500
AC$MASS_SPECTROMETRY: MASS_RANGE_M/Z 50-341
AC$CHROMATOGRAPHY: COLUMN_NAME XBridge C18 3.5um, 2.1x50mm, Waters
AC$CHROMATOGRAPHY: FLOW_GRADIENT 90/10 at 0 min, 50/50 at 4 min, 5/95 at 17 min, 5/95 at 25 min, 90/10 at 25.1 min, 90/10 at 30 min
AC$CHROMATOGRAPHY: FLOW_RATE 200 uL/min
AC$CHROMATOGRAPHY: RETENTION_TIME 11.635 min
MS$FOCUSED_ION: BASE_PEAK 320.1519
MS$FOCUSED_ION: PRECURSOR_M/Z 314.0821
MS$FOCUSED_ION: PRECURSOR_TYPE [M+H]+
MS$DATA_PROCESSING: RECALIBRATE loess on assigned fragments and MS1
MS$DATA_PROCESSING: REANALYZE Peaks with additional N2/O included
MS$DATA_PROCESSING: WHOLE RMassBank 3.11.0.1
PK$SPLASH: splash10-00di-9200000000-807785e93f8d37f01dd5
PK$ANNOTATION: m/z tentative_formula formula_count mass error(ppm)
  55.0542 C4H7+ 1 55.0542 0
  57.0699 C4H9+ 1 57.0699 -0.07
  70.0399 C2H4N3+ 1 70.04 -0.93
  115.0545 C9H7+ 1 115.0542 2.73
  125.015 C7H6Cl+ 1 125.0153 -1.94
  136.0075 C8H5Cl+ 1 136.0074 0.8
  139.0055 C6H4ClN2+ 2 139.0058 -1.53
  146.9765 C6H5Cl2+ 1 146.9763 1.5
  149.0148 C9H6Cl+ 1 149.0153 -3.14
  150.0229 C9H7Cl+ 1 150.0231 -1.27
  158.9762 C7H5Cl2+ 1 158.9763 -0.51
  170.9762 C8H5Cl2+ 1 170.9763 -0.29
  184.991 C9H7Cl2+ 1 184.9919 -4.78
PK$NUM_PEAK: 13
PK$PEAK: m/z int. rel.int.
  55.0542 1676786.6 8
  57.0699 5662058.5 28
  70.0399 195412864 999
  115.0545 1124877 5
  125.015 8626279 44
  136.0075 1076169.5 5
  139.0055 2204154 11
  146.9765 1970217.4 10
  149.0148 1392471.6 7
  150.0229 4451896.5 22
  158.9762 30910630 158
  170.9762 2573891.8 13
  184.991 1502715.5 7
//
