ACCESSION: MSBNK-Eawag-EQ361205
RECORD_TITLE: Norfentanyl; LC-ESI-QFT; MS2; CE: 75; R=35000; [M+H]+
DATE: 2015.08.25
AUTHORS: Stravs M, Schymanski E, Singer H, Department of Environmental Chemistry, Eawag and Thomaidis N, University of Athens
LICENSE: CC BY
COPYRIGHT: Copyright (C) 2015 Eawag, Duebendorf, Switzerland
COMMENT: CONFIDENCE standard compound
COMMENT: EAWAG_UCHEM_ID 3612
CH$NAME: Norfentanyl
CH$NAME: N-phenyl-N-piperidin-4-ylpropanamide
CH$COMPOUND_CLASS: N/A; Environmental Standard
CH$FORMULA: C14H20N2O
CH$EXACT_MASS: 232.15756
CH$SMILES: CCC(=O)N(C1CCNCC1)C2=CC=CC=C2
CH$IUPAC: InChI=1S/C14H20N2O/c1-2-14(17)16(12-6-4-3-5-7-12)13-8-10-15-11-9-13/h3-7,13,15H,2,8-11H2,1H3
CH$LINK: CAS 1609-66-1
CH$LINK: CHEBI CHEBI:62685
CH$LINK: PUBCHEM CID:259381
CH$LINK: INCHIKEY PMCBDBWCQQBSRJ-UHFFFAOYSA-N
CH$LINK: CHEMSPIDER 227671
CH$LINK: COMPTOX DTXSID2057657
AC$INSTRUMENT: Q Exactive Plus Orbitrap Thermo Scientific
AC$INSTRUMENT_TYPE: LC-ESI-QFT
AC$MASS_SPECTROMETRY: MS_TYPE MS2
AC$MASS_SPECTROMETRY: ION_MODE POSITIVE
AC$MASS_SPECTROMETRY: IONIZATION ESI
AC$MASS_SPECTROMETRY: FRAGMENTATION_MODE HCD
AC$MASS_SPECTROMETRY: COLLISION_ENERGY 75 (nominal)
AC$MASS_SPECTROMETRY: RESOLUTION 35000
AC$CHROMATOGRAPHY: COLUMN_NAME XBridge C18 3.5um, 2.1x50mm, Waters
AC$CHROMATOGRAPHY: FLOW_GRADIENT 90/10 at 0 min, 50/50 at 4 min, 5/95 at 17 min, 5/95 at 25 min, 90/10 at 25.1 min, 90/10 at 30 min
AC$CHROMATOGRAPHY: FLOW_RATE 200 ul/min
AC$CHROMATOGRAPHY: RETENTION_TIME 4.7 min
AC$CHROMATOGRAPHY: SOLVENT A water with 0.1% formic acid
AC$CHROMATOGRAPHY: SOLVENT B methanol with 0.1% formic acid
MS$FOCUSED_ION: BASE_PEAK 233.1641
MS$FOCUSED_ION: PRECURSOR_M/Z 233.1648
MS$FOCUSED_ION: PRECURSOR_TYPE [M+H]+
MS$DATA_PROCESSING: RECALIBRATE loess on assigned fragments and MS1
MS$DATA_PROCESSING: REANALYZE Peaks with additional N2/O included
MS$DATA_PROCESSING: WHOLE RMassBank 1.9.6
PK$SPLASH: splash10-0a59-9000000000-0f96dbb8a332c80da86d
PK$ANNOTATION: m/z tentative_formula formula_count mass error(ppm)
  53.0385 C4H5+ 1 53.0386 -0.88
  55.0542 C4H7+ 1 55.0542 -0.67
  56.0494 C3H6N+ 1 56.0495 -0.99
  57.0334 C3H5O+ 1 57.0335 -1.07
  57.0698 C4H9+ 1 57.0699 -1.17
  65.0385 C5H5+ 1 65.0386 -1.33
  67.0542 C5H7+ 1 67.0542 -1.14
  69.0572 C4H7N+ 1 69.0573 -0.88
  82.065 C5H8N+ 1 82.0651 -1.17
  84.0807 C5H10N+ 1 84.0808 -1.02
  94.065 C6H8N+ 1 94.0651 -0.8
  95.049 C6H7O+ 1 95.0491 -1.49
  117.0572 C8H7N+ 1 117.0573 -1.2
  120.0807 C8H10N+ 1 120.0808 -0.88
  132.0807 C9H10N+ 1 132.0808 -0.8
  150.0912 C9H12NO+ 1 150.0913 -0.87
PK$NUM_PEAK: 16
PK$PEAK: m/z int. rel.int.
  53.0385 3430000.8 14
  55.0542 148834416 629
  56.0494 143468192 606
  57.0334 21049802 89
  57.0698 4562629.5 19
  65.0385 976048.9 4
  67.0542 17362332 73
  69.0572 1046662.1 4
  82.065 7697712 32
  84.0807 236179216 999
  94.065 33316984 140
  95.049 265896.5 1
  117.0572 570954.1 2
  120.0807 1160348.9 4
  132.0807 5160123 21
  150.0912 7622699 32
//
