ACCESSION: MSBNK-Eawag-EQ500154
RECORD_TITLE: Chlorothalonil TP SYN548581; LC-ESI-QFT; MS2; CE: 60%; R=15000; [M-H]-
DATE: 2021.03.16
AUTHORS: K. Kiefer [dtc], J. Hollender [dtc], H. Singer [dtc], B. Lauper [com]
LICENSE: CC BY-SA
COPYRIGHT: Copyright (C) Eawag 2019
PUBLICATION: Kiefer, K.; Mueller, A.; Singer, H.; Hollender, J. New relevant pesticide transformation products in groundwater detected using target and suspect screening for agricultural and urban micropollutants with LC-HRMS. Water Research 2019, 165. DOI: https://doi.org/10.1016/j.watres.2019.114972
COMMENT: CONFIDENCE standard compound
COMMENT: UCHEM_ID 5001
CH$NAME: Chlorothalonil TP SYN548581
CH$NAME: 4-carbamoyl-2,3,5-trichloro-6-cyanobenzenesulfonic acid
CH$COMPOUND_CLASS: N/A; Environmental Standard
CH$FORMULA: C8H3Cl3N2O4S
CH$EXACT_MASS: 327.8879
CH$SMILES: NC(=O)C1=C(Cl)C(Cl)=C(C(C#N)=C1Cl)S(O)(=O)=O
CH$IUPAC: InChI=1S/C8H3Cl3N2O4S/c9-4-2(1-12)7(18(15,16)17)6(11)5(10)3(4)8(13)14/h(H2,13,14)(H,15,16,17)
CH$LINK: PUBCHEM CID:139595145
CH$LINK: INCHIKEY GTKOZWUQRHEXJR-UHFFFAOYSA-N
CH$LINK: CHEMSPIDER 95550156
AC$INSTRUMENT: Orbitrap Exploris 240 Thermo Scientific
AC$INSTRUMENT_TYPE: LC-ESI-QFT
AC$MASS_SPECTROMETRY: MS_TYPE MS2
AC$MASS_SPECTROMETRY: ION_MODE NEGATIVE
AC$MASS_SPECTROMETRY: IONIZATION ESI
AC$MASS_SPECTROMETRY: FRAGMENTATION_MODE HCD
AC$MASS_SPECTROMETRY: COLLISION_ENERGY 60 % (nominal)
AC$MASS_SPECTROMETRY: RESOLUTION 15000
AC$MASS_SPECTROMETRY: MASS_RANGE_M/Z NA-NA
AC$CHROMATOGRAPHY: COLUMN_NAME Atlantis C18 3um, 3.0x150mm, Waters
AC$CHROMATOGRAPHY: FLOW_GRADIENT 100/0 at 0 min, 100/0 at 1.5 min, 5/95 at 18.5 min, 5/95 at 28.5 min, 100/0 at 29 min, 100/0 at 33 min
AC$CHROMATOGRAPHY: FLOW_RATE 300 uL/min
AC$CHROMATOGRAPHY: RETENTION_TIME 10.493 min
MS$FOCUSED_ION: BASE_PEAK 326.8808
MS$FOCUSED_ION: PRECURSOR_M/Z 326.8806
MS$FOCUSED_ION: PRECURSOR_TYPE [M-H]-
MS$FOCUSED_ION: PRECURSOR_INTENSITY 53505816
MS$DATA_PROCESSING: RECALIBRATE loess on assigned fragments and MS1
MS$DATA_PROCESSING: REANALYZE Peaks with additional N2/O included
MS$DATA_PROCESSING: WHOLE RMassBank 2.99.4
PK$SPLASH: splash10-0wmj-0290000000-ba16acb548aee3fb99bd
PK$ANNOTATION: m/z tentative_formula formula_count mass error(ppm)
  114.9261 ClO3S- 1 114.9262 -0.96
  146.9753 C7ClN2- 1 146.9755 -1.61
  167.9414 C7Cl2N- 1 167.9413 0.22
  174.97 C8ClN2O- 1 174.9705 -2.41
  183.9366 C7Cl2NO- 1 183.9362 1.78
  203.918 C7HCl3N- 1 203.918 -0.14
  210.9468 C8HCl2N2O- 1 210.9471 -1.6
  219.913 C7HCl3NO- 1 219.9129 0.19
  244.907 C8Cl3N2O- 1 244.9082 -4.57
  246.9236 C8H2Cl3N2O- 1 246.9238 -0.75
  262.919 C8H2Cl3N2O2- 1 262.9187 1.17
PK$NUM_PEAK: 11
PK$PEAK: m/z int. rel.int.
  114.9261 515292 288
  146.9753 376375.6 210
  167.9414 124376.9 69
  174.97 246188.8 137
  183.9366 263127.6 147
  203.918 1782600.9 999
  210.9468 170526.3 95
  219.913 1611840.2 903
  244.907 126966 71
  246.9236 551120.5 308
  262.919 420711.5 235
//
