ACCESSION: MSBNK-Eawag-EA280314
RECORD_TITLE: Bupropion; LC-ESI-ITFT; MS2; CE: 35%; R=30000; [M+H]+
DATE: 2014.01.14
AUTHORS: Stravs M, Schymanski E, Singer H, Department of Environmental Chemistry, Eawag
LICENSE: CC BY
COPYRIGHT: Copyright (C) 2012 Eawag, Duebendorf, Switzerland
COMMENT: CONFIDENCE standard compound
COMMENT: EAWAG_UCHEM_ID 2803
CH$NAME: Bupropion
CH$NAME: 2-(tert-butylamino)-1-(3-chlorophenyl)-1-propanone
CH$COMPOUND_CLASS: N/A; Environmental Standard
CH$FORMULA: C13H18ClNO
CH$EXACT_MASS: 239.1077
CH$SMILES: c1(C(=O)C(NC(C)(C)C)C)cc(ccc1)Cl
CH$IUPAC: InChI=1S/C13H18ClNO/c1-9(15-13(2,3)4)12(16)10-6-5-7-11(14)8-10/h5-9,15H,1-4H3
CH$LINK: CAS 34911-55-2
CH$LINK: CHEBI CHEBI:3219
CH$LINK: HMDB HMDB01510
CH$LINK: KEGG D07591
CH$LINK: PUBCHEM CID:444
CH$LINK: INCHIKEY SNPPWIUOZRMYNY-UHFFFAOYSA-N
CH$LINK: CHEMSPIDER 431
CH$LINK: COMPTOX DTXSID7022706
AC$INSTRUMENT: LTQ Orbitrap XL Thermo Scientific
AC$INSTRUMENT_TYPE: LC-ESI-ITFT
AC$MASS_SPECTROMETRY: MS_TYPE MS2
AC$MASS_SPECTROMETRY: ION_MODE POSITIVE
AC$MASS_SPECTROMETRY: IONIZATION ESI
AC$MASS_SPECTROMETRY: FRAGMENTATION_MODE CID
AC$MASS_SPECTROMETRY: COLLISION_ENERGY 35 % (nominal)
AC$MASS_SPECTROMETRY: RESOLUTION 30000
AC$CHROMATOGRAPHY: COLUMN_NAME XBridge C18 3.5um, 2.1x50mm, Waters
AC$CHROMATOGRAPHY: FLOW_GRADIENT 90/10 at 0 min, 50/50 at 4 min, 5/95 at 17 min, 5/95 at 25 min, 90/10 at 25.1 min, 90/10 at 30 min
AC$CHROMATOGRAPHY: FLOW_RATE 200 ul/min
AC$CHROMATOGRAPHY: RETENTION_TIME 5.8 min
AC$CHROMATOGRAPHY: SOLVENT A water with 0.1% formic acid
AC$CHROMATOGRAPHY: SOLVENT B methanol with 0.1% formic acid
MS$FOCUSED_ION: BASE_PEAK 240.1157
MS$FOCUSED_ION: PRECURSOR_M/Z 240.115
MS$FOCUSED_ION: PRECURSOR_TYPE [M+H]+
MS$DATA_PROCESSING: DEPROFILE Spline
MS$DATA_PROCESSING: RECALIBRATE loess on assigned fragments and MS1
MS$DATA_PROCESSING: REANALYZE Peaks with additional N2/O included
MS$DATA_PROCESSING: WHOLE RMassBank 1.3.1
PK$SPLASH: splash10-001i-0900000000-f77a450be176593153d2
PK$ANNOTATION: m/z tentative_formula formula_count mass error(ppm)
  166.0418 C9H9ClN+ 2 166.0418 0.04
  167.0258 C9H8ClO+ 1 167.0258 0.07
  184.0526 C9H11ClNO+ 1 184.0524 1.04
PK$NUM_PEAK: 3
PK$PEAK: m/z int. rel.int.
  166.0418 365769.5 15
  167.0258 117537.1 4
  184.0526 24328563.2 999
//
