ACCESSION: MSBNK-Eawag-EQ436151
RECORD_TITLE: Anabaenopeptin B; LC-ESI-QFT; MS2; CE: 15%; R=17500; [M-H]-
DATE: 2020.02.03
AUTHORS: E. Janssen [dtc], B. Lauper [com]
LICENSE: CC BY-SA
COPYRIGHT: Copyright (C) Eawag 2019
COMMENT: CONFIDENCE standard compound
COMMENT: UCHEM_ID 4361
COMMENT: NaToxAq - Natural Toxins and Drinking Water Quality - From Source to Tap (https://natoxaq.ku.dk)
CH$NAME: Anabaenopeptin B
CH$NAME: (2S)-2-[[(3S,6S,9S,12S,15R)-3-benzyl-9-[2-(4-hydroxyphenyl)ethyl]-6,7-dimethyl-2,5,8,11,14-pentaoxo-12-propan-2-yl-1,4,7,10,13-pentazacyclononadec-15-yl]carbamoylamino]-5-(diaminomethylideneamino)pentanoic acid
CH$COMPOUND_CLASS: NA
CH$FORMULA: C41H60N10O9
CH$EXACT_MASS: 836.4545
CH$SMILES: CC(C)[C@@H]1NC(=O)[C@@H](CCCCNC(=O)[C@H](Cc2ccccc2)NC(=O)[C@H](C)N(C)C(=O)[C@H](CCc3ccc(O)cc3)NC1=O)NC(=O)N[C@@H](CCCNC(N)=N)C(O)=O
CH$IUPAC: InChI=1S/C41H60N10O9/c1-24(2)33-37(56)46-30(20-17-26-15-18-28(52)19-16-26)38(57)51(4)25(3)34(53)47-32(23-27-11-6-5-7-12-27)35(54)44-21-9-8-13-29(36(55)50-33)48-41(60)49-31(39(58)59)14-10-22-45-40(42)43/h5-7,11-12,15-16,18-19,24-25,29-33,52H,8-10,13-14,17,20-23H2,1-4H3,(H,44,54)(H,46,56)(H,47,53)(H,50,55)(H,58,59)(H4,42,43,45)(H2,48,49,60)/t25-,29+,30-,31-,32-,33-/m0/s1
CH$LINK: PUBCHEM CID:10418061
CH$LINK: INCHIKEY ZDOVFDLIJJGVQM-APNXPRSCSA-N
CH$LINK: CHEMSPIDER 8593493
AC$INSTRUMENT: Q Exactive Plus Orbitrap Thermo Scientific
AC$INSTRUMENT_TYPE: LC-ESI-QFT
AC$MASS_SPECTROMETRY: MS_TYPE MS2
AC$MASS_SPECTROMETRY: ION_MODE NEGATIVE
AC$MASS_SPECTROMETRY: IONIZATION ESI
AC$MASS_SPECTROMETRY: FRAGMENTATION_MODE HCD
AC$MASS_SPECTROMETRY: COLLISION_ENERGY 15 % (nominal)
AC$MASS_SPECTROMETRY: RESOLUTION 17500
AC$CHROMATOGRAPHY: COLUMN_NAME XBridge C18 3.5um, 2.1x50mm, Waters
AC$CHROMATOGRAPHY: FLOW_GRADIENT 90/10 at 0 min, 50/50 at 4 min, 5/95 at 17 min, 5/95 at 25 min, 90/10 at 25.1 min, 90/10 at 30 min
AC$CHROMATOGRAPHY: FLOW_RATE 200 uL/min
AC$CHROMATOGRAPHY: RETENTION_TIME 5.792 min
AC$CHROMATOGRAPHY: SOLVENT A water with 0.1% formic acid
AC$CHROMATOGRAPHY: SOLVENT B MeOH with 0.1% formic acid
MS$FOCUSED_ION: BASE_PEAK 190.9276
MS$FOCUSED_ION: PRECURSOR_M/Z 835.4472
MS$FOCUSED_ION: PRECURSOR_TYPE [M-H]-
MS$DATA_PROCESSING: RECALIBRATE loess on assigned fragments and MS1
MS$DATA_PROCESSING: REANALYZE Peaks with additional N2/O included
MS$DATA_PROCESSING: WHOLE RMassBank 2.99.1
PK$SPLASH: splash10-03di-0000009060-4b3363316b3a81d66202
PK$ANNOTATION: m/z tentative_formula formula_count mass error(ppm)
  173.1036 C5H17O6- 3 173.1031 3.38
  661.3356 C35H45N6O7- 6 661.3355 0.15
  817.4368 C41H57N10O8- 1 817.4366 0.18
  835.4477 C41H59N10O9- 1 835.4472 0.54
PK$NUM_PEAK: 4
PK$PEAK: m/z int. rel.int.
  173.1036 51823.8 99
  661.3356 518541.5 999
  817.4368 186555.6 359
  835.4477 179445 345
//
