ACCESSION: MSBNK-Eawag-EQ01138302
RECORD_TITLE: Metobromuron; LC-ESI-QFT; MS2; CE: 30%; R=17500; [M+H]+
DATE: 2023.04.27
AUTHORS: B. Beck [dtc,com], J. Hollender [dtc]
LICENSE: CC BY-SA
COPYRIGHT: Copyright (C) Eawag 2023
COMMENT: CONFIDENCE standard compound
COMMENT: UCHEM_ID 11383
CH$NAME: Metobromuron
CH$NAME: 3-(4-bromophenyl)-1-methoxy-1-methylurea
CH$COMPOUND_CLASS: N/A; Environmental Standard
CH$FORMULA: C9H11BrN2O2
CH$EXACT_MASS: 258.0004
CH$SMILES: CN(C(=O)NC1=CC=C(C=C1)Br)OC
CH$IUPAC: InChI=1S/C9H11BrN2O2/c1-12(14-2)9(13)11-8-5-3-7(10)4-6-8/h3-6H,1-2H3,(H,11,13)
CH$LINK: CAS 3060-89-7
CH$LINK: CHEBI CHEBI:81964
CH$LINK: KEGG C18793
CH$LINK: PUBCHEM CID:18290
CH$LINK: INCHIKEY WLFDQEVORAMCIM-UHFFFAOYSA-N
CH$LINK: CHEMSPIDER 17276
AC$INSTRUMENT: Exploris 240 Orbitrap Thermo Scientific
AC$INSTRUMENT_TYPE: LC-ESI-QFT
AC$MASS_SPECTROMETRY: MS_TYPE MS2
AC$MASS_SPECTROMETRY: ION_MODE POSITIVE
AC$MASS_SPECTROMETRY: IONIZATION ESI
AC$MASS_SPECTROMETRY: FRAGMENTATION_MODE HCD
AC$MASS_SPECTROMETRY: COLLISION_ENERGY 30 % (nominal)
AC$MASS_SPECTROMETRY: RESOLUTION 17500
AC$MASS_SPECTROMETRY: MASS_RANGE_M/Z 50-285
AC$CHROMATOGRAPHY: COLUMN_NAME XBridge C18 3.5um, 2.1x50mm, Waters
AC$CHROMATOGRAPHY: FLOW_GRADIENT 90/10 at 0 min, 50/50 at 4 min, 5/95 at 17 min, 5/95 at 25 min, 90/10 at 25.1 min, 90/10 at 30 min
AC$CHROMATOGRAPHY: FLOW_RATE 200 uL/min
AC$CHROMATOGRAPHY: RETENTION_TIME 6.748 min
MS$FOCUSED_ION: BASE_PEAK 259.0077
MS$FOCUSED_ION: PRECURSOR_M/Z 259.0077
MS$FOCUSED_ION: PRECURSOR_TYPE [M+H]+
MS$DATA_PROCESSING: RECALIBRATE loess on assigned fragments and MS1
MS$DATA_PROCESSING: REANALYZE Peaks with additional N2/O included
MS$DATA_PROCESSING: WHOLE RMassBank 3.11.0.1
PK$SPLASH: splash10-066s-2930000000-59428ae76be1d0405ddd
PK$ANNOTATION: m/z tentative_formula formula_count mass error(ppm)
  60.0444 C2H6NO+ 1 60.0444 0.92
  61.0521 C2H7NO+ 1 61.0522 -1.88
  62.06 C2H8NO+ 1 62.06 0.15
  88.0394 C3H6NO2+ 1 88.0393 0.88
  148.0632 C8H8N2O+ 1 148.0631 0.38
  169.96 C6H5BrN+ 1 169.96 0.22
  170.9678 C6H6BrN+ 1 170.9678 -0.03
  197.9551 C7H5BrNO+ 1 197.9549 1.05
  226.9815 C8H8BrN2O+ 1 226.9815 0.29
  227.9894 C8H9BrN2O+ 1 227.9893 0.43
  259.0079 C9H12BrN2O2+ 1 259.0077 0.81
PK$NUM_PEAK: 11
PK$PEAK: m/z int. rel.int.
  60.0444 7321777.5 101
  61.0521 638630.7 8
  62.06 24090728 335
  88.0394 6303335.5 87
  148.0632 57151820 795
  169.96 71731928 999
  170.9678 8736113 121
  197.9551 2102970 29
  226.9815 3837172.5 53
  227.9894 5547223 77
  259.0079 45451976 633
//
