ACCESSION: MSBNK-Eawag-EA293359
RECORD_TITLE: Clothianidin; LC-ESI-ITFT; MS2; CE: 30%; R=15000; [M-H]-
DATE: 2014.01.14
AUTHORS: Stravs M, Schymanski E, Singer H, Department of Environmental Chemistry, Eawag
LICENSE: CC BY
COPYRIGHT: Copyright (C) 2012 Eawag, Duebendorf, Switzerland
COMMENT: CONFIDENCE standard compound
COMMENT: EAWAG_UCHEM_ID 2933
CH$NAME: Clothianidin
CH$NAME: 1-[(2-chloranyl-1,3-thiazol-5-yl)methyl]-2-methyl-3-nitro-guanidine
CH$NAME: 1-[(2-chloro-1,3-thiazol-5-yl)methyl]-2-methyl-3-nitroguanidine
CH$COMPOUND_CLASS: N/A; Environmental Standard
CH$FORMULA: C6H8ClN5O2S
CH$EXACT_MASS: 249.0087
CH$SMILES: Clc1ncc(s1)CN/C(=N/C)N[N+]([O-])=O
CH$IUPAC: InChI=1S/C6H8ClN5O2S/c1-8-6(11-12(13)14)10-3-4-2-9-5(7)15-4/h2H,3H2,1H3,(H2,8,10,11)
CH$LINK: CAS 210880-92-5
CH$LINK: CHEBI CHEBI:39178
CH$LINK: PUBCHEM CID:213027
CH$LINK: INCHIKEY PGOOBECODWQEAB-UHFFFAOYSA-N
CH$LINK: CHEMSPIDER 184723
CH$LINK: COMPTOX DTXSID2034465
AC$INSTRUMENT: LTQ Orbitrap XL Thermo Scientific
AC$INSTRUMENT_TYPE: LC-ESI-ITFT
AC$MASS_SPECTROMETRY: MS_TYPE MS2
AC$MASS_SPECTROMETRY: ION_MODE NEGATIVE
AC$MASS_SPECTROMETRY: IONIZATION ESI
AC$MASS_SPECTROMETRY: FRAGMENTATION_MODE HCD
AC$MASS_SPECTROMETRY: COLLISION_ENERGY 30 % (nominal)
AC$MASS_SPECTROMETRY: RESOLUTION 15000
AC$CHROMATOGRAPHY: COLUMN_NAME XBridge C18 3.5um, 2.1x50mm, Waters
AC$CHROMATOGRAPHY: FLOW_GRADIENT 90/10 at 0 min, 50/50 at 4 min, 5/95 at 17 min, 5/95 at 25 min, 90/10 at 25.1 min, 90/10 at 30 min
AC$CHROMATOGRAPHY: FLOW_RATE 200 ul/min
AC$CHROMATOGRAPHY: RETENTION_TIME 4.9 min
AC$CHROMATOGRAPHY: SOLVENT A water with 0.1% formic acid
AC$CHROMATOGRAPHY: SOLVENT B methanol with 0.1% formic acid
MS$FOCUSED_ION: BASE_PEAK 248.0024
MS$FOCUSED_ION: PRECURSOR_M/Z 248.0014
MS$FOCUSED_ION: PRECURSOR_TYPE [M-H]-
MS$DATA_PROCESSING: DEPROFILE Spline
MS$DATA_PROCESSING: RECALIBRATE loess on assigned fragments and MS1
MS$DATA_PROCESSING: REANALYZE Peaks with additional N2/O included
MS$DATA_PROCESSING: WHOLE RMassBank 1.3.1
PK$SPLASH: splash10-0aor-9700000000-5f09fedbe94253443c64
PK$ANNOTATION: m/z tentative_formula formula_count mass error(ppm)
  57.9757 CNS- 1 57.9757 -0.06
  111.0023 C4H3N2S- 1 111.0022 0.16
  165.0239 C6H5N4S- 1 165.024 -0.97
PK$NUM_PEAK: 3
PK$PEAK: m/z int. rel.int.
  57.9757 52380.4 999
  111.0023 10282.7 196
  165.0239 33187 632
//
