ACCESSION: MSBNK-Eawag-EA034012
RECORD_TITLE: N,N-Dimethyl-N'-p-tolylsulphamide; LC-ESI-ITFT; MS2; CE: 75%; R=15000; [M+H]+
DATE: 2014.01.14
AUTHORS: Stravs M, Schymanski E, Singer H, Department of Environmental Chemistry, Eawag
LICENSE: CC BY
COPYRIGHT: Copyright (C) 2012 Eawag, Duebendorf, Switzerland
COMMENT: CONFIDENCE standard compound
COMMENT: EAWAG_UCHEM_ID 340
CH$NAME: N,N-Dimethyl-N'-p-tolylsulphamide
CH$NAME: 1-(dimethylsulfamoylamino)-4-methyl-benzene
CH$COMPOUND_CLASS: N/A; Environmental Standard
CH$FORMULA: C9H14N2O2S
CH$EXACT_MASS: 214.0776
CH$SMILES: O=S(=O)(Nc1ccc(C)cc1)N(C)C
CH$IUPAC: InChI=1S/C9H14N2O2S/c1-8-4-6-9(7-5-8)10-14(12,13)11(2)3/h4-7,10H,1-3H3
CH$LINK: CAS 66840-71-9
CH$LINK: PUBCHEM CID:738302
CH$LINK: INCHIKEY UDCDOJQOXWCCSD-UHFFFAOYSA-N
CH$LINK: CHEMSPIDER 645289
CH$LINK: COMPTOX DTXSID00891450
AC$INSTRUMENT: LTQ Orbitrap XL Thermo Scientific
AC$INSTRUMENT_TYPE: LC-ESI-ITFT
AC$MASS_SPECTROMETRY: MS_TYPE MS2
AC$MASS_SPECTROMETRY: ION_MODE POSITIVE
AC$MASS_SPECTROMETRY: IONIZATION ESI
AC$MASS_SPECTROMETRY: FRAGMENTATION_MODE HCD
AC$MASS_SPECTROMETRY: COLLISION_ENERGY 75 % (nominal)
AC$MASS_SPECTROMETRY: RESOLUTION 15000
AC$CHROMATOGRAPHY: COLUMN_NAME XBridge C18 3.5um, 2.1x50mm, Waters
AC$CHROMATOGRAPHY: FLOW_GRADIENT 90/10 at 0 min, 50/50 at 4 min, 5/95 at 17 min, 5/95 at 25 min, 90/10 at 25.1 min, 90/10 at 30 min
AC$CHROMATOGRAPHY: FLOW_RATE 200 ul/min
AC$CHROMATOGRAPHY: RETENTION_TIME 7.5 min
AC$CHROMATOGRAPHY: SOLVENT A water with 0.1% formic acid
AC$CHROMATOGRAPHY: SOLVENT B methanol with 0.1% formic acid
MS$FOCUSED_ION: BASE_PEAK 237.0675
MS$FOCUSED_ION: PRECURSOR_M/Z 215.0849
MS$FOCUSED_ION: PRECURSOR_TYPE [M+H]+
MS$DATA_PROCESSING: DEPROFILE Spline
MS$DATA_PROCESSING: RECALIBRATE loess on assigned fragments and MS1
MS$DATA_PROCESSING: REANALYZE Peaks with additional N2/O included
MS$DATA_PROCESSING: WHOLE RMassBank 1.3.1
PK$SPLASH: splash10-0a6r-6900000000-8b4766d1a58f2a2d31b7
PK$ANNOTATION: m/z tentative_formula formula_count mass error(ppm)
  53.0385 C4H5+ 1 53.0386 -1.82
  77.0386 C6H5+ 1 77.0386 0.04
  79.0542 C6H7+ 1 79.0542 0.3
  91.0545 C7H7+ 1 91.0542 3.11
  93.0571 C6H7N+ 1 93.0573 -2.69
  95.0491 C6H7O+ 1 95.0491 -0.22
  105.0447 C6H5N2+ 1 105.0447 -0.33
  106.0651 C7H8N+ 1 106.0651 -0.05
  107.0729 C7H9N+ 1 107.073 -0.47
  108.0811 C7H10N+ 1 108.0808 3.37
  136.0993 C8H12N2+ 1 136.0995 -1.17
PK$NUM_PEAK: 11
PK$PEAK: m/z int. rel.int.
  53.0385 10494.3 7
  77.0386 216741.6 150
  79.0542 887864.6 617
  91.0545 2815 1
  93.0571 4185.5 2
  95.0491 21037 14
  105.0447 45681.4 31
  106.0651 1435721.6 999
  107.0729 81573.6 56
  108.0811 4798.3 3
  136.0993 16360.7 11
//
