ACCESSION: MSBNK-Eawag-EQ00010407
RECORD_TITLE: Acetochlor; LC-ESI-QFT; MS2; CE: 120%; R=15000; [M+H]+
DATE: 2024.06.14
AUTHORS: F. Jud [dtc], K. Arturi [dtc], J. Hollender [dtc], A. Dax [com]
LICENSE: CC BY-SA
COPYRIGHT: Copyright (C) Eawag 2024
COMMENT: CONFIDENCE standard compound
COMMENT: UCHEM_ID 104
CH$NAME: Acetochlor
CH$NAME: 2-chloro-N-(ethoxymethyl)-N-(2-ethyl-6-methylphenyl)acetamide
CH$COMPOUND_CLASS: N/A
CH$FORMULA: C14H20ClNO2
CH$EXACT_MASS: 269.1182566
CH$SMILES: CCOCN(C(=O)CCl)C1=C(CC)C=CC=C1C
CH$IUPAC: InChI=1S/C14H20ClNO2/c1-4-12-8-6-7-11(3)14(12)16(10-18-5-2)13(17)9-15/h6-8H,4-5,9-10H2,1-3H3
CH$LINK: CAS 35439-70-4
CH$LINK: CHEBI CHEBI:2394
CH$LINK: KEGG C10925
CH$LINK: PUBCHEM CID:1988
CH$LINK: INCHIKEY VTNQPKFIQCLBDU-UHFFFAOYSA-N
CH$LINK: CHEMSPIDER 1911
AC$INSTRUMENT: Q Exactive Plus
AC$INSTRUMENT_TYPE: LC-ESI-QFT
AC$MASS_SPECTROMETRY: MS_TYPE MS2
AC$MASS_SPECTROMETRY: ION_MODE POSITIVE
AC$MASS_SPECTROMETRY: IONIZATION ESI
AC$MASS_SPECTROMETRY: FRAGMENTATION_MODE HCD
AC$MASS_SPECTROMETRY: COLLISION_ENERGY 120 % (nominal)
AC$MASS_SPECTROMETRY: RESOLUTION 15000
AC$MASS_SPECTROMETRY: MASS_RANGE_M/Z 50-295
AC$CHROMATOGRAPHY: COLUMN_NAME XBridge C18 3.5um, 2.1x50mm, Waters
AC$CHROMATOGRAPHY: FLOW_GRADIENT 90/10 at 0 min, 50/50 at 4 min, 5/95 at 17 min, 5/95 at 25 min, 90/10 at 25.1 min, 90/10 at 30 min
AC$CHROMATOGRAPHY: FLOW_RATE 200 uL/min
AC$CHROMATOGRAPHY: RETENTION_TIME 10.338 min
MS$FOCUSED_ION: BASE_PEAK 224.0838
MS$FOCUSED_ION: PRECURSOR_M/Z 270.1255
MS$FOCUSED_ION: PRECURSOR_TYPE [M+H]+
MS$FOCUSED_ION: PRECURSOR_INTENSITY 108840014.11
MS$DATA_PROCESSING: RECALIBRATE loess on assigned fragments and MS1
MS$DATA_PROCESSING: REANALYZE Peaks with additional N2/O included
MS$DATA_PROCESSING: WHOLE RMassBank 3.15.1.1
PK$SPLASH: splash10-00lr-1900000000-92f05f3a97fc7847e20a
PK$ANNOTATION: m/z tentative_formula formula_count mass error(ppm)
  79.0542 C6H7+ 1 79.0542 -0.66
  91.0543 C7H7+ 1 91.0542 0.89
  106.0653 C7H8N+ 1 106.0651 1.51
  115.0543 C9H7+ 1 115.0542 0.85
  117.0573 C8H7N+ 1 117.0573 -0.29
  117.07 C9H9+ 1 117.0699 0.79
  118.0652 C8H8N+ 1 118.0651 0.72
  130.0656 C9H8N+ 1 130.0651 3.81
  132.0809 C9H10N+ 1 132.0808 0.67
  133.0886 C9H11N+ 1 133.0886 0.11
PK$NUM_PEAK: 10
PK$PEAK: m/z int. rel.int.
  79.0542 57098.3 35
  91.0543 702699 435
  106.0653 190777.2 118
  115.0543 286039.9 177
  117.0573 717024.3 444
  117.07 57131.7 35
  118.0652 483875.5 299
  130.0656 158443.8 98
  132.0809 1612273.5 999
  133.0886 551903.9 341
//
