ACCESSION: MSBNK-Eawag-EA276108
RECORD_TITLE: Dimethoate; LC-ESI-ITFT; MS2; CE: 15%; R=15000; [M+H]+
DATE: 2014.01.14
AUTHORS: Stravs M, Schymanski E, Singer H, Department of Environmental Chemistry, Eawag
LICENSE: CC BY
COPYRIGHT: Copyright (C) 2012 Eawag, Duebendorf, Switzerland
COMMENT: CONFIDENCE standard compound
COMMENT: EAWAG_UCHEM_ID 2761
CH$NAME: Dimethoate
CH$NAME: 2-(dimethoxyphosphinothioylthio)-N-methylacetamide
CH$COMPOUND_CLASS: N/A; Environmental Standard
CH$FORMULA: C5H12NO3PS2
CH$EXACT_MASS: 228.9996
CH$SMILES: P(SCC(NC)=O)(OC)(OC)=S
CH$IUPAC: InChI=1S/C5H12NO3PS2/c1-6-5(7)4-12-10(11,8-2)9-3/h4H2,1-3H3,(H,6,7)
CH$LINK: CAS 60-51-5
CH$LINK: CHEBI CHEBI:34714
CH$LINK: KEGG C14326
CH$LINK: PUBCHEM CID:3082
CH$LINK: INCHIKEY MCWXGJITAZMZEV-UHFFFAOYSA-N
CH$LINK: CHEMSPIDER 2973
CH$LINK: COMPTOX DTXSID7020479
AC$INSTRUMENT: LTQ Orbitrap XL Thermo Scientific
AC$INSTRUMENT_TYPE: LC-ESI-ITFT
AC$MASS_SPECTROMETRY: MS_TYPE MS2
AC$MASS_SPECTROMETRY: ION_MODE POSITIVE
AC$MASS_SPECTROMETRY: IONIZATION ESI
AC$MASS_SPECTROMETRY: FRAGMENTATION_MODE HCD
AC$MASS_SPECTROMETRY: COLLISION_ENERGY 15 % (nominal)
AC$MASS_SPECTROMETRY: RESOLUTION 15000
AC$CHROMATOGRAPHY: COLUMN_NAME XBridge C18 3.5um, 2.1x50mm, Waters
AC$CHROMATOGRAPHY: FLOW_GRADIENT 90/10 at 0 min, 50/50 at 4 min, 5/95 at 17 min, 5/95 at 25 min, 90/10 at 25.1 min, 90/10 at 30 min
AC$CHROMATOGRAPHY: FLOW_RATE 200 ul/min
AC$CHROMATOGRAPHY: RETENTION_TIME 5.2 min
AC$CHROMATOGRAPHY: SOLVENT A water with 0.1% formic acid
AC$CHROMATOGRAPHY: SOLVENT B methanol with 0.1% formic acid
MS$FOCUSED_ION: BASE_PEAK 230.007
MS$FOCUSED_ION: PRECURSOR_M/Z 230.0069
MS$FOCUSED_ION: PRECURSOR_TYPE [M+H]+
MS$DATA_PROCESSING: DEPROFILE Spline
MS$DATA_PROCESSING: RECALIBRATE loess on assigned fragments and MS1
MS$DATA_PROCESSING: REANALYZE Peaks with additional N2/O included
MS$DATA_PROCESSING: WHOLE RMassBank 1.3.1
PK$SPLASH: splash10-0002-0920000000-b6038fef7640e0f6a5e3
PK$ANNOTATION: m/z tentative_formula formula_count mass error(ppm)
  61.0106 C2H5S+ 1 61.0106 -0.45
  88.0215 C3H6NS+ 1 88.0215 -0.08
  119.994 C3H6NS2+ 1 119.9936 3.02
  124.9821 C2H6O2PS+ 1 124.9821 -0.11
  142.9927 C2H8O3PS+ 1 142.9926 0.43
  156.954 C2H6O2PS2+ 1 156.9541 -0.98
  158.9697 C2H8O2PS2+ 1 158.9698 -0.59
  170.9698 C3H8O2PS2+ 1 170.9698 0.03
  197.9807 C4H9NO2PS2+ 1 197.9807 0.13
  198.9647 C4H8O3PS2+ 1 198.9647 0
  230.0068 C5H13NO3PS2+ 1 230.0069 -0.38
PK$NUM_PEAK: 11
PK$PEAK: m/z int. rel.int.
  61.0106 63748.6 1
  88.0215 3417461.7 92
  119.994 56971.7 1
  124.9821 2637420.6 71
  142.9927 1143165.9 30
  156.954 376170.9 10
  158.9697 54749.1 1
  170.9698 14383334.4 389
  197.9807 1321415.1 35
  198.9647 36879337.2 999
  230.0068 13241728.8 358
//
