ACCESSION: MSBNK-Eawag-EQ00410202
RECORD_TITLE: Penoxsulam; LC-ESI-QFT; MS2; CE: 30%; R=15000; [M+H]+
DATE: 2024.06.14
AUTHORS: F. Jud [dtc], K. Arturi [dtc], J. Hollender [dtc], A. Dax [com]
LICENSE: CC BY-SA
COPYRIGHT: Copyright (C) Eawag 2024
COMMENT: CONFIDENCE standard compound
COMMENT: UCHEM_ID 4102
CH$NAME: Penoxsulam
CH$NAME: 2-(2,2-difluoroethoxy)-N-(5,8-dimethoxy-[1,2,4]triazolo[1,5-c]pyrimidin-2-yl)-6-(trifluoromethyl)benzenesulfonamide
CH$COMPOUND_CLASS: N/A
CH$FORMULA: C16H14F5N5O5S
CH$EXACT_MASS: 483.0635806
CH$SMILES: COC1=CN=C(N2C1=NC(=N2)NS(=O)(=O)C3=C(C=CC=C3OCC(F)F)C(F)(F)F)OC
CH$IUPAC: InChI=1S/C16H14F5N5O5S/c1-29-10-6-22-15(30-2)26-13(10)23-14(24-26)25-32(27,28)12-8(16(19,20)21)4-3-5-9(12)31-7-11(17)18/h3-6,11H,7H2,1-2H3,(H,24,25)
CH$LINK: CAS 219714-96-2
CH$LINK: CHEBI CHEBI:81776
CH$LINK: KEGG C18481
CH$LINK: PUBCHEM CID:11784975
CH$LINK: INCHIKEY SYJGKVOENHZYMQ-UHFFFAOYSA-N
CH$LINK: CHEMSPIDER 9959655
AC$INSTRUMENT: Exploris 240 Thermo Scientific
AC$INSTRUMENT_TYPE: LC-ESI-QFT
AC$MASS_SPECTROMETRY: MS_TYPE MS2
AC$MASS_SPECTROMETRY: ION_MODE POSITIVE
AC$MASS_SPECTROMETRY: IONIZATION ESI
AC$MASS_SPECTROMETRY: FRAGMENTATION_MODE HCD
AC$MASS_SPECTROMETRY: COLLISION_ENERGY 30 % (nominal)
AC$MASS_SPECTROMETRY: RESOLUTION 15000
AC$MASS_SPECTROMETRY: MASS_RANGE_M/Z 51-515
AC$CHROMATOGRAPHY: COLUMN_NAME XBridge C18 3.5um, 2.1x50mm, Waters
AC$CHROMATOGRAPHY: FLOW_GRADIENT 90/10 at 0 min, 50/50 at 4 min, 5/95 at 17 min, 5/95 at 25 min, 90/10 at 25.1 min, 90/10 at 30 min
AC$CHROMATOGRAPHY: FLOW_RATE 200 uL/min
AC$CHROMATOGRAPHY: RETENTION_TIME 6.431 min
MS$FOCUSED_ION: BASE_PEAK 484.0711
MS$FOCUSED_ION: PRECURSOR_M/Z 484.0709
MS$FOCUSED_ION: PRECURSOR_TYPE [M+H]+
MS$DATA_PROCESSING: RECALIBRATE loess on assigned fragments and MS1
MS$DATA_PROCESSING: REANALYZE Peaks with additional N2/O included
MS$DATA_PROCESSING: WHOLE RMassBank 3.15.1.1
PK$SPLASH: splash10-001j-0600900000-f124e9838c39bcb81cf3
PK$ANNOTATION: m/z tentative_formula formula_count mass error(ppm)
  139.0502 C6H7N2O2+ 3 139.0502 0.31
  164.0568 C3H8F4N2O+ 4 164.0567 0.14
  194.0673 C4H10F4N2O2+ 5 194.0673 -0.04
  195.0751 CH15N4O5S+ 4 195.0758 -3.41
  258.029 C7H8N5O4S+ 9 258.0292 -0.68
  326.0892 C10H15F3N5O2S+ 7 326.0893 -0.26
  444.0592 C16H13F3N5O5S+ 1 444.0584 1.86
  484.0716 C16H15F5N5O5S+ 1 484.0709 1.48
PK$NUM_PEAK: 8
PK$PEAK: m/z int. rel.int.
  139.0502 6224021 102
  164.0568 1831332.9 30
  194.0673 4354330.5 71
  195.0751 39557720 651
  258.029 1919219.8 31
  326.0892 4221937 69
  444.0592 12640788 208
  484.0716 60629232 999
//
