ACCESSION: MSBNK-Eawag-EQ371305
RECORD_TITLE: Malaoxon; LC-ESI-QFT; MS2; CE: 75; R=35000; [M+H]+
DATE: 2015.08.25
AUTHORS: Stravs M, Schymanski E, Singer H, Department of Environmental Chemistry, Eawag and Thomaidis N, University of Athens
LICENSE: CC BY
COPYRIGHT: Copyright (C) 2015 Eawag, Duebendorf, Switzerland
COMMENT: CONFIDENCE standard compound
COMMENT: EAWAG_UCHEM_ID 3713
CH$NAME: Malaoxon
CH$NAME: Diethyl 2-dimethoxyphosphorylsulfanylbutanedioate
CH$COMPOUND_CLASS: N/A; Environmental Standard
CH$FORMULA: C10H19O7PS
CH$EXACT_MASS: 314.05891
CH$SMILES: CCOC(=O)CC(C(=O)OCC)SP(=O)(OC)OC
CH$IUPAC: InChI=1S/C10H19O7PS/c1-5-16-9(11)7-8(10(12)17-6-2)19-18(13,14-3)15-4/h8H,5-7H2,1-4H3
CH$LINK: CAS 1634-78-2
CH$LINK: CHEBI CHEBI:6649
CH$LINK: KEGG C07498
CH$LINK: PUBCHEM CID:15415
CH$LINK: INCHIKEY WSORODGWGUUOBO-UHFFFAOYSA-N
CH$LINK: CHEMSPIDER 14674
CH$LINK: COMPTOX DTXSID9020790
AC$INSTRUMENT: Q Exactive Plus Orbitrap Thermo Scientific
AC$INSTRUMENT_TYPE: LC-ESI-QFT
AC$MASS_SPECTROMETRY: MS_TYPE MS2
AC$MASS_SPECTROMETRY: ION_MODE POSITIVE
AC$MASS_SPECTROMETRY: IONIZATION ESI
AC$MASS_SPECTROMETRY: FRAGMENTATION_MODE HCD
AC$MASS_SPECTROMETRY: COLLISION_ENERGY 75 (nominal)
AC$MASS_SPECTROMETRY: RESOLUTION 35000
AC$CHROMATOGRAPHY: COLUMN_NAME XBridge C18 3.5um, 2.1x50mm, Waters
AC$CHROMATOGRAPHY: FLOW_GRADIENT 90/10 at 0 min, 50/50 at 4 min, 5/95 at 17 min, 5/95 at 25 min, 90/10 at 25.1 min, 90/10 at 30 min
AC$CHROMATOGRAPHY: FLOW_RATE 200 ul/min
AC$CHROMATOGRAPHY: RETENTION_TIME 7.1 min
AC$CHROMATOGRAPHY: SOLVENT A water with 0.1% formic acid
AC$CHROMATOGRAPHY: SOLVENT B methanol with 0.1% formic acid
MS$FOCUSED_ION: BASE_PEAK 315.0654
MS$FOCUSED_ION: PRECURSOR_M/Z 315.0662
MS$FOCUSED_ION: PRECURSOR_TYPE [M+H]+
MS$DATA_PROCESSING: RECALIBRATE loess on assigned fragments and MS1
MS$DATA_PROCESSING: REANALYZE Peaks with additional N2/O included
MS$DATA_PROCESSING: WHOLE RMassBank 1.9.6
PK$SPLASH: splash10-0002-9100000000-3fa546574076e3dc68f3
PK$ANNOTATION: m/z tentative_formula formula_count mass error(ppm)
  53.0022 C3HO+ 1 53.0022 0.55
  55.0179 C3H3O+ 1 55.0178 0.34
  62.0184 C2H6S+ 1 62.0185 -0.85
  64.9787 H2O2P+ 1 64.9787 -0.04
  68.9793 C3HS+ 1 68.9793 -0.11
  71.0127 C3H3O2+ 1 71.0128 -0.22
  73.0283 C3H5O2+ 1 73.0284 -0.9
  78.9943 CH4O2P+ 1 78.9943 -0.28
  99.0076 C4H3O3+ 1 99.0077 -0.21
  102.9849 C3H3O2S+ 1 102.9848 0.32
  110.9664 CH4O2PS+ 1 110.9664 0.33
  113.0233 C5H5O3+ 1 113.0233 0.08
  117.0182 C4H5O4+ 1 117.0182 -0.21
  124.9821 C2H6O2PS+ 1 124.9821 0.37
  127.0155 C2H8O4P+ 1 127.0155 0.14
  128.977 CH6O3PS+ 1 128.977 -0.06
  142.9927 C2H8O3PS+ 1 142.9926 0.43
PK$NUM_PEAK: 17
PK$PEAK: m/z int. rel.int.
  53.0022 1309742 24
  55.0179 448820.3 8
  62.0184 109170.1 2
  64.9787 99554.8 1
  68.9793 162107.7 3
  71.0127 11520921 213
  73.0283 92976.9 1
  78.9943 1191444.2 22
  99.0076 53947448 999
  102.9849 163741.7 3
  110.9664 585881.8 10
  113.0233 559968.4 10
  117.0182 1221534 22
  124.9821 1673345.5 30
  127.0155 2381001.5 44
  128.977 2705823 50
  142.9927 2980953 55
//
