ACCESSION: MSBNK-Eawag-EQ00354502
RECORD_TITLE: Clodinafop-propargyl; LC-ESI-QFT; MS2; CE: 30%; R=15000; [M+H]+
DATE: 2024.06.14
AUTHORS: F. Jud [dtc], K. Arturi [dtc], J. Hollender [dtc], A. Dax [com]
LICENSE: CC BY-SA
COPYRIGHT: Copyright (C) Eawag 2024
COMMENT: CONFIDENCE standard compound
COMMENT: UCHEM_ID 3545
CH$NAME: Clodinafop-propargyl
CH$NAME: 2-(4-((5-Chloro-3-fluoro-2-pyridinyl)oxy)phenoxy)propanoic acid 2-propyn-1-yl ester
CH$NAME: prop-2-ynyl 2-[4-(5-chloro-3-fluoropyridin-2-yl)oxyphenoxy]propanoate
CH$COMPOUND_CLASS: N/A
CH$FORMULA: C17H13ClFNO4
CH$EXACT_MASS: 349.0517138
CH$SMILES: CC(C(=O)OCC#C)OC1=CC=C(C=C1)OC2=NC=C(C=C2F)Cl
CH$IUPAC: InChI=1S/C17H13ClFNO4/c1-3-8-22-17(21)11(2)23-13-4-6-14(7-5-13)24-16-15(19)9-12(18)10-20-16/h1,4-7,9-11H,8H2,2H3
CH$LINK: CAS 105512-06-9
CH$LINK: PUBCHEM CID:6916151
CH$LINK: INCHIKEY JBDHZKLJNAIJNC-UHFFFAOYSA-N
CH$LINK: CHEMSPIDER 5291880
AC$INSTRUMENT: Exploris 240 Thermo Scientific
AC$INSTRUMENT_TYPE: LC-ESI-QFT
AC$MASS_SPECTROMETRY: MS_TYPE MS2
AC$MASS_SPECTROMETRY: ION_MODE POSITIVE
AC$MASS_SPECTROMETRY: IONIZATION ESI
AC$MASS_SPECTROMETRY: FRAGMENTATION_MODE HCD
AC$MASS_SPECTROMETRY: COLLISION_ENERGY 30 % (nominal)
AC$MASS_SPECTROMETRY: RESOLUTION 15000
AC$MASS_SPECTROMETRY: MASS_RANGE_M/Z 50-378
AC$CHROMATOGRAPHY: COLUMN_NAME XBridge C18 3.5um, 2.1x50mm, Waters
AC$CHROMATOGRAPHY: FLOW_GRADIENT 90/10 at 0 min, 50/50 at 4 min, 5/95 at 17 min, 5/95 at 25 min, 90/10 at 25.1 min, 90/10 at 30 min
AC$CHROMATOGRAPHY: FLOW_RATE 200 uL/min
AC$CHROMATOGRAPHY: RETENTION_TIME 10.935 min
MS$FOCUSED_ION: BASE_PEAK 350.0585
MS$FOCUSED_ION: PRECURSOR_M/Z 350.059
MS$FOCUSED_ION: PRECURSOR_TYPE [M+H]+
MS$DATA_PROCESSING: RECALIBRATE loess on assigned fragments and MS1
MS$DATA_PROCESSING: REANALYZE Peaks with additional N2/O included
MS$DATA_PROCESSING: WHOLE RMassBank 3.15.1.1
PK$SPLASH: splash10-014i-0090000000-ac0d8c3f94c40f49b61f
PK$ANNOTATION: m/z tentative_formula formula_count mass error(ppm)
  91.0541 C7H7+ 1 91.0542 -1.34
  119.0491 C8H7O+ 2 119.0491 0
  238.0076 C11H6ClFNO2+ 2 238.0066 4.44
  238.0423 C15H7FO2+ 3 238.0425 -0.53
  239.0134 C11H7ClFNO2+ 4 239.0144 -3.97
  266.0375 C16H7FO3+ 3 266.0374 0.29
  350.0586 C17H14ClFNO4+ 1 350.059 -1.06
PK$NUM_PEAK: 7
PK$PEAK: m/z int. rel.int.
  91.0541 5840730 80
  119.0491 1583616.5 21
  238.0076 733902.5 10
  238.0423 8227304.5 112
  239.0134 1660531.6 22
  266.0375 72805272 999
  350.0586 1987611.8 27
//
