ACCESSION: MSBNK-Eawag-EQ01137108
RECORD_TITLE: Formothion; LC-ESI-QFT; MS2; CE: 150%; R=17500; [M+H]+
DATE: 2023.04.27
AUTHORS: B. Beck [dtc,com], J. Hollender [dtc]
LICENSE: CC BY-SA
COPYRIGHT: Copyright (C) Eawag 2023
COMMENT: CONFIDENCE standard compound
COMMENT: UCHEM_ID 11371
CH$NAME: Formothion
CH$NAME: 2-dimethoxyphosphinothioylsulfanyl-N-formyl-N-methylacetamide
CH$COMPOUND_CLASS: N/A; Environmental Standard
CH$FORMULA: C6H12NO4PS2
CH$EXACT_MASS: 256.9945
CH$SMILES: CN(C=O)C(=O)CSP(=S)(OC)OC
CH$IUPAC: InChI=1S/C6H12NO4PS2/c1-7(5-8)6(9)4-14-12(13,10-2)11-3/h5H,4H2,1-3H3
CH$LINK: CAS 2540-82-1
CH$LINK: CHEBI CHEBI:82126
CH$LINK: KEGG C18988
CH$LINK: PUBCHEM CID:17345
CH$LINK: INCHIKEY AIKKULXCBHRFOS-UHFFFAOYSA-N
CH$LINK: CHEMSPIDER 16412
AC$INSTRUMENT: Exploris 240 Orbitrap Thermo Scientific
AC$INSTRUMENT_TYPE: LC-ESI-QFT
AC$MASS_SPECTROMETRY: MS_TYPE MS2
AC$MASS_SPECTROMETRY: ION_MODE POSITIVE
AC$MASS_SPECTROMETRY: IONIZATION ESI
AC$MASS_SPECTROMETRY: FRAGMENTATION_MODE HCD
AC$MASS_SPECTROMETRY: COLLISION_ENERGY 150 % (nominal)
AC$MASS_SPECTROMETRY: RESOLUTION 17500
AC$MASS_SPECTROMETRY: MASS_RANGE_M/Z 50-284
AC$CHROMATOGRAPHY: COLUMN_NAME XBridge C18 3.5um, 2.1x50mm, Waters
AC$CHROMATOGRAPHY: FLOW_GRADIENT 90/10 at 0 min, 50/50 at 4 min, 5/95 at 17 min, 5/95 at 25 min, 90/10 at 25.1 min, 90/10 at 30 min
AC$CHROMATOGRAPHY: FLOW_RATE 200 uL/min
AC$CHROMATOGRAPHY: RETENTION_TIME 5.214 min
MS$FOCUSED_ION: BASE_PEAK 198.9647
MS$FOCUSED_ION: PRECURSOR_M/Z 258.0018
MS$FOCUSED_ION: PRECURSOR_TYPE [M+H]+
MS$DATA_PROCESSING: RECALIBRATE loess on assigned fragments and MS1
MS$DATA_PROCESSING: REANALYZE Peaks with additional N2/O included
MS$DATA_PROCESSING: WHOLE RMassBank 3.11.0.1
PK$SPLASH: splash10-01t9-9000000000-1ba15d42b45d2e709752
PK$ANNOTATION: m/z tentative_formula formula_count mass error(ppm)
  62.0185 C2H6S+ 1 62.0185 0.31
  62.9453 PS+ 1 62.9453 0.83
  62.9994 CH4OP+ 1 62.9994 -0.58
  64.9788 H2O2P+ 1 64.9787 1.49
  78.9943 CH4O2P+ 1 78.9943 -0.11
  81.01 CH6O2P+ 1 81.01 -0.4
  93.01 C2H6O2P+ 1 93.01 0.19
  97.0053 CH6O3P+ 1 97.0049 4.42
  142.9929 C2H8O3PS+ 1 142.9926 1.57
PK$NUM_PEAK: 9
PK$PEAK: m/z int. rel.int.
  62.0185 29340.8 89
  62.9453 20939.2 63
  62.9994 190250.1 578
  64.9788 21038.8 63
  78.9943 328620.5 999
  81.01 14618.3 44
  93.01 73127.3 222
  97.0053 12496.1 37
  142.9929 14420 43
//
