ACCESSION: MSBNK-Eawag-EQ417059
RECORD_TITLE: Metalaxyl-M-TP CGA108906; LC-ESI-QFT; MS2; CE: 180%; R=17500; [M-H]-
DATE: 2019.12.03
AUTHORS: K. Kiefer [dtc], J. Hollender [dtc], H. Singer [dtc], M. Stravs [com]
LICENSE: CC BY-SA
COPYRIGHT: Copyright (C) Eawag 2019
PUBLICATION: Kiefer, K.; Mueller, A.; Singer, H.; Hollender, J. New relevant pesticide transformation products in groundwater detected using target and suspect screening for agricultural and urban micropollutants with LC-HRMS. Water Research 2019, 165. DOI: https://doi.org/10.1016/j.watres.2019.114972
COMMENT: CONFIDENCE standard compound
COMMENT: UCHEM_ID 4170
CH$NAME: Metalaxyl-M-TP CGA108906
CH$NAME: 2-[1-carboxyethyl-(2-methoxyacetyl)amino]-3-methylbenzoic acid
CH$COMPOUND_CLASS: N/A; Environmental Standard
CH$FORMULA: C14H17NO6
CH$EXACT_MASS: 295.1056
CH$SMILES: COCC(=O)N(C(C)C(O)=O)C1=C(C=CC=C1C)C(O)=O
CH$IUPAC: InChI=1S/C14H17NO6/c1-8-5-4-6-10(14(19)20)12(8)15(9(2)13(17)18)11(16)7-21-3/h4-6,9H,7H2,1-3H3,(H,17,18)(H,19,20)
CH$LINK: PUBCHEM CID:117065479
CH$LINK: INCHIKEY WFTHOCDLKYPFJX-UHFFFAOYSA-N
CH$LINK: CHEMSPIDER 48062958
AC$INSTRUMENT: Q Exactive Plus Orbitrap Thermo Scientific
AC$INSTRUMENT_TYPE: LC-ESI-QFT
AC$MASS_SPECTROMETRY: MS_TYPE MS2
AC$MASS_SPECTROMETRY: ION_MODE NEGATIVE
AC$MASS_SPECTROMETRY: IONIZATION ESI
AC$MASS_SPECTROMETRY: FRAGMENTATION_MODE HCD
AC$MASS_SPECTROMETRY: COLLISION_ENERGY 180 % (nominal)
AC$MASS_SPECTROMETRY: RESOLUTION 17500
AC$CHROMATOGRAPHY: COLUMN_NAME XBridge C18 3.5um, 2.1x50mm, Waters
AC$CHROMATOGRAPHY: FLOW_GRADIENT 90/10 at 0 min, 50/50 at 4 min, 5/95 at 17 min, 5/95 at 25 min, 90/10 at 25.1 min, 90/10 at 30 min
AC$CHROMATOGRAPHY: FLOW_RATE 200 uL/min
AC$CHROMATOGRAPHY: RETENTION_TIME 5.743 min
AC$CHROMATOGRAPHY: SOLVENT A water with 0.1% formic acid
AC$CHROMATOGRAPHY: SOLVENT B MeOH with 0.1% formic acid
MS$FOCUSED_ION: BASE_PEAK 294.0983
MS$FOCUSED_ION: PRECURSOR_M/Z 294.0983
MS$FOCUSED_ION: PRECURSOR_TYPE [M-H]-
MS$DATA_PROCESSING: RECALIBRATE loess on assigned fragments and MS1
MS$DATA_PROCESSING: REANALYZE Peaks with additional N2/O included
MS$DATA_PROCESSING: WHOLE RMassBank 2.99.1
PK$SPLASH: splash10-0aor-9800000000-ca35e90a2ea89c0d71be
PK$ANNOTATION: m/z tentative_formula formula_count mass error(ppm)
  55.0188 C3H3O- 1 55.0189 -1.95
  116.0505 C8H6N- 1 116.0506 -0.47
PK$NUM_PEAK: 2
PK$PEAK: m/z int. rel.int.
  55.0188 143353.5 999
  116.0505 137632 959
//
