ACCESSION: MSBNK-Eawag-EQ500402
RECORD_TITLE: Phenylphosphonic Acid; LC-ESI-QFT; MS2; CE: 30%; R=15000; [M+H]+
DATE: 2021.03.16
AUTHORS: K. Kiefer [dtc], J. Hollender [dtc], H. Singer [dtc], B. Lauper [com]
LICENSE: CC BY-SA
COPYRIGHT: Copyright (C) Eawag 2019
PUBLICATION: Kiefer, K., Du, L., Singer, H., Hollender, J.. Identification of LC-HRMS Nontarget Signals in Groundwater After Source Related Prioritization. Water Research 2021, 196. DOI: https://doi.org/10.1016/j.watres.2021.116994
COMMENT: CONFIDENCE standard compound
COMMENT: UCHEM_ID 5004
CH$NAME: Phenylphosphonic Acid
CH$NAME: Benzenephosphonic acid
CH$COMPOUND_CLASS: N/A; Environmental Standard
CH$FORMULA: C6H7O3P
CH$EXACT_MASS: 158.0133
CH$SMILES: C1=CC=C(C=C1)P(=O)(O)O
CH$IUPAC: InChI=1S/C6H7O3P/c7-10(8,9)6-4-2-1-3-5-6/h1-5H,(H2,7,8,9)
CH$LINK: CAS 1571-33-1
CH$LINK: PUBCHEM CID:15295
CH$LINK: INCHIKEY QLZHNIAADXEJJP-UHFFFAOYSA-N
CH$LINK: CHEMSPIDER 14560
CH$LINK: COMPTOX DTXSID2044399
AC$INSTRUMENT: Orbitrap Exploris 240 Thermo Scientific
AC$INSTRUMENT_TYPE: LC-ESI-QFT
AC$MASS_SPECTROMETRY: MS_TYPE MS2
AC$MASS_SPECTROMETRY: ION_MODE POSITIVE
AC$MASS_SPECTROMETRY: IONIZATION ESI
AC$MASS_SPECTROMETRY: FRAGMENTATION_MODE HCD
AC$MASS_SPECTROMETRY: COLLISION_ENERGY 30 % (nominal)
AC$MASS_SPECTROMETRY: RESOLUTION 15000
AC$MASS_SPECTROMETRY: MASS_RANGE_M/Z NA-NA
AC$CHROMATOGRAPHY: COLUMN_NAME Atlantis C18 3um, 3.0x150mm, Waters
AC$CHROMATOGRAPHY: FLOW_GRADIENT 100/0 at 0 min, 100/0 at 1.5 min, 5/95 at 18.5 min, 5/95 at 28.5 min, 100/0 at 29 min, 100/0 at 33 min
AC$CHROMATOGRAPHY: FLOW_RATE 300 uL/min
AC$CHROMATOGRAPHY: RETENTION_TIME 9.024 min
MS$FOCUSED_ION: BASE_PEAK 159.0205
MS$FOCUSED_ION: PRECURSOR_M/Z 159.0206
MS$FOCUSED_ION: PRECURSOR_TYPE [M+H]+
MS$FOCUSED_ION: PRECURSOR_INTENSITY 40454812
MS$DATA_PROCESSING: RECALIBRATE loess on assigned fragments and MS1
MS$DATA_PROCESSING: REANALYZE Peaks with additional N2/O included
MS$DATA_PROCESSING: WHOLE RMassBank 2.99.4
PK$SPLASH: splash10-0a4i-0900000000-2d3afc75e5adab5398bc
PK$ANNOTATION: m/z tentative_formula formula_count mass error(ppm)
  79.0542 C6H7+ 1 79.0542 0.1
  141.0102 C6H6O2P+ 1 141.01 1.33
  159.0205 C6H8O3P+ 1 159.0206 -0.33
PK$NUM_PEAK: 4
PK$PEAK: m/z int. rel.int.
  79.0542 612626.9 21
  141.0102 1051539.4 36
  159.0205 28794258 999
  173.0368 68953.2 2
//
