ACCESSION: MSBNK-Eawag-EQ334957
RECORD_TITLE: Repaglinide; LC-ESI-QFT; MS2; CE: 120; R=35000; [M-H]-
DATE: 2015.08.26
AUTHORS: Beck B, Stravs M, Schymanski E, Singer H, Department of Environmental Chemistry, Eawag
LICENSE: CC BY
COPYRIGHT: Copyright (C) 2015 Eawag, Duebendorf, Switzerland
COMMENT: CONFIDENCE standard compound
COMMENT: EAWAG_UCHEM_ID 3349
CH$NAME: Repaglinide
CH$NAME: 2-ethoxy-4-[2-[[3-methyl-1-(2-piperidin-1-ylphenyl)butyl]amino]-2-oxoethyl]benzoic acid
CH$COMPOUND_CLASS: N/A; Environmental Standard
CH$FORMULA: C27H36N2O4
CH$EXACT_MASS: 452.26751
CH$SMILES: CCOC1=C(C=CC(=C1)CC(=O)NC(CC(C)C)C2=CC=CC=C2N3CCCCC3)C(=O)O
CH$IUPAC: InChI=1S/C27H36N2O4/c1-4-33-25-17-20(12-13-22(25)27(31)32)18-26(30)28-23(16-19(2)3)21-10-6-7-11-24(21)29-14-8-5-9-15-29/h6-7,10-13,17,19,23H,4-5,8-9,14-16,18H2,1-3H3,(H,28,30)(H,31,32)
CH$LINK: PUBCHEM CID:4547
CH$LINK: INCHIKEY FAEKWTJYAYMJKF-UHFFFAOYSA-N
CH$LINK: CHEMSPIDER 4388
AC$INSTRUMENT: Q Exactive Plus Orbitrap Thermo Scientific
AC$INSTRUMENT_TYPE: LC-ESI-QFT
AC$MASS_SPECTROMETRY: MS_TYPE MS2
AC$MASS_SPECTROMETRY: ION_MODE NEGATIVE
AC$MASS_SPECTROMETRY: IONIZATION ESI
AC$MASS_SPECTROMETRY: FRAGMENTATION_MODE HCD
AC$MASS_SPECTROMETRY: COLLISION_ENERGY 120 (nominal)
AC$MASS_SPECTROMETRY: RESOLUTION 35000
AC$CHROMATOGRAPHY: COLUMN_NAME XBridge C18 3.5um, 2.1x50mm, Waters
AC$CHROMATOGRAPHY: FLOW_GRADIENT 90/10 at 0 min, 50/50 at 4 min, 5/95 at 17 min, 5/95 at 25 min, 90/10 at 25.1 min, 90/10 at 30 min
AC$CHROMATOGRAPHY: FLOW_RATE 200 ul/min
AC$CHROMATOGRAPHY: RETENTION_TIME 9.9 min
AC$CHROMATOGRAPHY: SOLVENT A water with 0.1% formic acid
AC$CHROMATOGRAPHY: SOLVENT B methanol with 0.1% formic acid
MS$FOCUSED_ION: BASE_PEAK 497.2656
MS$FOCUSED_ION: PRECURSOR_M/Z 451.2602
MS$FOCUSED_ION: PRECURSOR_TYPE [M-H]-
MS$DATA_PROCESSING: RECALIBRATE loess on assigned fragments and MS1
MS$DATA_PROCESSING: REANALYZE Peaks with additional N2/O included
MS$DATA_PROCESSING: WHOLE RMassBank 1.9.6
PK$SPLASH: splash10-0avi-5900000000-b22a799aee995af66262
PK$ANNOTATION: m/z tentative_formula formula_count mass error(ppm)
  65.0397 C5H5- 1 65.0397 0.71
  67.019 C4H3O- 1 67.0189 0.47
  77.0397 C6H5- 1 77.0397 0.86
  79.0554 C6H7- 1 79.0553 0.46
  82.0061 C4H2O2- 1 82.006 0.51
  91.019 C6H3O- 1 91.0189 0.57
  92.0268 C6H4O- 1 92.0268 0.18
  93.0345 C6H5O- 1 93.0346 -0.41
  95.0139 C5H3O2- 1 95.0139 0.07
  95.0502 C6H7O- 1 95.0502 -0.3
  104.0268 C7H4O- 1 104.0268 0.06
  106.0424 C7H6O- 1 106.0424 0.25
  107.0503 C7H7O- 1 107.0502 0.39
  108.0217 C6H4O2- 1 108.0217 0.3
  109.0295 C6H5O2- 1 109.0295 -0.12
  120.0216 C7H4O2- 1 120.0217 -0.48
  121.0296 C7H5O2- 1 121.0295 0.47
  136.0165 C7H4O3- 1 136.0166 -0.53
  137.0244 C7H5O3- 1 137.0244 0.02
PK$NUM_PEAK: 19
PK$PEAK: m/z int. rel.int.
  65.0397 1477175.9 842
  67.019 302078.8 172
  77.0397 4441.4 2
  79.0554 646731.1 369
  82.0061 35625.1 20
  91.019 8359 4
  92.0268 344100.9 196
  93.0345 17455.7 9
  95.0139 68843.7 39
  95.0502 87614.5 49
  104.0268 5416.9 3
  106.0424 1375731.6 785
  107.0503 1060770 605
  108.0217 164684 93
  109.0295 34552.1 19
  120.0216 18300.6 10
  121.0296 1750603.2 999
  136.0165 30774.4 17
  137.0244 85758.8 48
//
