ACCESSION: MSBNK-Eawag-EA023010
RECORD_TITLE: Benzophenone-3; LC-ESI-ITFT; MS2; CE: 45%; R=15000; [M+H]+
DATE: 2014.01.14
AUTHORS: Stravs M, Schymanski E, Singer H, Department of Environmental Chemistry, Eawag
LICENSE: CC BY
COPYRIGHT: Copyright (C) 2012 Eawag, Duebendorf, Switzerland
COMMENT: CONFIDENCE standard compound
COMMENT: EAWAG_UCHEM_ID 230
CH$NAME: Benzophenone-3
CH$NAME: 2-Hydroxy-4-methoxybenzophenone
CH$NAME: (2-hydroxy-4-methoxy-phenyl)-phenyl-methanone
CH$COMPOUND_CLASS: N/A; Environmental Standard
CH$FORMULA: C14H12O3
CH$EXACT_MASS: 228.0786
CH$SMILES: c1(C(c2ccccc2)=O)c(cc(OC)cc1)O
CH$IUPAC: InChI=1S/C14H12O3/c1-17-11-7-8-12(13(15)9-11)14(16)10-5-3-2-4-6-10/h2-9,15H,1H3
CH$LINK: CAS 131-57-7
CH$LINK: KEGG C14285
CH$LINK: PUBCHEM CID:4632
CH$LINK: INCHIKEY DXGLGDHPHMLXJC-UHFFFAOYSA-N
CH$LINK: CHEMSPIDER 4471
CH$LINK: COMPTOX DTXSID3022405
AC$INSTRUMENT: LTQ Orbitrap XL Thermo Scientific
AC$INSTRUMENT_TYPE: LC-ESI-ITFT
AC$MASS_SPECTROMETRY: MS_TYPE MS2
AC$MASS_SPECTROMETRY: ION_MODE POSITIVE
AC$MASS_SPECTROMETRY: IONIZATION ESI
AC$MASS_SPECTROMETRY: FRAGMENTATION_MODE HCD
AC$MASS_SPECTROMETRY: COLLISION_ENERGY 45 % (nominal)
AC$MASS_SPECTROMETRY: RESOLUTION 15000
AC$CHROMATOGRAPHY: COLUMN_NAME XBridge C18 3.5um, 2.1x50mm, Waters
AC$CHROMATOGRAPHY: FLOW_GRADIENT 90/10 at 0 min, 50/50 at 4 min, 5/95 at 17 min, 5/95 at 25 min, 90/10 at 25.1 min, 90/10 at 30 min
AC$CHROMATOGRAPHY: FLOW_RATE 200 ul/min
AC$CHROMATOGRAPHY: RETENTION_TIME 12.1 min
AC$CHROMATOGRAPHY: SOLVENT A water with 0.1% formic acid
AC$CHROMATOGRAPHY: SOLVENT B methanol with 0.1% formic acid
MS$FOCUSED_ION: BASE_PEAK 229.0859
MS$FOCUSED_ION: PRECURSOR_M/Z 229.0859
MS$FOCUSED_ION: PRECURSOR_TYPE [M+H]+
MS$DATA_PROCESSING: DEPROFILE Spline
MS$DATA_PROCESSING: RECALIBRATE loess on assigned fragments and MS1
MS$DATA_PROCESSING: REANALYZE Peaks with additional N2/O included
MS$DATA_PROCESSING: WHOLE RMassBank 1.3.1
PK$SPLASH: splash10-0udi-0910000000-5bd3907cf283f3acd696
PK$ANNOTATION: m/z tentative_formula formula_count mass error(ppm)
  53.0385 C4H5+ 1 53.0386 -0.88
  77.0385 C6H5+ 1 77.0386 -0.86
  95.0492 C6H7O+ 1 95.0491 0.3
  105.0335 C7H5O+ 1 105.0335 0.18
  151.039 C8H7O3+ 1 151.039 0.06
  211.0757 C14H11O2+ 1 211.0754 1.87
  229.0858 C14H13O3+ 1 229.0859 -0.35
PK$NUM_PEAK: 7
PK$PEAK: m/z int. rel.int.
  53.0385 70828.7 1
  77.0385 260193.6 3
  95.0492 105745.7 1
  105.0335 27747344.6 422
  151.039 65578818.2 999
  211.0757 95759.6 1
  229.0858 16055190.5 244
//
