ACCESSION: MSBNK-Eawag-EQ01136201
RECORD_TITLE: Etrimfos; LC-ESI-QFT; MS2; CE: 15%; R=17500; [M+H]+
DATE: 2023.04.27
AUTHORS: B. Beck [dtc,com], J. Hollender [dtc]
LICENSE: CC BY-SA
COPYRIGHT: Copyright (C) Eawag 2023
COMMENT: CONFIDENCE standard compound
COMMENT: UCHEM_ID 11362
CH$NAME: Etrimfos
CH$NAME: (6-ethoxy-2-ethylpyrimidin-4-yl)oxy-dimethoxy-sulfanylidene-lambda5-phosphane
CH$COMPOUND_CLASS: N/A; Environmental Standard
CH$FORMULA: C10H17N2O4PS
CH$EXACT_MASS: 292.0647
CH$SMILES: CCC1=NC(=CC(=N1)OP(=S)(OC)OC)OCC
CH$IUPAC: InChI=1S/C10H17N2O4PS/c1-5-8-11-9(15-6-2)7-10(12-8)16-17(18,13-3)14-4/h7H,5-6H2,1-4H3
CH$LINK: CAS 38260-54-7
CH$LINK: CHEBI CHEBI:82124
CH$LINK: KEGG C18985
CH$LINK: PUBCHEM CID:37995
CH$LINK: INCHIKEY FGIWFCGDPUIBEZ-UHFFFAOYSA-N
CH$LINK: CHEMSPIDER 34830
AC$INSTRUMENT: Exploris 240 Orbitrap Thermo Scientific
AC$INSTRUMENT_TYPE: LC-ESI-QFT
AC$MASS_SPECTROMETRY: MS_TYPE MS2
AC$MASS_SPECTROMETRY: ION_MODE POSITIVE
AC$MASS_SPECTROMETRY: IONIZATION ESI
AC$MASS_SPECTROMETRY: FRAGMENTATION_MODE HCD
AC$MASS_SPECTROMETRY: COLLISION_ENERGY 15 % (nominal)
AC$MASS_SPECTROMETRY: RESOLUTION 17500
AC$MASS_SPECTROMETRY: MASS_RANGE_M/Z 50-320
AC$CHROMATOGRAPHY: COLUMN_NAME XBridge C18 3.5um, 2.1x50mm, Waters
AC$CHROMATOGRAPHY: FLOW_GRADIENT 90/10 at 0 min, 50/50 at 4 min, 5/95 at 17 min, 5/95 at 25 min, 90/10 at 25.1 min, 90/10 at 30 min
AC$CHROMATOGRAPHY: FLOW_RATE 200 uL/min
AC$CHROMATOGRAPHY: RETENTION_TIME 10.931 min
MS$FOCUSED_ION: BASE_PEAK 293.0719
MS$FOCUSED_ION: PRECURSOR_M/Z 293.0719
MS$FOCUSED_ION: PRECURSOR_TYPE [M+H]+
MS$DATA_PROCESSING: RECALIBRATE loess on assigned fragments and MS1
MS$DATA_PROCESSING: REANALYZE Peaks with additional N2/O included
MS$DATA_PROCESSING: WHOLE RMassBank 3.11.0.1
PK$SPLASH: splash10-0006-0090000000-b7ffd5d7e7e7b5a4707c
PK$ANNOTATION: m/z tentative_formula formula_count mass error(ppm)
  265.0414 C8H14N2O4PS+ 1 265.0406 2.82
  293.0721 C10H18N2O4PS+ 1 293.0719 0.63
PK$NUM_PEAK: 2
PK$PEAK: m/z int. rel.int.
  265.0414 16756065 18
  293.0721 914788416 999
//
