ACCESSION: MSBNK-Eawag-EA293708
RECORD_TITLE: Methiocarb; LC-ESI-ITFT; MS2; CE: 15%; R=15000; [M+H]+
DATE: 2014.01.14
AUTHORS: Stravs M, Schymanski E, Singer H, Department of Environmental Chemistry, Eawag
LICENSE: CC BY
COPYRIGHT: Copyright (C) 2012 Eawag, Duebendorf, Switzerland
COMMENT: CONFIDENCE standard compound
COMMENT: EAWAG_UCHEM_ID 2937
CH$NAME: Methiocarb
CH$NAME: (3,5-dimethyl-4-methylsulfanyl-phenyl) N-methylcarbamate
CH$COMPOUND_CLASS: N/A; Environmental Standard
CH$FORMULA: C11H15NO2S
CH$EXACT_MASS: 225.0823
CH$SMILES: O=C(Oc1cc(c(SC)c(c1)C)C)NC
CH$IUPAC: InChI=1S/C11H15NO2S/c1-7-5-9(14-11(13)12-3)6-8(2)10(7)15-4/h5-6H,1-4H3,(H,12,13)
CH$LINK: CAS 2032-65-7
CH$LINK: CHEBI CHEBI:38508
CH$LINK: PUBCHEM CID:16248
CH$LINK: INCHIKEY YFBPRJGDJKVWAH-UHFFFAOYSA-N
CH$LINK: CHEMSPIDER 15417
CH$LINK: COMPTOX DTXSID3032626
AC$INSTRUMENT: LTQ Orbitrap XL Thermo Scientific
AC$INSTRUMENT_TYPE: LC-ESI-ITFT
AC$MASS_SPECTROMETRY: MS_TYPE MS2
AC$MASS_SPECTROMETRY: ION_MODE POSITIVE
AC$MASS_SPECTROMETRY: IONIZATION ESI
AC$MASS_SPECTROMETRY: FRAGMENTATION_MODE HCD
AC$MASS_SPECTROMETRY: COLLISION_ENERGY 15 % (nominal)
AC$MASS_SPECTROMETRY: RESOLUTION 15000
AC$CHROMATOGRAPHY: COLUMN_NAME XBridge C18 3.5um, 2.1x50mm, Waters
AC$CHROMATOGRAPHY: FLOW_GRADIENT 90/10 at 0 min, 50/50 at 4 min, 5/95 at 17 min, 5/95 at 25 min, 90/10 at 25.1 min, 90/10 at 30 min
AC$CHROMATOGRAPHY: FLOW_RATE 200 ul/min
AC$CHROMATOGRAPHY: RETENTION_TIME 10.4 min
AC$CHROMATOGRAPHY: SOLVENT A water with 0.1% formic acid
AC$CHROMATOGRAPHY: SOLVENT B methanol with 0.1% formic acid
MS$FOCUSED_ION: BASE_PEAK 226.0902
MS$FOCUSED_ION: PRECURSOR_M/Z 226.0896
MS$FOCUSED_ION: PRECURSOR_TYPE [M+H]+
MS$DATA_PROCESSING: DEPROFILE Spline
MS$DATA_PROCESSING: RECALIBRATE loess on assigned fragments and MS1
MS$DATA_PROCESSING: REANALYZE Peaks with additional N2/O included
MS$DATA_PROCESSING: WHOLE RMassBank 1.3.1
PK$SPLASH: splash10-014i-0900000000-6a0d00a4d095ad4b111d
PK$ANNOTATION: m/z tentative_formula formula_count mass error(ppm)
  91.0545 C7H7+ 1 91.0542 2.78
  93.07 C7H9+ 1 93.0699 1
  121.0649 C8H9O+ 1 121.0648 0.48
  122.0725 C8H10O+ 1 122.0726 -0.95
  123.0804 C8H11O+ 1 123.0804 -0.42
  154.0443 C8H10OS+ 1 154.0447 -2.77
  169.0682 C9H13OS+ 1 169.0682 -0.07
  226.0897 C11H16NO2S+ 1 226.0896 0.33
PK$NUM_PEAK: 8
PK$PEAK: m/z int. rel.int.
  91.0545 51753.8 1
  93.07 42725.6 1
  121.0649 5565130.2 130
  122.0725 306574.1 7
  123.0804 71842.2 1
  154.0443 44656.1 1
  169.0682 42552628.9 999
  226.0897 3276876.6 76
//
