ACCESSION: MSBNK-Eawag-EA024861
RECORD_TITLE: N4-Acetylsulfadiazine; LC-ESI-ITFT; MS2; CE: 60%; R=15000; [M-H]-
DATE: 2014.01.14
AUTHORS: Stravs M, Schymanski E, Singer H, Department of Environmental Chemistry, Eawag
LICENSE: CC BY
COPYRIGHT: Copyright (C) 2012 Eawag, Duebendorf, Switzerland
COMMENT: CONFIDENCE standard compound
COMMENT: EAWAG_UCHEM_ID 248
CH$NAME: N4-Acetylsulfadiazine
CH$NAME: N-[4-(2-pyrimidinylsulfamoyl)phenyl]acetamide
CH$COMPOUND_CLASS: N/A; Environmental Standard
CH$FORMULA: C12H12N4O3S
CH$EXACT_MASS: 292.0630
CH$SMILES: c1nc(NS(c2ccc(cc2)NC(C)=O)(=O)=O)ncc1
CH$IUPAC: InChI=1S/C12H12N4O3S/c1-9(17)15-10-3-5-11(6-4-10)20(18,19)16-12-13-7-2-8-14-12/h2-8H,1H3,(H,15,17)(H,13,14,16)
CH$LINK: CAS 127-74-2
CH$LINK: PUBCHEM CID:64952
CH$LINK: INCHIKEY NJIZUWGMNCUKGU-UHFFFAOYSA-N
CH$LINK: CHEMSPIDER 58478
CH$LINK: COMPTOX DTXSID00155362
AC$INSTRUMENT: LTQ Orbitrap XL Thermo Scientific
AC$INSTRUMENT_TYPE: LC-ESI-ITFT
AC$MASS_SPECTROMETRY: MS_TYPE MS2
AC$MASS_SPECTROMETRY: ION_MODE NEGATIVE
AC$MASS_SPECTROMETRY: IONIZATION ESI
AC$MASS_SPECTROMETRY: FRAGMENTATION_MODE HCD
AC$MASS_SPECTROMETRY: COLLISION_ENERGY 60 % (nominal)
AC$MASS_SPECTROMETRY: RESOLUTION 15000
AC$CHROMATOGRAPHY: COLUMN_NAME XBridge C18 3.5um, 2.1x50mm, Waters
AC$CHROMATOGRAPHY: FLOW_GRADIENT 90/10 at 0 min, 50/50 at 4 min, 5/95 at 17 min, 5/95 at 25 min, 90/10 at 25.1 min, 90/10 at 30 min
AC$CHROMATOGRAPHY: FLOW_RATE 200 ul/min
AC$CHROMATOGRAPHY: RETENTION_TIME 3.8 min
AC$CHROMATOGRAPHY: SOLVENT A water with 0.1% formic acid
AC$CHROMATOGRAPHY: SOLVENT B methanol with 0.1% formic acid
MS$FOCUSED_ION: BASE_PEAK 291.0567
MS$FOCUSED_ION: PRECURSOR_M/Z 291.0557
MS$FOCUSED_ION: PRECURSOR_TYPE [M-H]-
MS$DATA_PROCESSING: DEPROFILE Spline
MS$DATA_PROCESSING: RECALIBRATE loess on assigned fragments and MS1
MS$DATA_PROCESSING: REANALYZE Peaks with additional N2/O included
MS$DATA_PROCESSING: WHOLE RMassBank 1.3.1
PK$SPLASH: splash10-001i-3920000000-dfbbdba0a22955e5d7ab
PK$ANNOTATION: m/z tentative_formula formula_count mass error(ppm)
  92.0254 C4H2N3- 1 92.0254 -0.01
  92.0504 C6H6N- 1 92.0506 -1.44
  94.0411 C4H4N3- 1 94.0411 0.63
  134.0613 C8H8NO- 1 134.0611 1.14
  184.0752 C10H8N4- 1 184.0754 -1.49
  227.0937 C12H11N4O- 1 227.0938 -0.64
PK$NUM_PEAK: 6
PK$PEAK: m/z int. rel.int.
  92.0254 5709.7 425
  92.0504 2320.2 173
  94.0411 2643.9 197
  134.0613 13396.2 999
  184.0752 10685.5 796
  227.0937 7321.2 545
//
