ACCESSION: MSBNK-Eawag-EA066704
RECORD_TITLE: Simeton; LC-ESI-ITFT; MS2; CE: 45%; R=7500; [M+H]+
DATE: 2014.01.14
AUTHORS: Stravs M, Schymanski E, Singer H, Department of Environmental Chemistry, Eawag
LICENSE: CC BY
COPYRIGHT: Copyright (C) 2012 Eawag, Duebendorf, Switzerland
COMMENT: CONFIDENCE standard compound
COMMENT: EAWAG_UCHEM_ID 667
CH$NAME: Simeton
CH$NAME: 2-N,4-N-diethyl-6-methoxy-1,3,5-triazine-2,4-diamine
CH$COMPOUND_CLASS: N/A; Environmental Standard
CH$FORMULA: C8H15N5O
CH$EXACT_MASS: 197.1271
CH$SMILES: c1(nc(nc(n1)OC)NCC)NCC
CH$IUPAC: InChI=1S/C8H15N5O/c1-4-9-6-11-7(10-5-2)13-8(12-6)14-3/h4-5H2,1-3H3,(H2,9,10,11,12,13)
CH$LINK: CAS 673-04-1
CH$LINK: CHEBI CHEBI:30264
CH$LINK: PUBCHEM CID:12654
CH$LINK: INCHIKEY HKAMKLBXTLTVCN-UHFFFAOYSA-N
CH$LINK: CHEMSPIDER 12133
CH$LINK: COMPTOX DTXSID9042388
AC$INSTRUMENT: LTQ Orbitrap XL Thermo Scientific
AC$INSTRUMENT_TYPE: LC-ESI-ITFT
AC$MASS_SPECTROMETRY: MS_TYPE MS2
AC$MASS_SPECTROMETRY: ION_MODE POSITIVE
AC$MASS_SPECTROMETRY: IONIZATION ESI
AC$MASS_SPECTROMETRY: FRAGMENTATION_MODE HCD
AC$MASS_SPECTROMETRY: COLLISION_ENERGY 45 % (nominal)
AC$MASS_SPECTROMETRY: RESOLUTION 7500
AC$CHROMATOGRAPHY: COLUMN_NAME XBridge C18 3.5um, 2.1x50mm, Waters
AC$CHROMATOGRAPHY: FLOW_GRADIENT 90/10 at 0 min, 50/50 at 4 min, 5/95 at 17 min, 5/95 at 25 min, 90/10 at 25.1 min, 90/10 at 30 min
AC$CHROMATOGRAPHY: FLOW_RATE 200 ul/min
AC$CHROMATOGRAPHY: RETENTION_TIME 4.9 min
AC$CHROMATOGRAPHY: SOLVENT A water with 0.1% formic acid
AC$CHROMATOGRAPHY: SOLVENT B methanol with 0.1% formic acid
MS$FOCUSED_ION: BASE_PEAK 198.1352
MS$FOCUSED_ION: PRECURSOR_M/Z 198.1349
MS$FOCUSED_ION: PRECURSOR_TYPE [M+H]+
MS$DATA_PROCESSING: DEPROFILE Spline
MS$DATA_PROCESSING: RECALIBRATE loess on assigned fragments and MS1
MS$DATA_PROCESSING: REANALYZE Peaks with additional N2/O included
MS$DATA_PROCESSING: WHOLE RMassBank 1.3.1
PK$SPLASH: splash10-0002-0900000000-77b87697913682ee6ba0
PK$ANNOTATION: m/z tentative_formula formula_count mass error(ppm)
  57.0446 C2H5N2+ 1 57.0447 -2.18
  68.0243 C2H2N3+ 1 68.0243 0.24
  69.0084 C2HN2O+ 1 69.0083 0.59
  71.0604 C3H7N2+ 1 71.0604 -0.21
  85.0761 C4H9N2+ 1 85.076 0.88
  96.0557 C4H6N3+ 1 96.0556 0.48
  97.0395 C4H5N2O+ 1 97.0396 -1.54
  100.0506 C3H6N3O+ 1 100.0505 0.22
  110.0715 C5H8N3+ 1 110.0713 2.15
  114.0663 C4H8N3O+ 1 114.0662 0.63
  124.087 C6H10N3+ 1 124.0869 0.21
  128.0819 C5H10N3O+ 1 128.0818 0.4
  142.0973 C6H12N3O+ 1 142.0975 -1.54
  166.1087 C7H12N5+ 1 166.1087 -0.01
  170.1037 C6H12N5O+ 1 170.1036 0.43
  173.0218 C8H3N3O2+ 1 173.022 -1.09
  196.1202 C8H14N5O+ 1 196.1193 4.45
  198.1351 C8H16N5O+ 1 198.1349 0.67
PK$NUM_PEAK: 18
PK$PEAK: m/z int. rel.int.
  57.0446 82618.3 6
  68.0243 110761.7 8
  69.0084 128511 9
  71.0604 157828.9 11
  85.0761 133213.3 10
  96.0557 301289.1 22
  97.0395 80288.4 6
  100.0506 227669.4 17
  110.0715 35861.1 2
  114.0663 481165.2 36
  124.087 1170379.9 88
  128.0819 1154447.6 86
  142.0973 44240.2 3
  166.1087 124982.4 9
  170.1037 703905.8 53
  173.0218 17467.1 1
  196.1202 22184.5 1
  198.1351 13257674.1 999
//
