ACCESSION: MSBNK-Eawag-EQ315403
RECORD_TITLE: Triethyl phosphate; LC-ESI-QFT; MS2; CE: 45; R=35000; [M+H]+
DATE: 2015.08.25
AUTHORS: Beck B, Stravs M, Schymanski E, Singer H, Department of Environmental Chemistry, Eawag
LICENSE: CC BY
COPYRIGHT: Copyright (C) 2015 Eawag, Duebendorf, Switzerland
COMMENT: CONFIDENCE standard compound
COMMENT: EAWAG_UCHEM_ID 3154
CH$NAME: Triethyl phosphate
CH$NAME: TEP
CH$NAME: Phosphoric acid triethyl ester
CH$COMPOUND_CLASS: N/A; Environmental Standard
CH$FORMULA: C6H15O4P
CH$EXACT_MASS: 182.07080
CH$SMILES: O=P(OCC)(OCC)OCC
CH$IUPAC: InChI=1S/C6H15O4P/c1-4-8-11(7,9-5-2)10-6-3/h4-6H2,1-3H3
CH$LINK: CAS 78-40-0
CH$LINK: PUBCHEM CID:6535
CH$LINK: INCHIKEY DQWPFSLDHJDLRL-UHFFFAOYSA-N
CH$LINK: CHEMSPIDER 6287
CH$LINK: COMPTOX DTXSID8026228
AC$INSTRUMENT: Q Exactive Orbitrap Thermo Scientific
AC$INSTRUMENT_TYPE: LC-ESI-QFT
AC$MASS_SPECTROMETRY: MS_TYPE MS2
AC$MASS_SPECTROMETRY: ION_MODE POSITIVE
AC$MASS_SPECTROMETRY: IONIZATION ESI
AC$MASS_SPECTROMETRY: FRAGMENTATION_MODE HCD
AC$MASS_SPECTROMETRY: COLLISION_ENERGY 45 (nominal)
AC$MASS_SPECTROMETRY: RESOLUTION 35000
AC$CHROMATOGRAPHY: COLUMN_NAME XBridge C18 3.5um, 2.1x50mm, Waters
AC$CHROMATOGRAPHY: FLOW_GRADIENT 90/10 at 0 min, 50/50 at 4 min, 5/95 at 17 min, 5/95 at 25 min, 90/10 at 25.1 min, 90/10 at 30 min
AC$CHROMATOGRAPHY: FLOW_RATE 200 ul/min
AC$CHROMATOGRAPHY: RETENTION_TIME 6.2 min
AC$CHROMATOGRAPHY: SOLVENT A water with 0.1% formic acid
AC$CHROMATOGRAPHY: SOLVENT B methanol with 0.1% formic acid
MS$FOCUSED_ION: BASE_PEAK 183.0782
MS$FOCUSED_ION: PRECURSOR_M/Z 183.0781
MS$FOCUSED_ION: PRECURSOR_TYPE [M+H]+
MS$DATA_PROCESSING: DEPROFILE Spline
MS$DATA_PROCESSING: RECALIBRATE loess on assigned fragments and MS1
MS$DATA_PROCESSING: REANALYZE Peaks with additional N2/O included
MS$DATA_PROCESSING: WHOLE RMassBank 1.9.6
PK$SPLASH: splash10-0002-9100000000-00d739ba83d89a68ea86
PK$ANNOTATION: m/z tentative_formula formula_count mass error(ppm)
  80.9734 H2O3P+ 1 80.9736 -2.06
  98.9843 H4O4P+ 1 98.9842 0.89
  116.9947 H6O5P+ 1 116.9947 -0.14
  127.0155 C2H8O4P+ 1 127.0155 0.3
  155.0469 C4H12O4P+ 1 155.0468 0.7
PK$NUM_PEAK: 5
PK$PEAK: m/z int. rel.int.
  80.9734 3679793.1 2
  98.9843 1395055330.9 999
  116.9947 13347896.1 9
  127.0155 148050355.8 106
  155.0469 16035428.9 11
//
