ACCESSION: MSBNK-Eawag-EQ305903
RECORD_TITLE: Imidacloprid-guanidine; LC-ESI-QFT; MS2; CE: 45; R=35000; [M+H]+
DATE: 2015.08.25
AUTHORS: Beck B, Stravs M, Schymanski E, Singer H, Department of Environmental Chemistry, Eawag
LICENSE: CC BY
COPYRIGHT: Copyright (C) 2015 Eawag, Duebendorf, Switzerland
COMMENT: CONFIDENCE standard compound
COMMENT: EAWAG_UCHEM_ID 3059
CH$NAME: Imidacloprid-guanidine
CH$NAME: Desnitro-imidacloprid
CH$NAME: 1-[(6-Chloro-3-pyridinyl)methyl]-4,5-dihydro-1H-imidazol-2-amine
CH$COMPOUND_CLASS: N/A; Environmental Standard
CH$FORMULA: C9H11ClN4
CH$EXACT_MASS: 210.06722
CH$SMILES: Clc1ncc(cc1)CN2\C(=N/CC2)N
CH$IUPAC: InChI=1S/C9H11ClN4/c10-8-2-1-7(5-13-8)6-14-4-3-12-9(14)11/h1-2,5H,3-4,6H2,(H2,11,12)
CH$LINK: CAS 115970-17-7
CH$LINK: CHEBI CHEBI:212822
CH$LINK: PUBCHEM CID:10130527
CH$LINK: INCHIKEY UEQZFAGVRGWPDK-UHFFFAOYSA-N
CH$LINK: CHEMSPIDER 8306043
CH$LINK: COMPTOX DTXSID90436011
AC$INSTRUMENT: Q Exactive Orbitrap Thermo Scientific
AC$INSTRUMENT_TYPE: LC-ESI-QFT
AC$MASS_SPECTROMETRY: MS_TYPE MS2
AC$MASS_SPECTROMETRY: ION_MODE POSITIVE
AC$MASS_SPECTROMETRY: IONIZATION ESI
AC$MASS_SPECTROMETRY: FRAGMENTATION_MODE HCD
AC$MASS_SPECTROMETRY: COLLISION_ENERGY 45 (nominal)
AC$MASS_SPECTROMETRY: RESOLUTION 35000
AC$CHROMATOGRAPHY: COLUMN_NAME XBridge C18 3.5um, 2.1x50mm, Waters
AC$CHROMATOGRAPHY: FLOW_GRADIENT 90/10 at 0 min, 50/50 at 4 min, 5/95 at 17 min, 5/95 at 25 min, 90/10 at 25.1 min, 90/10 at 30 min
AC$CHROMATOGRAPHY: FLOW_RATE 200 ul/min
AC$CHROMATOGRAPHY: RETENTION_TIME 2.4 min
AC$CHROMATOGRAPHY: SOLVENT A water with 0.1% formic acid
AC$CHROMATOGRAPHY: SOLVENT B methanol with 0.1% formic acid
MS$FOCUSED_ION: BASE_PEAK 211.0747
MS$FOCUSED_ION: PRECURSOR_M/Z 211.0745
MS$FOCUSED_ION: PRECURSOR_TYPE [M+H]+
MS$DATA_PROCESSING: DEPROFILE Spline
MS$DATA_PROCESSING: RECALIBRATE loess on assigned fragments and MS1
MS$DATA_PROCESSING: REANALYZE Peaks with additional N2/O included
MS$DATA_PROCESSING: WHOLE RMassBank 1.9.6
PK$SPLASH: splash10-01t9-1960000000-a4694cd5ea8efadec1a8
PK$ANNOTATION: m/z tentative_formula formula_count mass error(ppm)
  57.0448 C2H5N2+ 1 57.0447 0.62
  72.9836 C3H2Cl+ 1 72.984 -4.58
  81.0335 C5H5O+ 1 81.0335 -0.39
  84.0556 C3H6N3+ 1 84.0556 -0.16
  85.0635 C3H7N3+ 1 85.0634 0.49
  90.0338 C6H4N+ 1 90.0338 0.05
  91.0414 C6H5N+ 1 91.0417 -2.53
  98.0712 C4H8N3+ 1 98.0713 -0.55
  98.9994 C5H4Cl+ 1 98.9996 -1.86
  106.0652 C7H8N+ 1 106.0651 0.89
  126.0105 C6H5ClN+ 1 126.0105 0.13
  128.026 C6H7ClN+ 1 128.0262 -0.81
  132.0556 C7H6N3+ 1 132.0556 0.05
  133.076 C8H9N2+ 1 133.076 -0.04
  144.021 C6H7ClNO+ 1 144.0211 -0.47
  168.0323 C7H7ClN3+ 1 168.0323 -0.19
  169.0527 C8H10ClN2+ 1 169.0527 -0.25
  175.0978 C9H11N4+ 1 175.0978 -0.02
  176.1056 C9H12N4+ 1 176.1056 -0.16
  194.0479 C9H9ClN3+ 1 194.048 -0.16
  211.0745 C9H12ClN4+ 1 211.0745 -0.19
PK$NUM_PEAK: 21
PK$PEAK: m/z int. rel.int.
  57.0448 81681.9 1
  72.9836 314481.4 3
  81.0335 83542.7 1
  84.0556 12650151.9 157
  85.0635 267271.1 3
  90.0338 769763.6 9
  91.0414 81075.9 1
  98.0712 168619.1 2
  98.9994 609466.9 7
  106.0652 135460.8 1
  126.0105 80003091.7 999
  128.026 286101.6 3
  132.0556 205015.8 2
  133.076 4464239.8 55
  144.021 285431.6 3
  168.0323 704090.9 8
  169.0527 1987946.4 24
  175.0978 11076459.3 138
  176.1056 193569.9 2
  194.0479 1351408.9 16
  211.0745 70519748.2 880
//
