ACCESSION: MSBNK-Eawag-EQ01131801
RECORD_TITLE: Trichlorfon; LC-ESI-QFT; MS2; CE: 15%; R=17500; [M+H]+
DATE: 2023.04.27
AUTHORS: B. Beck [dtc,com], J. Hollender [dtc]
LICENSE: CC BY-SA
COPYRIGHT: Copyright (C) Eawag 2023
COMMENT: CONFIDENCE standard compound
COMMENT: UCHEM_ID 11318
CH$NAME: Trichlorfon
CH$NAME: 2,2,2-trichloro-1-dimethoxyphosphorylethanol
CH$COMPOUND_CLASS: N/A; Environmental Standard
CH$FORMULA: C4H8Cl3O4P
CH$EXACT_MASS: 255.9226
CH$SMILES: COP(=O)(C(C(Cl)(Cl)Cl)O)OC
CH$IUPAC: InChI=1S/C4H8Cl3O4P/c1-10-12(9,11-2)3(8)4(5,6)7/h3,8H,1-2H3
CH$LINK: CAS 52-68-6
CH$LINK: CHEBI CHEBI:6908
CH$LINK: KEGG C07971
CH$LINK: PUBCHEM CID:5853
CH$LINK: INCHIKEY NFACJZMKEDPNKN-UHFFFAOYSA-N
CH$LINK: CHEMSPIDER 5644
AC$INSTRUMENT: Exploris 240 Orbitrap Thermo Scientific
AC$INSTRUMENT_TYPE: LC-ESI-QFT
AC$MASS_SPECTROMETRY: MS_TYPE MS2
AC$MASS_SPECTROMETRY: ION_MODE POSITIVE
AC$MASS_SPECTROMETRY: IONIZATION ESI
AC$MASS_SPECTROMETRY: FRAGMENTATION_MODE HCD
AC$MASS_SPECTROMETRY: COLLISION_ENERGY 15 % (nominal)
AC$MASS_SPECTROMETRY: RESOLUTION 17500
AC$MASS_SPECTROMETRY: MASS_RANGE_M/Z 50-283
AC$CHROMATOGRAPHY: COLUMN_NAME XBridge C18 3.5um, 2.1x50mm, Waters
AC$CHROMATOGRAPHY: FLOW_GRADIENT 90/10 at 0 min, 50/50 at 4 min, 5/95 at 17 min, 5/95 at 25 min, 90/10 at 25.1 min, 90/10 at 30 min
AC$CHROMATOGRAPHY: FLOW_RATE 200 uL/min
AC$CHROMATOGRAPHY: RETENTION_TIME 4.036 min
MS$FOCUSED_ION: BASE_PEAK 288.0486
MS$FOCUSED_ION: PRECURSOR_M/Z 256.9299
MS$FOCUSED_ION: PRECURSOR_TYPE [M+H]+
MS$DATA_PROCESSING: RECALIBRATE loess on assigned fragments and MS1
MS$DATA_PROCESSING: REANALYZE Peaks with additional N2/O included
MS$DATA_PROCESSING: WHOLE RMassBank 3.11.0.1
PK$SPLASH: splash10-0a4i-0190000000-26ad719644f168a24a51
PK$ANNOTATION: m/z tentative_formula formula_count mass error(ppm)
  109.0049 C2H6O3P+ 2 109.0049 -0.4
  127.0154 C2H8O4P+ 2 127.0155 -0.21
  144.9812 C2H7ClO3P+ 2 144.9816 -2.47
  220.9532 C4H8Cl2O4P+ 1 220.9532 -0.01
  256.9298 C4H9Cl3O4P+ 1 256.9299 -0.18
PK$NUM_PEAK: 5
PK$PEAK: m/z int. rel.int.
  109.0049 884728.2 45
  127.0154 2154434.8 109
  144.9812 182006.6 9
  220.9532 8028807.5 408
  256.9298 19622790 999
//
