ACCESSION: MSBNK-Eawag-EQ359501
RECORD_TITLE: Benzenesulfonamide; LC-ESI-QFT; MS2; CE: 15; R=35000; [M+H]+
DATE: 2015.08.25
AUTHORS: Stravs M, Schymanski E, Singer H, Department of Environmental Chemistry, Eawag and Thomaidis N, University of Athens
LICENSE: CC BY
COPYRIGHT: Copyright (C) 2015 Eawag, Duebendorf, Switzerland
COMMENT: CONFIDENCE standard compound
COMMENT: EAWAG_UCHEM_ID 3595
CH$NAME: Benzenesulfonamide
CH$NAME: Benzenesulfonimidic acid
CH$COMPOUND_CLASS: N/A; Environmental Standard
CH$FORMULA: C6H7NO2S
CH$EXACT_MASS: 157.01975
CH$SMILES: c1ccc(cc1)S(=N)(=O)O
CH$IUPAC: InChI=1S/C6H7NO2S/c7-10(8,9)6-4-2-1-3-5-6/h1-5H,(H2,7,8,9)
CH$LINK: CAS 98-10-2
CH$LINK: PUBCHEM CID:7370
CH$LINK: INCHIKEY KHBQMWCZKVMBLN-UHFFFAOYSA-N
CH$LINK: CHEMSPIDER 7092
CH$LINK: COMPTOX DTXSID1059159
AC$INSTRUMENT: Q Exactive Plus Orbitrap Thermo Scientific
AC$INSTRUMENT_TYPE: LC-ESI-QFT
AC$MASS_SPECTROMETRY: MS_TYPE MS2
AC$MASS_SPECTROMETRY: ION_MODE POSITIVE
AC$MASS_SPECTROMETRY: IONIZATION ESI
AC$MASS_SPECTROMETRY: FRAGMENTATION_MODE HCD
AC$MASS_SPECTROMETRY: COLLISION_ENERGY 15 (nominal)
AC$MASS_SPECTROMETRY: RESOLUTION 35000
AC$CHROMATOGRAPHY: COLUMN_NAME XBridge C18 3.5um, 2.1x50mm, Waters
AC$CHROMATOGRAPHY: FLOW_GRADIENT 90/10 at 0 min, 50/50 at 4 min, 5/95 at 17 min, 5/95 at 25 min, 90/10 at 25.1 min, 90/10 at 30 min
AC$CHROMATOGRAPHY: FLOW_RATE 200 ul/min
AC$CHROMATOGRAPHY: RETENTION_TIME 3.1 min
AC$CHROMATOGRAPHY: SOLVENT A water with 0.1% formic acid
AC$CHROMATOGRAPHY: SOLVENT B methanol with 0.1% formic acid
MS$FOCUSED_ION: BASE_PEAK 158.0266
MS$FOCUSED_ION: PRECURSOR_M/Z 158.027
MS$FOCUSED_ION: PRECURSOR_TYPE [M+H]+
MS$DATA_PROCESSING: RECALIBRATE loess on assigned fragments and MS1
MS$DATA_PROCESSING: REANALYZE Peaks with additional N2/O included
MS$DATA_PROCESSING: WHOLE RMassBank 1.9.6
PK$SPLASH: splash10-0007-6900000000-f6e7bd1ea626b8139c2d
PK$ANNOTATION: m/z tentative_formula formula_count mass error(ppm)
  50.0149 C4H2+ 1 50.0151 -4.83
  51.0227 C4H3+ 1 51.0229 -4.83
  53.0386 C4H5+ 1 53.0386 -0.5
  55.0178 C3H3O+ 1 55.0178 -0.75
  68.997 C3HO2+ 1 68.9971 -1.82
  77.0384 C6H5+ 1 77.0386 -2.03
  81.0334 C5H5O+ 1 81.0335 -1
  94.0413 C6H6O+ 1 94.0413 -0.49
  95.049 C6H7O+ 1 95.0491 -1.07
  105.0446 C6H5N2+ 1 105.0447 -0.9
  141.0003 C6H5O2S+ 1 141.0005 -1.25
  158.0269 C6H8NO2S+ 1 158.027 -0.99
PK$NUM_PEAK: 12
PK$PEAK: m/z int. rel.int.
  50.0149 64952.9 4
  51.0227 86742.5 5
  53.0386 2678613 169
  55.0178 172284.8 10
  68.997 26937.4 1
  77.0384 4108288.2 260
  81.0334 338530.2 21
  94.0413 75502 4
  95.049 9371357 594
  105.0446 6488113 411
  141.0003 15753418 999
  158.0269 201899.7 12
//
