ACCESSION: MSBNK-Eawag-EQ01153502
RECORD_TITLE: Zolpidem carboxylic acid; LC-ESI-QFT; MS2; CE: 30%; R=17500; [M+H]+
DATE: 2024.05.08
AUTHORS: C. Meyer [dtc], B. Beck [dtc,com], J. Hollender [dtc]
LICENSE: CC BY-SA
COPYRIGHT: Copyright (C) Eawag 2023
PUBLICATION: Meyer, C., Stravs, M., Hollender, J.. How Wastewater Reflects Human Metabolism - Suspect Screening of Pharmaceutical Metabolites in Wastewater Influent. doi:10.1021/acs.est.4c00968
COMMENT: CONFIDENCE standard compound
COMMENT: UCHEM_ID 11535
CH$NAME: Zolpidem carboxylic acid
CH$NAME: 4-[3-[2-(dimethylamino)-2-oxoethyl]-6-methylimidazo[1,2-a]pyridin-2-yl]benzoic acid
CH$COMPOUND_CLASS: N/A; Environmental Standard
CH$FORMULA: C19H19N3O3
CH$EXACT_MASS: 337.1426415
CH$SMILES: CC1=CN2C(=NC(=C2CC(=O)N(C)C)C3=CC=C(C=C3)C(=O)O)C=C1
CH$IUPAC: InChI=1S/C19H19N3O3/c1-12-4-9-16-20-18(13-5-7-14(8-6-13)19(24)25)15(22(16)11-12)10-17(23)21(2)3/h4-9,11H,10H2,1-3H3,(H,24,25)
CH$LINK: PUBCHEM CID:11966044
CH$LINK: INCHIKEY FELZONDEFBLTSP-UHFFFAOYSA-N
CH$LINK: CHEMSPIDER 10140042
AC$INSTRUMENT: Exploris 240 Orbitrap Thermo Scientific
AC$INSTRUMENT_TYPE: LC-ESI-QFT
AC$MASS_SPECTROMETRY: MS_TYPE MS2
AC$MASS_SPECTROMETRY: ION_MODE POSITIVE
AC$MASS_SPECTROMETRY: IONIZATION ESI
AC$MASS_SPECTROMETRY: FRAGMENTATION_MODE HCD
AC$MASS_SPECTROMETRY: COLLISION_ENERGY 30 % (nominal)
AC$MASS_SPECTROMETRY: RESOLUTION 17500
AC$MASS_SPECTROMETRY: MASS_RANGE_M/Z 50-366
AC$CHROMATOGRAPHY: COLUMN_NAME XBridge C18 3.5um, 2.1x50mm, Waters
AC$CHROMATOGRAPHY: FLOW_GRADIENT 90/10 at 0 min, 50/50 at 4 min, 5/95 at 17 min, 5/95 at 25 min, 90/10 at 25.1 min, 90/10 at 30 min
AC$CHROMATOGRAPHY: FLOW_RATE 200 uL/min
AC$CHROMATOGRAPHY: RETENTION_TIME 3.313 min
MS$FOCUSED_ION: BASE_PEAK 338.1493
MS$FOCUSED_ION: PRECURSOR_M/Z 338.1499
MS$FOCUSED_ION: PRECURSOR_TYPE [M+H]+
MS$DATA_PROCESSING: RECALIBRATE loess on assigned fragments and MS1
MS$DATA_PROCESSING: REANALYZE Peaks with additional N2/O included
MS$DATA_PROCESSING: WHOLE RMassBank 3.15.1
PK$SPLASH: splash10-000i-0009000000-a4eca4bc4399a63f5a7d
PK$ANNOTATION: m/z tentative_formula formula_count mass error(ppm)
  265.0969 C16H13N2O2+ 1 265.0972 -0.87
  266.105 C16H14N2O2+ 1 266.105 0.01
  293.0918 C17H13N2O3+ 1 293.0921 -1.05
  338.1495 C19H20N3O3+ 1 338.1499 -1.22
PK$NUM_PEAK: 4
PK$PEAK: m/z int. rel.int.
  265.0969 3853428.2 9
  266.105 2692456.5 6
  293.0918 7393023 17
  338.1495 418749760 999
//
