ACCESSION: MSBNK-Eawag-EA066810
RECORD_TITLE: Simazine-2-hydroxy; LC-ESI-ITFT; MS2; CE: 45%; R=15000; [M+H]+
DATE: 2014.01.14
AUTHORS: Stravs M, Schymanski E, Singer H, Department of Environmental Chemistry, Eawag
LICENSE: CC BY
COPYRIGHT: Copyright (C) 2012 Eawag, Duebendorf, Switzerland
COMMENT: CONFIDENCE standard compound
COMMENT: EAWAG_UCHEM_ID 668
CH$NAME: Simazine-2-hydroxy
CH$NAME: 2-Hydroxysimazine
CH$NAME: 2,6-bis(ethylamino)-1H-1,3,5-triazin-4-one
CH$COMPOUND_CLASS: N/A; Environmental Standard
CH$FORMULA: C7H13N5O
CH$EXACT_MASS: 183.1120
CH$SMILES: Oc1nc(NCC)nc(NCC)n1
CH$IUPAC: InChI=1S/C7H13N5O/c1-3-8-5-10-6(9-4-2)12-7(13)11-5/h3-4H2,1-2H3,(H3,8,9,10,11,12,13)
CH$LINK: CAS 2599-11-3
CH$LINK: INCHIKEY YQIXRXMOJFQVBV-UHFFFAOYSA-N
CH$LINK: CHEMSPIDER 16505
CH$LINK: COMPTOX DTXSID6062547
CH$LINK: PUBCHEM CID:135408659
AC$INSTRUMENT: LTQ Orbitrap XL Thermo Scientific
AC$INSTRUMENT_TYPE: LC-ESI-ITFT
AC$MASS_SPECTROMETRY: MS_TYPE MS2
AC$MASS_SPECTROMETRY: ION_MODE POSITIVE
AC$MASS_SPECTROMETRY: IONIZATION ESI
AC$MASS_SPECTROMETRY: FRAGMENTATION_MODE HCD
AC$MASS_SPECTROMETRY: COLLISION_ENERGY 45 % (nominal)
AC$MASS_SPECTROMETRY: RESOLUTION 15000
AC$CHROMATOGRAPHY: COLUMN_NAME XBridge C18 3.5um, 2.1x50mm, Waters
AC$CHROMATOGRAPHY: FLOW_GRADIENT 90/10 at 0 min, 50/50 at 4 min, 5/95 at 17 min, 5/95 at 25 min, 90/10 at 25.1 min, 90/10 at 30 min
AC$CHROMATOGRAPHY: FLOW_RATE 200 ul/min
AC$CHROMATOGRAPHY: RETENTION_TIME 3.5 min
AC$CHROMATOGRAPHY: SOLVENT A water with 0.1% formic acid
AC$CHROMATOGRAPHY: SOLVENT B methanol with 0.1% formic acid
MS$FOCUSED_ION: BASE_PEAK 184.1194
MS$FOCUSED_ION: PRECURSOR_M/Z 184.1193
MS$FOCUSED_ION: PRECURSOR_TYPE [M+H]+
MS$DATA_PROCESSING: DEPROFILE Spline
MS$DATA_PROCESSING: RECALIBRATE loess on assigned fragments and MS1
MS$DATA_PROCESSING: REANALYZE Peaks with additional N2/O included
MS$DATA_PROCESSING: WHOLE RMassBank 1.3.1
PK$SPLASH: splash10-001i-0900000000-3312815bc7e9e99eaa10
PK$ANNOTATION: m/z tentative_formula formula_count mass error(ppm)
  69.0083 C2HN2O+ 1 69.0083 -0.42
  71.0603 C3H7N2+ 1 71.0604 -0.63
  86.0348 C2H4N3O+ 1 86.0349 -0.79
  96.0555 C4H6N3+ 1 96.0556 -1.39
  97.0396 C4H5N2O+ 1 97.0396 -0.3
  113.0821 C4H9N4+ 1 113.0822 -0.82
  114.0661 C4H8N3O+ 1 114.0662 -0.34
  124.0869 C6H10N3+ 1 124.0869 -0.51
  141.1133 C6H13N4+ 1 141.1135 -1.51
  142.0976 C6H12N3O+ 1 142.0975 0.86
  156.088 C5H10N5O+ 1 156.088 -0.1
  166.1088 C7H12N5+ 1 166.1087 0.77
  167.0922 C7H11N4O+ 1 167.0927 -3.22
  184.1192 C7H14N5O+ 1 184.1193 -0.42
PK$NUM_PEAK: 14
PK$PEAK: m/z int. rel.int.
  69.0083 1321536.7 15
  71.0603 584103.6 6
  86.0348 248151.6 2
  96.0555 116549.8 1
  97.0396 1509168.6 17
  113.0821 202635.8 2
  114.0661 33624910.9 382
  124.0869 276731 3
  141.1133 119330.1 1
  142.0976 164141 1
  156.088 1221450.5 13
  166.1088 191699.3 2
  167.0922 120507.6 1
  184.1192 87847078.1 999
//
