ACCESSION: MSBNK-Eawag-EQ01107701
RECORD_TITLE: Triglycidyl isocyanurate; LC-ESI-QFT; MS2; CE: 15%; R=15000; [M+H]+
DATE: 2024.06.14
AUTHORS: F. Jud [dtc], K. Arturi [dtc], J. Hollender [dtc], A. Dax [com]
LICENSE: CC BY-SA
COPYRIGHT: Copyright (C) Eawag 2024
COMMENT: CONFIDENCE standard compound
COMMENT: UCHEM_ID 11077
CH$NAME: Triglycidyl isocyanurate
CH$NAME: 1,3,5-tris(oxiran-2-ylmethyl)-1,3,5-triazinane-2,4,6-trione
CH$COMPOUND_CLASS: N/A
CH$FORMULA: C12H15N3O6
CH$EXACT_MASS: 297.0960852
CH$SMILES: O=C1N(CC2CO2)C(=O)N(CC2CO2)C(=O)N1CC1CO1
CH$IUPAC: InChI=1S/C12H15N3O6/c16-10-13(1-7-4-19-7)11(17)15(3-9-6-21-9)12(18)14(10)2-8-5-20-8/h7-9H,1-6H2
CH$LINK: CAS 2451-62-9
CH$LINK: PUBCHEM CID:17142
CH$LINK: INCHIKEY OUPZKGBUJRBPGC-UHFFFAOYSA-N
CH$LINK: CHEMSPIDER 16226
AC$INSTRUMENT: Exploris 240 Thermo Scientific
AC$INSTRUMENT_TYPE: LC-ESI-QFT
AC$MASS_SPECTROMETRY: MS_TYPE MS2
AC$MASS_SPECTROMETRY: ION_MODE POSITIVE
AC$MASS_SPECTROMETRY: IONIZATION ESI
AC$MASS_SPECTROMETRY: FRAGMENTATION_MODE HCD
AC$MASS_SPECTROMETRY: COLLISION_ENERGY 15 % (nominal)
AC$MASS_SPECTROMETRY: RESOLUTION 15000
AC$MASS_SPECTROMETRY: MASS_RANGE_M/Z 50-325
AC$CHROMATOGRAPHY: COLUMN_NAME XBridge C18 3.5um, 2.1x50mm, Waters
AC$CHROMATOGRAPHY: FLOW_GRADIENT 90/10 at 0 min, 50/50 at 4 min, 5/95 at 17 min, 5/95 at 25 min, 90/10 at 25.1 min, 90/10 at 30 min
AC$CHROMATOGRAPHY: FLOW_RATE 200 uL/min
AC$CHROMATOGRAPHY: RETENTION_TIME 2.903 min
MS$FOCUSED_ION: BASE_PEAK 298.1031
MS$FOCUSED_ION: PRECURSOR_M/Z 298.1034
MS$FOCUSED_ION: PRECURSOR_TYPE [M+H]+
MS$DATA_PROCESSING: RECALIBRATE loess on assigned fragments and MS1
MS$DATA_PROCESSING: REANALYZE Peaks with additional N2/O included
MS$DATA_PROCESSING: WHOLE RMassBank 3.15.1.1
PK$SPLASH: splash10-0002-0090000000-0cd2042cd48ce1db6d47
PK$ANNOTATION: m/z tentative_formula formula_count mass error(ppm)
  130.0245 C3H4N3O3+ 1 130.0247 -1.85
  186.0508 C6H8N3O4+ 1 186.0509 -0.7
  242.0768 C9H12N3O5+ 1 242.0771 -1.43
  298.1031 C12H16N3O6+ 1 298.1034 -0.99
PK$NUM_PEAK: 4
PK$PEAK: m/z int. rel.int.
  130.0245 3212438 44
  186.0508 2572604.5 35
  242.0768 1073552.4 14
  298.1031 72565216 999
//
