ACCESSION: MSBNK-Eawag-EA066560
RECORD_TITLE: Propachlor ESA; LC-ESI-ITFT; MS2; CE: 45%; R=15000; [M-H]-
DATE: 2014.01.14
AUTHORS: Stravs M, Schymanski E, Singer H, Department of Environmental Chemistry, Eawag
LICENSE: CC BY
COPYRIGHT: Copyright (C) 2012 Eawag, Duebendorf, Switzerland
COMMENT: CONFIDENCE standard compound
COMMENT: EAWAG_UCHEM_ID 665
CH$NAME: Propachlor ESA
CH$NAME: 2-[Isopropyl(phenyl)amino]-2-oxoethanesulfonic acid
CH$COMPOUND_CLASS: N/A; Environmental Standard
CH$FORMULA: C11H15NO4S
CH$EXACT_MASS: 257.0722
CH$SMILES: O=S(=O)(O)CC(=O)N(c1ccccc1)C(C)C
CH$IUPAC: InChI=1S/C11H15NO4S/c1-9(2)12(10-6-4-3-5-7-10)11(13)8-17(14,15)16/h3-7,9H,8H2,1-2H3,(H,14,15,16)
CH$LINK: CAS 123732-85-4
CH$LINK: PUBCHEM CID:16212221
CH$LINK: INCHIKEY BFSZJLBDHMMCAH-UHFFFAOYSA-N
CH$LINK: CHEMSPIDER 17340099
CH$LINK: COMPTOX DTXSID20891452
AC$INSTRUMENT: LTQ Orbitrap XL Thermo Scientific
AC$INSTRUMENT_TYPE: LC-ESI-ITFT
AC$MASS_SPECTROMETRY: MS_TYPE MS2
AC$MASS_SPECTROMETRY: ION_MODE NEGATIVE
AC$MASS_SPECTROMETRY: IONIZATION ESI
AC$MASS_SPECTROMETRY: FRAGMENTATION_MODE HCD
AC$MASS_SPECTROMETRY: COLLISION_ENERGY 45 % (nominal)
AC$MASS_SPECTROMETRY: RESOLUTION 15000
AC$CHROMATOGRAPHY: COLUMN_NAME XBridge C18 3.5um, 2.1x50mm, Waters
AC$CHROMATOGRAPHY: FLOW_GRADIENT 90/10 at 0 min, 50/50 at 4 min, 5/95 at 17 min, 5/95 at 25 min, 90/10 at 25.1 min, 90/10 at 30 min
AC$CHROMATOGRAPHY: FLOW_RATE 200 ul/min
AC$CHROMATOGRAPHY: RETENTION_TIME 5.7 min
AC$CHROMATOGRAPHY: SOLVENT A water with 0.1% formic acid
AC$CHROMATOGRAPHY: SOLVENT B methanol with 0.1% formic acid
MS$FOCUSED_ION: BASE_PEAK 256.0648
MS$FOCUSED_ION: PRECURSOR_M/Z 256.0649
MS$FOCUSED_ION: PRECURSOR_TYPE [M-H]-
MS$DATA_PROCESSING: DEPROFILE Spline
MS$DATA_PROCESSING: RECALIBRATE loess on assigned fragments and MS1
MS$DATA_PROCESSING: REANALYZE Peaks with additional N2/O included
MS$DATA_PROCESSING: WHOLE RMassBank 1.3.1
PK$SPLASH: splash10-05di-9560000000-9bc3ea93787bd1f3f51d
PK$ANNOTATION: m/z tentative_formula formula_count mass error(ppm)
  76.9703 CHO2S- 1 76.9703 0.47
  79.9575 O3S- 1 79.9574 1.21
  93.0346 C6H5O- 1 93.0346 -0.09
  120.9602 C2HO4S- 1 120.9601 0.97
  134.0974 C9H12N- 1 134.0975 -0.62
  214.018 C8H8NO4S- 1 214.018 0.08
  256.0654 C11H14NO4S- 1 256.0649 1.75
PK$NUM_PEAK: 7
PK$PEAK: m/z int. rel.int.
  76.9703 16706.3 245
  79.9575 67984.8 999
  93.0346 2170.3 31
  120.9602 49708 730
  134.0974 5381.5 79
  214.018 4596 67
  256.0654 54648.3 803
//
