ACCESSION: MSBNK-Eawag-EQ01143003
RECORD_TITLE: Uvinul-LR; LC-ESI-QFT; MS2; CE: 45%; R=17500; [M+H]+
DATE: 2023.08.10
AUTHORS: B. Beck [dtc,com], J. Hollender [dtc]
LICENSE: CC BY-SA
COPYRIGHT: Copyright (C) Eawag 2023
COMMENT: CONFIDENCE standard compound
COMMENT: UCHEM_ID 11430
CH$NAME: Uvinul-LR
CH$NAME: 2-ethoxyethyl 2-cyano-2-[3-(3-methoxypropylamino)cyclohex-2-en-1-ylidene]acetate
CH$COMPOUND_CLASS: N/A; Environmental Standard
CH$FORMULA: C17H26N2O4
CH$EXACT_MASS: 322.1893
CH$SMILES: CCOCCOC(=O)C(=C1CCCC(=C1)NCCCOC)C#N
CH$IUPAC: InChI=1S/C17H26N2O4/c1-3-22-10-11-23-17(20)16(13-18)14-6-4-7-15(12-14)19-8-5-9-21-2/h12,19H,3-11H2,1-2H3
CH$LINK: PUBCHEM CID:78041312
CH$LINK: INCHIKEY NPNDSRGIZUPLNP-UHFFFAOYSA-N
AC$INSTRUMENT: Exploris 240 Orbitrap Thermo Scientific
AC$INSTRUMENT_TYPE: LC-ESI-QFT
AC$MASS_SPECTROMETRY: MS_TYPE MS2
AC$MASS_SPECTROMETRY: ION_MODE POSITIVE
AC$MASS_SPECTROMETRY: IONIZATION ESI
AC$MASS_SPECTROMETRY: FRAGMENTATION_MODE HCD
AC$MASS_SPECTROMETRY: COLLISION_ENERGY 45 % (nominal)
AC$MASS_SPECTROMETRY: RESOLUTION 17500
AC$MASS_SPECTROMETRY: MASS_RANGE_M/Z 50-351
AC$CHROMATOGRAPHY: COLUMN_NAME XBridge C18 3.5um, 2.1x50mm, Waters
AC$CHROMATOGRAPHY: FLOW_GRADIENT 90/10 at 0 min, 50/50 at 4 min, 5/95 at 17 min, 5/95 at 25 min, 90/10 at 25.1 min, 90/10 at 30 min
AC$CHROMATOGRAPHY: FLOW_RATE 200 uL/min
AC$CHROMATOGRAPHY: RETENTION_TIME 6.721 min
MS$FOCUSED_ION: BASE_PEAK 233.1283
MS$FOCUSED_ION: PRECURSOR_M/Z 323.1965
MS$FOCUSED_ION: PRECURSOR_TYPE [M+H]+
MS$DATA_PROCESSING: RECALIBRATE loess on assigned fragments and MS1
MS$DATA_PROCESSING: REANALYZE Peaks with additional N2/O included
MS$DATA_PROCESSING: WHOLE RMassBank 3.11.0.1
PK$SPLASH: splash10-001i-0090000000-208d67b5a59f9b40189b
PK$ANNOTATION: m/z tentative_formula formula_count mass error(ppm)
  73.0648 C4H9O+ 1 73.0648 0.11
  146.06 C9H8NO+ 1 146.06 0.04
  147.0916 C9H11N2+ 1 147.0917 -0.61
  149.1073 C9H13N2+ 1 149.1073 -0.15
  161.0713 C9H9N2O+ 1 161.0709 2.03
  173.071 C10H9N2O+ 1 173.0709 0.56
  173.1074 C11H13N2+ 1 173.1073 0.16
  175.1232 C11H15N2+ 1 175.123 1.06
  201.1024 C12H13N2O+ 1 201.1022 0.67
  233.1285 C13H17N2O2+ 1 233.1285 0.38
PK$NUM_PEAK: 10
PK$PEAK: m/z int. rel.int.
  73.0648 6956624 20
  146.06 21183774 63
  147.0916 4045935.2 12
  149.1073 2767614 8
  161.0713 781855.9 2
  173.071 5673220 16
  173.1074 1620858.1 4
  175.1232 5097812 15
  201.1024 48454704 145
  233.1285 333729408 999
//
