ACCESSION: MSBNK-Eawag-EA067259
RECORD_TITLE: Terbutylazine-desethyl-2-hydroxy; LC-ESI-ITFT; MS2; CE: 30%; R=15000; [M-H]-
DATE: 2014.01.14
AUTHORS: Stravs M, Schymanski E, Singer H, Department of Environmental Chemistry, Eawag
LICENSE: CC BY
COPYRIGHT: Copyright (C) 2012 Eawag, Duebendorf, Switzerland
COMMENT: CONFIDENCE standard compound
COMMENT: EAWAG_UCHEM_ID 672
CH$NAME: Terbutylazine-desethyl-2-hydroxy
CH$NAME: 1,3,5-Triazin-2(1H)-one, 4-amino-6-((1,1-dimethylethyl)amino)-
CH$NAME: 2-amino-6-(tert-butylamino)-1H-1,3,5-triazin-4-one
CH$COMPOUND_CLASS: N/A; Environmental Standard
CH$FORMULA: C7H13N5O
CH$EXACT_MASS: 183.1120
CH$SMILES: Nc1nc(NC(C)(C)C)nc(O)n1
CH$IUPAC: InChI=1S/C7H13N5O/c1-7(2,3)12-5-9-4(8)10-6(13)11-5/h1-3H3,(H4,8,9,10,11,12,13)
CH$LINK: CAS 66753-06-8
CH$LINK: INCHIKEY NUISVCFZNCYUIM-UHFFFAOYSA-N
CH$LINK: CHEMSPIDER 4957628
CH$LINK: COMPTOX DTXSID60216887
CH$LINK: PUBCHEM CID:135612794
AC$INSTRUMENT: LTQ Orbitrap XL Thermo Scientific
AC$INSTRUMENT_TYPE: LC-ESI-ITFT
AC$MASS_SPECTROMETRY: MS_TYPE MS2
AC$MASS_SPECTROMETRY: ION_MODE NEGATIVE
AC$MASS_SPECTROMETRY: IONIZATION ESI
AC$MASS_SPECTROMETRY: FRAGMENTATION_MODE HCD
AC$MASS_SPECTROMETRY: COLLISION_ENERGY 30 % (nominal)
AC$MASS_SPECTROMETRY: RESOLUTION 15000
AC$CHROMATOGRAPHY: COLUMN_NAME XBridge C18 3.5um, 2.1x50mm, Waters
AC$CHROMATOGRAPHY: FLOW_GRADIENT 90/10 at 0 min, 50/50 at 4 min, 5/95 at 17 min, 5/95 at 25 min, 90/10 at 25.1 min, 90/10 at 30 min
AC$CHROMATOGRAPHY: FLOW_RATE 200 ul/min
AC$CHROMATOGRAPHY: RETENTION_TIME 2.9 min
AC$CHROMATOGRAPHY: SOLVENT A water with 0.1% formic acid
AC$CHROMATOGRAPHY: SOLVENT B methanol with 0.1% formic acid
MS$FOCUSED_ION: BASE_PEAK 182.1053
MS$FOCUSED_ION: PRECURSOR_M/Z 182.1047
MS$FOCUSED_ION: PRECURSOR_TYPE [M-H]-
MS$DATA_PROCESSING: DEPROFILE Spline
MS$DATA_PROCESSING: RECALIBRATE loess on assigned fragments and MS1
MS$DATA_PROCESSING: REANALYZE Peaks with additional N2/O included
MS$DATA_PROCESSING: WHOLE RMassBank 1.3.1
PK$SPLASH: splash10-001i-0900000000-fd48026c55ced1f40fc0
PK$ANNOTATION: m/z tentative_formula formula_count mass error(ppm)
  97.0769 C5H9N2- 1 97.0771 -1.87
  126.0421 C3H4N5O- 1 126.0421 -0.66
  139.0991 C6H11N4- 1 139.0989 1.08
  182.1047 C7H12N5O- 1 182.1047 -0.02
PK$NUM_PEAK: 4
PK$PEAK: m/z int. rel.int.
  97.0769 3902.7 24
  126.0421 6786.8 42
  139.0991 9518.6 59
  182.1047 159060.8 999
//
