ACCESSION: MSBNK-Eawag-EQ01126607
RECORD_TITLE: Formetanate; LC-ESI-QFT; MS2; CE: 120%; R=17500; [M+H]+
DATE: 2023.04.27
AUTHORS: B. Beck [dtc,com], J. Hollender [dtc]
LICENSE: CC BY-SA
COPYRIGHT: Copyright (C) Eawag 2023
COMMENT: CONFIDENCE standard compound
COMMENT: UCHEM_ID 11266
CH$NAME: Formetanate
CH$NAME: [3-(dimethylaminomethylideneamino)phenyl] N-methylcarbamate
CH$COMPOUND_CLASS: N/A; Environmental Standard
CH$FORMULA: C11H15N3O2
CH$EXACT_MASS: 221.1164
CH$SMILES: CNC(=O)OC1=CC=CC(=C1)N=CN(C)C
CH$IUPAC: InChI=1S/C11H15N3O2/c1-12-11(15)16-10-6-4-5-9(7-10)13-8-14(2)3/h4-8H,1-3H3,(H,12,15)
CH$LINK: CAS 22259-30-9
CH$LINK: CHEBI CHEBI:38491
CH$LINK: PUBCHEM CID:31099
CH$LINK: INCHIKEY RMFNNCGOSPBBAD-UHFFFAOYSA-N
CH$LINK: CHEMSPIDER 15150933
AC$INSTRUMENT: Exploris 240 Orbitrap Thermo Scientific
AC$INSTRUMENT_TYPE: LC-ESI-QFT
AC$MASS_SPECTROMETRY: MS_TYPE MS2
AC$MASS_SPECTROMETRY: ION_MODE POSITIVE
AC$MASS_SPECTROMETRY: IONIZATION ESI
AC$MASS_SPECTROMETRY: FRAGMENTATION_MODE HCD
AC$MASS_SPECTROMETRY: COLLISION_ENERGY 120 % (nominal)
AC$MASS_SPECTROMETRY: RESOLUTION 17500
AC$MASS_SPECTROMETRY: MASS_RANGE_M/Z 49-248
AC$CHROMATOGRAPHY: COLUMN_NAME XBridge C18 3.5um, 2.1x50mm, Waters
AC$CHROMATOGRAPHY: FLOW_GRADIENT 90/10 at 0 min, 50/50 at 4 min, 5/95 at 17 min, 5/95 at 25 min, 90/10 at 25.1 min, 90/10 at 30 min
AC$CHROMATOGRAPHY: FLOW_RATE 200 uL/min
AC$CHROMATOGRAPHY: RETENTION_TIME 1.752 min
MS$FOCUSED_ION: BASE_PEAK 132.9582
MS$FOCUSED_ION: PRECURSOR_M/Z 222.1237
MS$FOCUSED_ION: PRECURSOR_TYPE [M+H]+
MS$DATA_PROCESSING: RECALIBRATE loess on assigned fragments and MS1
MS$DATA_PROCESSING: REANALYZE Peaks with additional N2/O included
MS$DATA_PROCESSING: WHOLE RMassBank 3.11.0.1
PK$SPLASH: splash10-014i-9500000000-9a53c4240638fac90d82
PK$ANNOTATION: m/z tentative_formula formula_count mass error(ppm)
  65.0386 C5H5+ 1 65.0386 0.19
  93.0335 C6H5O+ 1 93.0335 0.34
  109.0524 C6H7NO+ 1 109.0522 1.85
  111.0442 C6H7O2+ 1 111.0441 1.19
  120.0441 C7H6NO+ 1 120.0444 -2.09
  121.0398 C6H5N2O+ 1 121.0396 1.19
PK$NUM_PEAK: 6
PK$PEAK: m/z int. rel.int.
  65.0386 384193.2 999
  93.0335 54670.3 142
  109.0524 11635 30
  111.0442 79863.2 207
  120.0441 34592.7 89
  121.0398 123654.5 321
//
