ACCESSION: MSBNK-Eawag-EA295308
RECORD_TITLE: Methiocarb-sulfoxide; LC-ESI-ITFT; MS2; CE: 15%; R=15000; [M+H]+
DATE: 2014.01.14
AUTHORS: Stravs M, Schymanski E, Singer H, Department of Environmental Chemistry, Eawag
LICENSE: CC BY
COPYRIGHT: Copyright (C) 2012 Eawag, Duebendorf, Switzerland
COMMENT: CONFIDENCE standard compound
COMMENT: EAWAG_UCHEM_ID 2953
CH$NAME: Methiocarb-sulfoxide
CH$NAME: Mesurol sulfoxide
CH$NAME: (3,5-dimethyl-4-methylsulfinyl-phenyl) N-methylcarbamate
CH$COMPOUND_CLASS: N/A; Environmental Standard
CH$FORMULA: C11H15NO3S
CH$EXACT_MASS: 241.0773
CH$SMILES: O=C(Oc1cc(c(c(c1)C)S(=O)C)C)NC
CH$IUPAC: InChI=1S/C11H15NO3S/c1-7-5-9(15-11(13)12-3)6-8(2)10(7)16(4)14/h5-6H,1-4H3,(H,12,13)
CH$LINK: CAS 2635-10-1
CH$LINK: PUBCHEM CID:17521
CH$LINK: INCHIKEY FNCMBMZOZQAWJA-UHFFFAOYSA-N
CH$LINK: CHEMSPIDER 16568
CH$LINK: COMPTOX DTXSID8042139
AC$INSTRUMENT: LTQ Orbitrap XL Thermo Scientific
AC$INSTRUMENT_TYPE: LC-ESI-ITFT
AC$MASS_SPECTROMETRY: MS_TYPE MS2
AC$MASS_SPECTROMETRY: ION_MODE POSITIVE
AC$MASS_SPECTROMETRY: IONIZATION ESI
AC$MASS_SPECTROMETRY: FRAGMENTATION_MODE HCD
AC$MASS_SPECTROMETRY: COLLISION_ENERGY 15 % (nominal)
AC$MASS_SPECTROMETRY: RESOLUTION 15000
AC$CHROMATOGRAPHY: COLUMN_NAME XBridge C18 3.5um, 2.1x50mm, Waters
AC$CHROMATOGRAPHY: FLOW_GRADIENT 90/10 at 0 min, 50/50 at 4 min, 5/95 at 17 min, 5/95 at 25 min, 90/10 at 25.1 min, 90/10 at 30 min
AC$CHROMATOGRAPHY: FLOW_RATE 200 ul/min
AC$CHROMATOGRAPHY: RETENTION_TIME 4.9 min
AC$CHROMATOGRAPHY: SOLVENT A water with 0.1% formic acid
AC$CHROMATOGRAPHY: SOLVENT B methanol with 0.1% formic acid
MS$FOCUSED_ION: BASE_PEAK 242.0846
MS$FOCUSED_ION: PRECURSOR_M/Z 242.0845
MS$FOCUSED_ION: PRECURSOR_TYPE [M+H]+
MS$DATA_PROCESSING: DEPROFILE Spline
MS$DATA_PROCESSING: RECALIBRATE loess on assigned fragments and MS1
MS$DATA_PROCESSING: REANALYZE Peaks with additional N2/O included
MS$DATA_PROCESSING: WHOLE RMassBank 1.3.1
PK$SPLASH: splash10-000f-0890000000-b75ed7a0a591c9ca32d6
PK$ANNOTATION: m/z tentative_formula formula_count mass error(ppm)
  122.0728 C8H10O+ 1 122.0726 1.42
  170.0396 C8H10O2S+ 1 170.0396 0.22
  185.063 C9H13O2S+ 1 185.0631 -0.47
  242.0845 C11H16NO3S+ 1 242.0845 -0.17
PK$NUM_PEAK: 4
PK$PEAK: m/z int. rel.int.
  122.0728 71768.2 2
  170.0396 54565.1 1
  185.063 27037465.9 954
  242.0845 28304647 999
//
