ACCESSION: MSBNK-Eawag-EQ00016053
RECORD_TITLE: Linuron; LC-ESI-QFT; MS2; CE: 45%; R=15000; [M-H]-
DATE: 2024.06.14
AUTHORS: F. Jud [dtc], K. Arturi [dtc], J. Hollender [dtc], A. Dax [com]
LICENSE: CC BY-SA
COPYRIGHT: Copyright (C) Eawag 2024
COMMENT: CONFIDENCE standard compound
COMMENT: UCHEM_ID 160
CH$NAME: Linuron
CH$NAME: 3-(3,4-dichlorophenyl)-1-methoxy-1-methylurea
CH$COMPOUND_CLASS: N/A
CH$FORMULA: C9H10Cl2N2O2
CH$EXACT_MASS: 248.0119329
CH$SMILES: CON(C)C(=O)NC1=CC=C(Cl)C(Cl)=C1
CH$IUPAC: InChI=1S/C9H10Cl2N2O2/c1-13(15-2)9(14)12-6-3-4-7(10)8(11)5-6/h3-5H,1-2H3,(H,12,14)
CH$LINK: CAS 330-55-2
CH$LINK: CHEBI CHEBI:6482
CH$LINK: KEGG C11007
CH$LINK: PUBCHEM CID:9502
CH$LINK: INCHIKEY XKJMBINCVNINCA-UHFFFAOYSA-N
CH$LINK: CHEMSPIDER 9130
AC$INSTRUMENT: Q Exactive Plus
AC$INSTRUMENT_TYPE: LC-ESI-QFT
AC$MASS_SPECTROMETRY: MS_TYPE MS2
AC$MASS_SPECTROMETRY: ION_MODE NEGATIVE
AC$MASS_SPECTROMETRY: IONIZATION ESI
AC$MASS_SPECTROMETRY: FRAGMENTATION_MODE HCD
AC$MASS_SPECTROMETRY: COLLISION_ENERGY 45 % (nominal)
AC$MASS_SPECTROMETRY: RESOLUTION 15000
AC$MASS_SPECTROMETRY: MASS_RANGE_M/Z 50-270
AC$CHROMATOGRAPHY: COLUMN_NAME XBridge C18 3.5um, 2.1x50mm, Waters
AC$CHROMATOGRAPHY: FLOW_GRADIENT 90/10 at 0 min, 50/50 at 4 min, 5/95 at 17 min, 5/95 at 25 min, 90/10 at 25.1 min, 90/10 at 30 min
AC$CHROMATOGRAPHY: FLOW_RATE 200 uL/min
AC$CHROMATOGRAPHY: RETENTION_TIME 8.879 min
MS$FOCUSED_ION: BASE_PEAK 190.9285
MS$FOCUSED_ION: PRECURSOR_M/Z 247.0047
MS$FOCUSED_ION: PRECURSOR_TYPE [M-H]-
MS$FOCUSED_ION: PRECURSOR_INTENSITY 998182.14
MS$DATA_PROCESSING: RECALIBRATE loess on assigned fragments and MS1
MS$DATA_PROCESSING: REANALYZE Peaks with additional N2/O included
MS$DATA_PROCESSING: WHOLE RMassBank 3.15.1.1
PK$SPLASH: splash10-0a4i-0920000000-364631eee72b6be840e3
PK$ANNOTATION: m/z tentative_formula formula_count mass error(ppm)
  159.9725 C6H4Cl2N- 2 159.9726 -0.57
  214.9783 C8H5Cl2N2O- 1 214.9784 -0.54
PK$NUM_PEAK: 2
PK$PEAK: m/z int. rel.int.
  159.9725 143450.1 999
  214.9783 36087.9 251
//
