ACCESSION: MSBNK-Eawag-EQ367609
RECORD_TITLE: Doxepine; LC-ESI-QFT; MS2; CE: 180; R=35000; [M+H]+
DATE: 2015.08.25
AUTHORS: Stravs M, Schymanski E, Singer H, Department of Environmental Chemistry, Eawag and Thomaidis N, University of Athens
LICENSE: CC BY
COPYRIGHT: Copyright (C) 2015 Eawag, Duebendorf, Switzerland
COMMENT: CONFIDENCE standard compound
COMMENT: EAWAG_UCHEM_ID 3676
CH$NAME: Doxepine
CH$NAME: Doxepin
CH$NAME: 3-(6H-benzo[c][1]benzoxepin-11-ylidene)-N,N-dimethylpropan-1-amine
CH$COMPOUND_CLASS: N/A; Environmental Standard
CH$FORMULA: C19H21NO
CH$EXACT_MASS: 279.16231
CH$SMILES: CN(C)CCC=C1C2=CC=CC=C2COC3=CC=CC=C31
CH$IUPAC: InChI=1S/C19H21NO/c1-20(2)13-7-11-17-16-9-4-3-8-15(16)14-21-19-12-6-5-10-18(17)19/h3-6,8-12H,7,13-14H2,1-2H3
CH$LINK: CAS 1668-19-5
CH$LINK: CHEBI CHEBI:4710
CH$LINK: KEGG C06971
CH$LINK: PUBCHEM CID:3158
CH$LINK: INCHIKEY ODQWQRRAPPTVAG-UHFFFAOYSA-N
CH$LINK: CHEMSPIDER 3046
AC$INSTRUMENT: Q Exactive Plus Orbitrap Thermo Scientific
AC$INSTRUMENT_TYPE: LC-ESI-QFT
AC$MASS_SPECTROMETRY: MS_TYPE MS2
AC$MASS_SPECTROMETRY: ION_MODE POSITIVE
AC$MASS_SPECTROMETRY: IONIZATION ESI
AC$MASS_SPECTROMETRY: FRAGMENTATION_MODE HCD
AC$MASS_SPECTROMETRY: COLLISION_ENERGY 180 (nominal)
AC$MASS_SPECTROMETRY: RESOLUTION 35000
AC$CHROMATOGRAPHY: COLUMN_NAME XBridge C18 3.5um, 2.1x50mm, Waters
AC$CHROMATOGRAPHY: FLOW_GRADIENT 90/10 at 0 min, 50/50 at 4 min, 5/95 at 17 min, 5/95 at 25 min, 90/10 at 25.1 min, 90/10 at 30 min
AC$CHROMATOGRAPHY: FLOW_RATE 200 ul/min
AC$CHROMATOGRAPHY: RETENTION_TIME 6.8 min
AC$CHROMATOGRAPHY: SOLVENT A water with 0.1% formic acid
AC$CHROMATOGRAPHY: SOLVENT B methanol with 0.1% formic acid
MS$FOCUSED_ION: BASE_PEAK 280.1689
MS$FOCUSED_ION: PRECURSOR_M/Z 280.1696
MS$FOCUSED_ION: PRECURSOR_TYPE [M+H]+
MS$DATA_PROCESSING: RECALIBRATE loess on assigned fragments and MS1
MS$DATA_PROCESSING: REANALYZE Peaks with additional N2/O included
MS$DATA_PROCESSING: WHOLE RMassBank 1.9.6
PK$SPLASH: splash10-014r-4900000000-ce29d6e3479d635e3995
PK$ANNOTATION: m/z tentative_formula formula_count mass error(ppm)
  50.0151 C4H2+ 1 50.0151 0.57
  51.023 C4H3+ 1 51.0229 0.46
  52.0307 C4H4+ 1 52.0308 -0.8
  53.0022 C3HO+ 1 53.0022 0.36
  53.0386 C4H5+ 1 53.0386 0.25
  53.9974 C2NO+ 1 53.9974 0
  54.0339 C3H4N+ 1 54.0338 0.45
  55.0179 C3H3O+ 1 55.0178 0.34
  56.0495 C3H6N+ 1 56.0495 0.26
  58.0651 C3H8N+ 1 58.0651 -0.1
  61.0072 C5H+ 1 61.0073 -0.6
  62.0151 C5H2+ 1 62.0151 -0.19
  63.0229 C5H3+ 1 63.0229 -0.1
  65.0386 C5H5+ 1 65.0386 -0.25
  67.0416 C4H5N+ 1 67.0417 -0.75
  67.0542 C5H7+ 1 67.0542 -0.84
  67.9893 C3O2+ 1 67.9893 -0.3
  68.0495 C4H6N+ 1 68.0495 -0.23
  69.0574 C4H7N+ 1 69.0573 1.87
  70.0651 C4H8N+ 1 70.0651 0.06
  74.015 C6H2+ 1 74.0151 -1.37
  75.0229 C6H3+ 1 75.0229 -1.02
  76.0307 C6H4+ 1 76.0308 -0.94
  77.0385 C6H5+ 1 77.0386 -0.86
  78.0464 C6H6+ 1 78.0464 -0.41
  79.0542 C6H7+ 1 79.0542 -0.21
  81.0334 C5H5O+ 1 81.0335 -0.76
  84.0808 C5H10N+ 1 84.0808 -0.07
  86.0151 C7H2+ 1 86.0151 -0.48
  87.0229 C7H3+ 1 87.0229 -0.19
  88.0308 C7H4+ 1 88.0308 0.44
  89.0386 C7H5+ 1 89.0386 -0.3
  90.0464 C7H6+ 1 90.0464 0.09
  91.0542 C7H7+ 1 91.0542 0.04
  94.0413 C6H6O+ 1 94.0413 -0.17
  95.0491 C6H7O+ 1 95.0491 -0.12
  101.0385 C8H5+ 1 101.0386 -0.86
  102.0464 C8H6+ 1 102.0464 -0.11
  103.0542 C8H7+ 1 103.0542 -0.26
  105.0447 C6H5N2+ 1 105.0447 0.05
  107.0492 C7H7O+ 1 107.0491 0.27
  113.0385 C9H5+ 1 113.0386 -0.32
  114.0464 C9H6+ 1 114.0464 0.16
  115.0542 C9H7+ 1 115.0542 0.12
  116.062 C9H8+ 1 116.0621 -0.36
  119.0491 C8H7O+ 1 119.0491 -0.43
  125.0385 C10H5+ 1 125.0386 -0.29
  126.0464 C10H6+ 1 126.0464 -0.25
  127.0542 C10H7+ 1 127.0542 0.11
  128.062 C10H8+ 1 128.0621 -0.09
  129.0447 C8H5N2+ 1 129.0447 -0.27
  132.057 C9H8O+ 1 132.057 -0.05
  138.0464 C11H6+ 1 138.0464 -0.3
  139.0542 C11H7+ 1 139.0542 0.02
  140.062 C11H8+ 1 140.0621 -0.01
  141.0698 C11H9+ 1 141.0699 -0.76
  143.049 C10H7O+ 1 143.0491 -0.71
  145.065 C10H9O+ 1 145.0648 1.16
  150.0464 C12H6+ 1 150.0464 0.26
  151.0542 C12H7+ 1 151.0542 -0.04
  152.0621 C12H8+ 1 152.0621 0.12
  155.0603 C10H7N2+ 1 155.0604 -0.35
  162.0462 C13H6+ 1 162.0464 -1.12
  163.0542 C13H7+ 1 163.0542 -0.04
  164.062 C13H8+ 1 164.0621 -0.31
  165.0699 C13H9+ 1 165.0699 0.2
  168.057 C12H8O+ 1 168.057 -0.1
  169.0648 C12H9O+ 1 169.0648 -0.07
  174.0465 C14H6+ 1 174.0464 0.34
  175.0543 C14H7+ 1 175.0542 0.65
  176.0621 C14H8+ 1 176.0621 0.16
  177.0699 C14H9+ 1 177.0699 0.08
  178.0776 C14H10+ 1 178.0777 -0.8
  179.0603 C12H7N2+ 1 179.0604 -0.25
  187.0542 C15H7+ 1 187.0542 -0.04
  188.062 C15H8+ 1 188.0621 -0.01
  189.0699 C15H9+ 1 189.0699 -0.14
  190.0777 C15H10+ 1 190.0777 -0.01
  191.086 C15H11+ 1 191.0855 2.58
  192.057 C14H8O+ 1 192.057 -0.08
  193.0649 C14H9O+ 1 193.0648 0.3
  196.0519 C13H8O2+ 1 196.0519 0.2
  198.0464 C16H6+ 1 198.0464 -0.11
  199.0543 C16H7+ 1 199.0542 0.27
  200.062 C16H8+ 1 200.0621 -0.01
  201.0699 C16H9+ 1 201.0699 -0.08
  202.0777 C16H10+ 1 202.0777 -0.26
  203.0604 C14H7N2+ 1 203.0604 0.22
  205.0646 C15H9O+ 1 205.0648 -1.03
  211.0541 C17H7+ 1 211.0542 -0.74
  213.0699 C17H9+ 1 213.0699 0.11
  214.0778 C17H10+ 1 214.0777 0.41
  215.0854 C17H11+ 1 215.0855 -0.82
  217.0648 C16H9O+ 1 217.0648 0.22
  218.0726 C16H10O+ 1 218.0726 -0.17
  219.0804 C16H11O+ 1 219.0804 -0.28
PK$NUM_PEAK: 101
PK$PEAK: m/z int. rel.int.
  50.0151 16812922 277
  51.023 17264562 284
  52.0307 156029.9 2
  53.0022 2372611.8 39
  53.0386 9885859 162
  53.9974 429308.6 7
  54.0339 207709.7 3
  55.0179 2120437.2 34
  56.0495 1212130.2 19
  58.0651 4693518 77
  61.0072 880353.6 14
  62.0151 3728191.2 61
  63.0229 19007242 313
  65.0386 35707000 588
  67.0416 160604.6 2
  67.0542 141511.4 2
  67.9893 423215.4 6
  68.0495 2088358.9 34
  69.0574 104537.4 1
  70.0651 637651.2 10
  74.015 2134292.8 35
  75.0229 3796045.5 62
  76.0307 2730741.2 45
  77.0385 17944092 295
  78.0464 6083802.5 100
  79.0542 1293405.6 21
  81.0334 1295510 21
  84.0808 722184 11
  86.0151 933696.7 15
  87.0229 2796888 46
  88.0308 700523.2 11
  89.0386 21865276 360
  90.0464 199907.3 3
  91.0542 17935696 295
  94.0413 403665.9 6
  95.0491 20747686 342
  98.0151 1162102.75 19
  99.0228 762226.625 12
  101.0385 196832.1 3
  102.0464 11562594 190
  103.0542 1106268.6 18
  105.0447 13756334 226
  107.0492 240798.1 3
  113.0385 2619779.8 43
  114.0464 1007011.9 16
  115.0542 60589152 999
  116.062 178083.9 2
  119.0491 142123.9 2
  125.0385 1288901.1 21
  126.0464 9156563 150
  127.0542 3052931.8 50
  128.062 13105296 216
  129.0447 839102.9 13
  132.057 180001.7 2
  137.0385 634947.3125 10
  138.0464 737898.9 12
  139.0542 23965136 395
  140.062 660196.8 10
  141.0698 1240612.8 20
  143.049 166710 2
  145.065 946628.2 15
  149.0385 856531.9375 14
  150.0464 15746872 259
  151.0542 6703068 110
  152.0621 22030364 363
  155.0603 2980952.2 49
  162.0462 1154342.1 19
  163.0542 29046252 478
  164.062 15964503 263
  165.0699 34035588 561
  167.0492 634377.0625 10
  168.057 6152071 101
  169.0648 14094044 232
  174.0465 3515928.5 57
  175.0543 1282781.4 21
  176.0621 20017916 330
  177.0699 2429365.2 40
  178.0776 2160503.8 35
  179.0603 5190902 85
  187.0542 8663363 142
  188.062 5507690 90
  189.0699 43952952 724
  190.0777 467262.2 7
  191.086 117491.8 1
  192.057 2021641 33
  193.0649 1399679.5 23
  196.0519 1959405.2 32
  198.0464 1111698.2 18
  199.0543 2223776.5 36
  200.062 21320764 351
  201.0699 2441870 40
  202.0777 3801271.2 62
  203.0604 689894.1 11
  205.0646 864669.2 14
  211.0541 930319.8 15
  213.0699 9023514 148
  214.0778 175552.7 2
  215.0854 893413.8 14
  217.0648 766286.7 12
  218.0726 214035.3 3
  219.0804 563715.7 9
//
