ACCESSION: MSBNK-Eawag-EA065714
RECORD_TITLE: Clindamycin; LC-ESI-ITFT; MS2; CE: 35%; R=30000; [M+H]+
DATE: 2014.01.14
AUTHORS: Stravs M, Schymanski E, Singer H, Department of Environmental Chemistry, Eawag
LICENSE: CC BY
COPYRIGHT: Copyright (C) 2012 Eawag, Duebendorf, Switzerland
COMMENT: CONFIDENCE standard compound
COMMENT: EAWAG_UCHEM_ID 657
CH$NAME: Clindamycin
CH$NAME: (2S,4R)-N-[2-chloranyl-1-[(2R,3R,4S,5R,6R)-6-methylsulfanyl-3,4,5-tris(oxidanyl)oxan-2-yl]propyl]-1-methyl-4-propyl-pyrrolidine-2-carboxamide
CH$COMPOUND_CLASS: N/A; Environmental Standard
CH$FORMULA: C18H33ClN2O5S
CH$EXACT_MASS: 424.1799
CH$SMILES: CCC[C@@H]1C[C@H](N(C1)C)C(=O)NC([C@@H]2[C@@H]([C@@H]([C@H]([C@H](O2)SC)O)O)O)C(C)Cl
CH$IUPAC: InChI=1S/C18H33ClN2O5S/c1-5-6-10-7-11(21(3)8-10)17(25)20-12(9(2)19)16-14(23)13(22)15(24)18(26-16)27-4/h9-16,18,22-24H,5-8H2,1-4H3,(H,20,25)/t9?,10-,11+,12?,13+,14-,15-,16-,18-/m1/s1
CH$LINK: CAS 18323-44-9
CH$LINK: CHEBI CHEBI:3745
CH$LINK: KEGG C06914
CH$LINK: PUBCHEM CID:29029
CH$LINK: INCHIKEY KDLRVYVGXIQJDK-NOWPCOIGSA-N
CH$LINK: CHEMSPIDER 27005
CH$LINK: COMPTOX DTXSID90928608
AC$INSTRUMENT: LTQ Orbitrap XL Thermo Scientific
AC$INSTRUMENT_TYPE: LC-ESI-ITFT
AC$MASS_SPECTROMETRY: MS_TYPE MS2
AC$MASS_SPECTROMETRY: ION_MODE POSITIVE
AC$MASS_SPECTROMETRY: IONIZATION ESI
AC$MASS_SPECTROMETRY: FRAGMENTATION_MODE CID
AC$MASS_SPECTROMETRY: COLLISION_ENERGY 35 % (nominal)
AC$MASS_SPECTROMETRY: RESOLUTION 30000
AC$CHROMATOGRAPHY: COLUMN_NAME XBridge C18 3.5um, 2.1x50mm, Waters
AC$CHROMATOGRAPHY: FLOW_GRADIENT 90/10 at 0 min, 50/50 at 4 min, 5/95 at 17 min, 5/95 at 25 min, 90/10 at 25.1 min, 90/10 at 30 min
AC$CHROMATOGRAPHY: FLOW_RATE 200 ul/min
AC$CHROMATOGRAPHY: RETENTION_TIME 6.7 min
AC$CHROMATOGRAPHY: SOLVENT A water with 0.1% formic acid
AC$CHROMATOGRAPHY: SOLVENT B methanol with 0.1% formic acid
MS$FOCUSED_ION: BASE_PEAK 425.1886
MS$FOCUSED_ION: PRECURSOR_M/Z 425.1871
MS$FOCUSED_ION: PRECURSOR_TYPE [M+H]+
MS$DATA_PROCESSING: DEPROFILE Spline
MS$DATA_PROCESSING: RECALIBRATE loess on assigned fragments and MS1
MS$DATA_PROCESSING: REANALYZE Peaks with additional N2/O included
MS$DATA_PROCESSING: WHOLE RMassBank 1.3.1
PK$SPLASH: splash10-004i-0109100000-41472a595b36c3659456
PK$ANNOTATION: m/z tentative_formula formula_count mass error(ppm)
  126.1277 C8H16N+ 1 126.1277 0.11
  172.1331 C9H18NO2+ 1 172.1332 -0.44
  299.1964 C15H27N2O4+ 1 299.1965 -0.48
  305.1625 C14H26ClN2O3+ 2 305.1626 -0.55
  323.1968 C17H27N2O4+ 2 323.1965 0.98
  335.173 C18H25NO5+ 2 335.1727 0.7
  341.2069 C17H29N2O5+ 1 341.2071 -0.58
  353.1053 C14H24ClNO5S+ 1 353.1058 -1.34
  353.1889 C18H29N2O3S+ 2 353.1893 -1.36
  371.1996 C18H31N2O4S+ 1 371.1999 -0.77
  377.1841 C17H30ClN2O5+ 1 377.1838 0.73
  389.2102 C18H33N2O5S+ 1 389.2105 -0.67
  407.1762 C18H32ClN2O4S+ 1 407.1766 -0.84
PK$NUM_PEAK: 13
PK$PEAK: m/z int. rel.int.
  126.1277 780791.4 298
  172.1331 41906.4 15
  299.1964 56897.8 21
  305.1625 41150.3 15
  323.1968 14041.3 5
  335.173 268159.8 102
  341.2069 145335.7 55
  353.1053 4042.6 1
  353.1889 18034.7 6
  371.1996 80192 30
  377.1841 2616639.3 999
  389.2102 623631.4 238
  407.1762 598212 228
//
