ACCESSION: MSBNK-Eawag-EQ369458
RECORD_TITLE: 1-Chlorobenzotriazole; LC-ESI-QFT; MS2; CE: 150; R=35000; [M-H]-
DATE: 2015.08.26
AUTHORS: Stravs M, Schymanski E, Singer H, Department of Environmental Chemistry, Eawag and Thomaidis N, University of Athens
LICENSE: CC BY
COPYRIGHT: Copyright (C) 2015 Eawag, Duebendorf, Switzerland
COMMENT: CONFIDENCE standard compound
COMMENT: EAWAG_UCHEM_ID 3694
CH$NAME: 1-Chlorobenzotriazole
CH$NAME: 1-chloro-benzotriazole
CH$NAME: Chlorobenzotriazole
CH$COMPOUND_CLASS: N/A; Environmental Standard
CH$FORMULA: C6H4ClN3
CH$EXACT_MASS: 153.00937
CH$SMILES: C1=CC=C2C(=C1)N=NN2Cl
CH$IUPAC: InChI=1S/C6H4ClN3/c7-10-6-4-2-1-3-5(6)8-9-10/h1-4H
CH$LINK: CAS 21050-95-3
CH$LINK: PUBCHEM CID:88761
CH$LINK: INCHIKEY INOGLHRUEYDAHX-UHFFFAOYSA-N
CH$LINK: CHEMSPIDER 80093
CH$LINK: COMPTOX DTXSID50175272
AC$INSTRUMENT: Q Exactive Plus Orbitrap Thermo Scientific
AC$INSTRUMENT_TYPE: LC-ESI-QFT
AC$MASS_SPECTROMETRY: MS_TYPE MS2
AC$MASS_SPECTROMETRY: ION_MODE NEGATIVE
AC$MASS_SPECTROMETRY: IONIZATION ESI
AC$MASS_SPECTROMETRY: FRAGMENTATION_MODE HCD
AC$MASS_SPECTROMETRY: COLLISION_ENERGY 150 (nominal)
AC$MASS_SPECTROMETRY: RESOLUTION 35000
AC$CHROMATOGRAPHY: COLUMN_NAME XBridge C18 3.5um, 2.1x50mm, Waters
AC$CHROMATOGRAPHY: FLOW_GRADIENT 90/10 at 0 min, 50/50 at 4 min, 5/95 at 17 min, 5/95 at 25 min, 90/10 at 25.1 min, 90/10 at 30 min
AC$CHROMATOGRAPHY: FLOW_RATE 200 ul/min
AC$CHROMATOGRAPHY: RETENTION_TIME 6.3 min
AC$CHROMATOGRAPHY: SOLVENT A water with 0.1% formic acid
AC$CHROMATOGRAPHY: SOLVENT B methanol with 0.1% formic acid
MS$FOCUSED_ION: BASE_PEAK 152.0019
MS$FOCUSED_ION: PRECURSOR_M/Z 152.0021
MS$FOCUSED_ION: PRECURSOR_TYPE [M-H]-
MS$DATA_PROCESSING: RECALIBRATE loess on assigned fragments and MS1
MS$DATA_PROCESSING: REANALYZE Peaks with additional N2/O included
MS$DATA_PROCESSING: WHOLE RMassBank 1.9.6
PK$SPLASH: splash10-000i-9000000000-a47c60fa56940ddc3f1c
PK$ANNOTATION: m/z tentative_formula formula_count mass error(ppm)
  50.0035 C3N- 1 50.0036 -1.45
  61.0084 C5H- 1 61.0084 -0.06
  66.0098 C2N3- 1 66.0098 0.29
  77.0032 C5HO- 1 77.0033 -1.28
  87.0114 C6HN- 1 87.0114 -0.43
  88.0192 C6H2N- 1 88.0193 -0.37
  116.0253 C6H2N3- 1 116.0254 -0.87
PK$NUM_PEAK: 7
PK$PEAK: m/z int. rel.int.
  50.0035 967673.4 360
  61.0084 862601.9 321
  66.0098 77731.8 28
  77.0032 86383.8 32
  87.0114 306873 114
  88.0192 2680446 999
  116.0253 291483.9 108
//
