ACCESSION: MSBNK-Eawag-EQ372303
RECORD_TITLE: Tetraconazole; LC-ESI-QFT; MS2; CE: 45; R=35000; [M+H]+
DATE: 2015.08.25
AUTHORS: Stravs M, Schymanski E, Singer H, Department of Environmental Chemistry, Eawag and Thomaidis N, University of Athens
LICENSE: CC BY
COPYRIGHT: Copyright (C) 2015 Eawag, Duebendorf, Switzerland
COMMENT: CONFIDENCE standard compound
COMMENT: EAWAG_UCHEM_ID 3723
CH$NAME: Tetraconazole
CH$NAME: 1-[2-(2,4-dichlorophenyl)-3-(1,1,2,2-tetrafluoroethoxy)propyl]-1,2,4-triazole
CH$COMPOUND_CLASS: N/A; Environmental Standard
CH$FORMULA: C13H11Cl2F4N3O
CH$EXACT_MASS: 371.02153
CH$SMILES: C1=CC(=C(C=C1Cl)Cl)C(CN2C=NC=N2)COC(C(F)F)(F)F
CH$IUPAC: InChI=1S/C13H11Cl2F4N3O/c14-9-1-2-10(11(15)3-9)8(4-22-7-20-6-21-22)5-23-13(18,19)12(16)17/h1-3,6-8,12H,4-5H2
CH$LINK: CAS 112281-77-3
CH$LINK: CHEBI CHEBI:81782
CH$LINK: KEGG C18490
CH$LINK: PUBCHEM CID:80277
CH$LINK: INCHIKEY LQDARGUHUSPFNL-UHFFFAOYSA-N
CH$LINK: CHEMSPIDER 72518
CH$LINK: COMPTOX DTXSID8034956
AC$INSTRUMENT: Q Exactive Plus Orbitrap Thermo Scientific
AC$INSTRUMENT_TYPE: LC-ESI-QFT
AC$MASS_SPECTROMETRY: MS_TYPE MS2
AC$MASS_SPECTROMETRY: ION_MODE POSITIVE
AC$MASS_SPECTROMETRY: IONIZATION ESI
AC$MASS_SPECTROMETRY: FRAGMENTATION_MODE HCD
AC$MASS_SPECTROMETRY: COLLISION_ENERGY 45 (nominal)
AC$MASS_SPECTROMETRY: RESOLUTION 35000
AC$CHROMATOGRAPHY: COLUMN_NAME XBridge C18 3.5um, 2.1x50mm, Waters
AC$CHROMATOGRAPHY: FLOW_GRADIENT 90/10 at 0 min, 50/50 at 4 min, 5/95 at 17 min, 5/95 at 25 min, 90/10 at 25.1 min, 90/10 at 30 min
AC$CHROMATOGRAPHY: FLOW_RATE 200 ul/min
AC$CHROMATOGRAPHY: RETENTION_TIME 11.8 min
AC$CHROMATOGRAPHY: SOLVENT A water with 0.1% formic acid
AC$CHROMATOGRAPHY: SOLVENT B methanol with 0.1% formic acid
MS$FOCUSED_ION: BASE_PEAK 372.0281
MS$FOCUSED_ION: PRECURSOR_M/Z 372.0288
MS$FOCUSED_ION: PRECURSOR_TYPE [M+H]+
MS$DATA_PROCESSING: RECALIBRATE loess on assigned fragments and MS1
MS$DATA_PROCESSING: REANALYZE Peaks with additional N2/O included
MS$DATA_PROCESSING: WHOLE RMassBank 1.9.6
PK$SPLASH: splash10-0ab9-4900000000-267f176cf73d6326ddaa
PK$ANNOTATION: m/z tentative_formula formula_count mass error(ppm)
  59.0291 C3H4F+ 1 59.0292 -0.42
  70.0399 C2H4N3+ 1 70.04 -0.62
  89.0381 C2H4FN3+ 1 89.0384 -2.77
  149.0153 C9H6Cl+ 2 149.0153 0.44
  150.0231 C9H7Cl+ 3 150.0231 0.27
  158.9762 C2H4Cl2FN3+ 3 158.9761 0.99
  176.9669 C7H4Cl2F+ 3 176.9669 0.06
  184.992 C9H7Cl2+ 3 184.9919 0.1
  204.9982 C9H8Cl2F+ 4 204.9982 0.34
  372.0288 C13H12Cl2F4N3O+ 1 372.0288 -0.07
PK$NUM_PEAK: 10
PK$PEAK: m/z int. rel.int.
  59.0291 22319.2 1
  70.0399 9377242 516
  89.0381 21746.2 1
  149.0153 530119.6 29
  150.0231 1123642 61
  158.9762 18120368 999
  176.9669 306468.1 16
  184.992 764320.5 42
  204.9982 165094.1 9
  372.0288 77475.7 4
//
