ACCESSION: MSBNK-Eawag-EQ01150553
RECORD_TITLE: Theophylline; LC-ESI-QFT; MS2; CE: 45%; R=17500; [M-H]-
DATE: 2024.05.08
AUTHORS: C. Meyer [dtc], B. Beck [dtc,com], J. Hollender [dtc]
LICENSE: CC BY-SA
COPYRIGHT: Copyright (C) Eawag 2023
PUBLICATION: Meyer, C., Stravs, M., Hollender, J.. How Wastewater Reflects Human Metabolism - Suspect Screening of Pharmaceutical Metabolites in Wastewater Influent. doi:10.1021/acs.est.4c00968
COMMENT: CONFIDENCE standard compound
COMMENT: UCHEM_ID 11505
CH$NAME: Theophylline
CH$NAME: 1,3-dimethyl-7H-purine-2,6-dione
CH$COMPOUND_CLASS: N/A; Environmental Standard
CH$FORMULA: C7H8N4O2
CH$EXACT_MASS: 180.0647255
CH$SMILES: CN1C2=C(C(=O)N(C1=O)C)NC=N2
CH$IUPAC: InChI=1S/C7H8N4O2/c1-10-5-4(8-3-9-5)6(12)11(2)7(10)13/h3H,1-2H3,(H,8,9)
CH$LINK: CHEBI CHEBI:28177
CH$LINK: PUBCHEM CID:2153
CH$LINK: INCHIKEY ZFXYFBGIUFBOJW-UHFFFAOYSA-N
CH$LINK: CHEMSPIDER 2068
AC$INSTRUMENT: Exploris 240 Orbitrap Thermo Scientific
AC$INSTRUMENT_TYPE: LC-ESI-QFT
AC$MASS_SPECTROMETRY: MS_TYPE MS2
AC$MASS_SPECTROMETRY: ION_MODE NEGATIVE
AC$MASS_SPECTROMETRY: IONIZATION ESI
AC$MASS_SPECTROMETRY: FRAGMENTATION_MODE HCD
AC$MASS_SPECTROMETRY: COLLISION_ENERGY 45 % (nominal)
AC$MASS_SPECTROMETRY: RESOLUTION 17500
AC$MASS_SPECTROMETRY: MASS_RANGE_M/Z 40-204
AC$CHROMATOGRAPHY: COLUMN_NAME XBridge C18 3.5um, 2.1x50mm, Waters
AC$CHROMATOGRAPHY: FLOW_GRADIENT 90/10 at 0 min, 50/50 at 4 min, 5/95 at 17 min, 5/95 at 25 min, 90/10 at 25.1 min, 90/10 at 30 min
AC$CHROMATOGRAPHY: FLOW_RATE 200 uL/min
AC$CHROMATOGRAPHY: RETENTION_TIME 2.608 min
MS$FOCUSED_ION: BASE_PEAK 179.0574
MS$FOCUSED_ION: PRECURSOR_M/Z 179.0574
MS$FOCUSED_ION: PRECURSOR_TYPE [M-H]-
MS$DATA_PROCESSING: RECALIBRATE loess on assigned fragments and MS1
MS$DATA_PROCESSING: REANALYZE Peaks with additional N2/O included
MS$DATA_PROCESSING: WHOLE RMassBank 3.15.1
PK$SPLASH: splash10-004i-0900000000-bf2b895da78157e50705
PK$ANNOTATION: m/z tentative_formula formula_count mass error(ppm)
  94.0411 C4H4N3- 1 94.0411 0.24
  122.036 C5H4N3O- 1 122.036 -0.17
  140.046 C5H6N3O2- 1 140.0466 -3.65
  164.034 C6H4N4O2- 1 164.034 -0.1
  179.0574 C7H7N4O2- 1 179.0574 -0.25
PK$NUM_PEAK: 5
PK$PEAK: m/z int. rel.int.
  94.0411 143987.9 3
  122.036 5120168 129
  140.046 138127.5 3
  164.034 11800528 298
  179.0574 39477788 999
//
