ACCESSION: MSBNK-Eawag-EQ01137352
RECORD_TITLE: Imibenconazole; LC-ESI-QFT; MS2; CE: 30%; R=17500; [M-H]-
DATE: 2023.04.27
AUTHORS: B. Beck [dtc,com], J. Hollender [dtc]
LICENSE: CC BY-SA
COPYRIGHT: Copyright (C) Eawag 2023
COMMENT: CONFIDENCE standard compound
COMMENT: UCHEM_ID 11373
CH$NAME: Imibenconazole
CH$NAME: (4-chlorophenyl)methyl N-(2,4-dichlorophenyl)-2-(1,2,4-triazol-1-yl)ethanimidothioate
CH$COMPOUND_CLASS: N/A; Environmental Standard
CH$FORMULA: C17H13Cl3N4S
CH$EXACT_MASS: 409.9927
CH$SMILES: C1=CC(=CC=C1CSC(=NC2=C(C=C(C=C2)Cl)Cl)CN3C=NC=N3)Cl
CH$IUPAC: InChI=1S/C17H13Cl3N4S/c18-13-3-1-12(2-4-13)9-25-17(8-24-11-21-10-22-24)23-16-6-5-14(19)7-15(16)20/h1-7,10-11H,8-9H2
CH$LINK: CHEBI CHEBI:81767
CH$LINK: PUBCHEM CID:93483
CH$LINK: INCHIKEY AGKSTYPVMZODRV-UHFFFAOYSA-N
CH$LINK: CHEMSPIDER 21257418
AC$INSTRUMENT: Exploris 240 Orbitrap Thermo Scientific
AC$INSTRUMENT_TYPE: LC-ESI-QFT
AC$MASS_SPECTROMETRY: MS_TYPE MS2
AC$MASS_SPECTROMETRY: ION_MODE NEGATIVE
AC$MASS_SPECTROMETRY: IONIZATION ESI
AC$MASS_SPECTROMETRY: FRAGMENTATION_MODE HCD
AC$MASS_SPECTROMETRY: COLLISION_ENERGY 30 % (nominal)
AC$MASS_SPECTROMETRY: RESOLUTION 17500
AC$MASS_SPECTROMETRY: MASS_RANGE_M/Z 50-438
AC$CHROMATOGRAPHY: COLUMN_NAME XBridge C18 3.5um, 2.1x50mm, Waters
AC$CHROMATOGRAPHY: FLOW_GRADIENT 90/10 at 0 min, 50/50 at 4 min, 5/95 at 17 min, 5/95 at 25 min, 90/10 at 25.1 min, 90/10 at 30 min
AC$CHROMATOGRAPHY: FLOW_RATE 200 uL/min
AC$CHROMATOGRAPHY: RETENTION_TIME 13.621 min
MS$FOCUSED_ION: BASE_PEAK 408.9851
MS$FOCUSED_ION: PRECURSOR_M/Z 408.9854
MS$FOCUSED_ION: PRECURSOR_TYPE [M-H]-
MS$DATA_PROCESSING: RECALIBRATE loess on assigned fragments and MS1
MS$DATA_PROCESSING: REANALYZE Peaks with additional N2/O included
MS$DATA_PROCESSING: WHOLE RMassBank 3.11.0.1
PK$SPLASH: splash10-0udi-0190000000-e03ec938d528c8ad9e33
PK$ANNOTATION: m/z tentative_formula formula_count mass error(ppm)
  68.0254 C2H2N3- 1 68.0254 0.32
  106.0284 C4H2N4- 1 106.0285 -1
  144.9614 C6H3Cl2- 1 144.9617 -2.35
  156.9885 C7H6ClS- 1 156.9884 0.58
  169.9575 C7H2Cl2N- 1 169.957 3.03
  250.9901 C10H5Cl2N4- 1 250.9897 1.6
  303.9765 C15H8Cl2NS- 1 303.976 1.7
PK$NUM_PEAK: 7
PK$PEAK: m/z int. rel.int.
  68.0254 474933 10
  106.0284 361385.9 8
  144.9614 138890.8 3
  156.9885 6457108.5 149
  169.9575 281552.1 6
  250.9901 43213460 999
  303.9765 262742.2 6
//
