ACCESSION: MSBNK-Eawag-EA066553
RECORD_TITLE: Propachlor ESA; LC-ESI-ITFT; MS2; CE: 30%; R=7500; [M-H]-
DATE: 2014.01.14
AUTHORS: Stravs M, Schymanski E, Singer H, Department of Environmental Chemistry, Eawag
LICENSE: CC BY
COPYRIGHT: Copyright (C) 2012 Eawag, Duebendorf, Switzerland
COMMENT: CONFIDENCE standard compound
COMMENT: EAWAG_UCHEM_ID 665
CH$NAME: Propachlor ESA
CH$NAME: 2-[Isopropyl(phenyl)amino]-2-oxoethanesulfonic acid
CH$COMPOUND_CLASS: N/A; Environmental Standard
CH$FORMULA: C11H15NO4S
CH$EXACT_MASS: 257.0722
CH$SMILES: O=S(=O)(O)CC(=O)N(c1ccccc1)C(C)C
CH$IUPAC: InChI=1S/C11H15NO4S/c1-9(2)12(10-6-4-3-5-7-10)11(13)8-17(14,15)16/h3-7,9H,8H2,1-2H3,(H,14,15,16)
CH$LINK: CAS 123732-85-4
CH$LINK: PUBCHEM CID:16212221
CH$LINK: INCHIKEY BFSZJLBDHMMCAH-UHFFFAOYSA-N
CH$LINK: CHEMSPIDER 17340099
CH$LINK: COMPTOX DTXSID20891452
AC$INSTRUMENT: LTQ Orbitrap XL Thermo Scientific
AC$INSTRUMENT_TYPE: LC-ESI-ITFT
AC$MASS_SPECTROMETRY: MS_TYPE MS2
AC$MASS_SPECTROMETRY: ION_MODE NEGATIVE
AC$MASS_SPECTROMETRY: IONIZATION ESI
AC$MASS_SPECTROMETRY: FRAGMENTATION_MODE HCD
AC$MASS_SPECTROMETRY: COLLISION_ENERGY 30 % (nominal)
AC$MASS_SPECTROMETRY: RESOLUTION 7500
AC$CHROMATOGRAPHY: COLUMN_NAME XBridge C18 3.5um, 2.1x50mm, Waters
AC$CHROMATOGRAPHY: FLOW_GRADIENT 90/10 at 0 min, 50/50 at 4 min, 5/95 at 17 min, 5/95 at 25 min, 90/10 at 25.1 min, 90/10 at 30 min
AC$CHROMATOGRAPHY: FLOW_RATE 200 ul/min
AC$CHROMATOGRAPHY: RETENTION_TIME 5.7 min
AC$CHROMATOGRAPHY: SOLVENT A water with 0.1% formic acid
AC$CHROMATOGRAPHY: SOLVENT B methanol with 0.1% formic acid
MS$FOCUSED_ION: BASE_PEAK 256.0648
MS$FOCUSED_ION: PRECURSOR_M/Z 256.0649
MS$FOCUSED_ION: PRECURSOR_TYPE [M-H]-
MS$DATA_PROCESSING: DEPROFILE Spline
MS$DATA_PROCESSING: RECALIBRATE loess on assigned fragments and MS1
MS$DATA_PROCESSING: REANALYZE Peaks with additional N2/O included
MS$DATA_PROCESSING: WHOLE RMassBank 1.3.1
PK$SPLASH: splash10-0a4i-0090000000-ab247770060074e3401f
PK$ANNOTATION: m/z tentative_formula formula_count mass error(ppm)
  76.9704 CHO2S- 1 76.9703 2.03
  79.9574 O3S- 1 79.9574 1.08
  120.9606 C2HO4S- 1 120.9601 4.03
  214.0185 C8H8NO4S- 1 214.018 2.33
  256.0657 C11H14NO4S- 1 256.0649 3.11
PK$NUM_PEAK: 5
PK$PEAK: m/z int. rel.int.
  76.9704 17240.6 16
  79.9574 30922.3 29
  120.9606 64487.8 60
  214.0185 5759.3 5
  256.0657 1064418.6 999
//
