ACCESSION: MSBNK-Eawag-EQ367306
RECORD_TITLE: Dimethyl-phthalate; LC-ESI-QFT; MS2; CE: 90; R=35000; [M+H]+
DATE: 2015.08.25
AUTHORS: Stravs M, Schymanski E, Singer H, Department of Environmental Chemistry, Eawag and Thomaidis N, University of Athens
LICENSE: CC BY
COPYRIGHT: Copyright (C) 2015 Eawag, Duebendorf, Switzerland
COMMENT: CONFIDENCE standard compound
COMMENT: EAWAG_UCHEM_ID 3673
CH$NAME: Dimethyl-phthalate
CH$NAME: Dimethyl phthalate
CH$NAME: Dimethyl benzene-1,2-dicarboxylate
CH$COMPOUND_CLASS: N/A; Environmental Standard
CH$FORMULA: C10H10O4
CH$EXACT_MASS: 194.05791
CH$SMILES: COC(=O)C1=CC=CC=C1C(=O)OC
CH$IUPAC: InChI=1S/C10H10O4/c1-13-9(11)7-5-3-4-6-8(7)10(12)14-2/h3-6H,1-2H3
CH$LINK: CAS 131-11-3
CH$LINK: CHEBI CHEBI:4609
CH$LINK: KEGG C11233
CH$LINK: PUBCHEM CID:8554
CH$LINK: INCHIKEY NIQCNGHVCWTJSM-UHFFFAOYSA-N
CH$LINK: CHEMSPIDER 13837329
CH$LINK: COMPTOX DTXSID3022455
AC$INSTRUMENT: Q Exactive Plus Orbitrap Thermo Scientific
AC$INSTRUMENT_TYPE: LC-ESI-QFT
AC$MASS_SPECTROMETRY: MS_TYPE MS2
AC$MASS_SPECTROMETRY: ION_MODE POSITIVE
AC$MASS_SPECTROMETRY: IONIZATION ESI
AC$MASS_SPECTROMETRY: FRAGMENTATION_MODE HCD
AC$MASS_SPECTROMETRY: COLLISION_ENERGY 90 (nominal)
AC$MASS_SPECTROMETRY: RESOLUTION 35000
AC$CHROMATOGRAPHY: COLUMN_NAME XBridge C18 3.5um, 2.1x50mm, Waters
AC$CHROMATOGRAPHY: FLOW_GRADIENT 90/10 at 0 min, 50/50 at 4 min, 5/95 at 17 min, 5/95 at 25 min, 90/10 at 25.1 min, 90/10 at 30 min
AC$CHROMATOGRAPHY: FLOW_RATE 200 ul/min
AC$CHROMATOGRAPHY: RETENTION_TIME 6.5 min
AC$CHROMATOGRAPHY: SOLVENT A water with 0.1% formic acid
AC$CHROMATOGRAPHY: SOLVENT B methanol with 0.1% formic acid
MS$FOCUSED_ION: BASE_PEAK 163.0386
MS$FOCUSED_ION: PRECURSOR_M/Z 195.0652
MS$FOCUSED_ION: PRECURSOR_TYPE [M+H]+
MS$DATA_PROCESSING: RECALIBRATE loess on assigned fragments and MS1
MS$DATA_PROCESSING: REANALYZE Peaks with additional N2/O included
MS$DATA_PROCESSING: WHOLE RMassBank 1.9.6
PK$SPLASH: splash10-0a74-9700000000-ca3df3c80bc8fb799ec7
PK$ANNOTATION: m/z tentative_formula formula_count mass error(ppm)
  50.0151 C4H2+ 1 50.0151 0.37
  51.023 C4H3+ 1 51.0229 0.46
  53.0386 C4H5+ 1 53.0386 1.01
  54.0464 C4H6+ 1 54.0464 -0.03
  55.0179 C3H3O+ 1 55.0178 0.52
  63.023 C5H3+ 1 63.0229 0.37
  64.0307 C5H4+ 1 64.0308 -0.65
  65.0386 C5H5+ 1 65.0386 0.21
  67.0542 C5H7+ 1 67.0542 -0.4
  68.9971 C3HO2+ 1 68.9971 0.06
  77.0386 C6H5+ 1 77.0386 -0.35
  79.0542 C6H7+ 1 79.0542 0.04
  80.0257 C5H4O+ 1 80.0257 0.17
  81.0335 C5H5O+ 1 81.0335 0.23
  91.0543 C7H7+ 1 91.0542 0.7
  92.0257 C6H4O+ 1 92.0257 0.48
  94.0413 C6H6O+ 1 94.0413 0.15
  95.0492 C6H7O+ 1 95.0491 0.41
  105.0336 C7H5O+ 1 105.0335 0.75
  105.0448 C6H5N2+ 1 105.0447 0.53
  106.0418 C7H6O+ 1 106.0413 4.94
  107.0492 C7H7O+ 1 107.0491 0.46
  109.0649 C7H9O+ 1 109.0648 1.27
  119.0492 C8H7O+ 1 119.0491 0.33
  120.0207 C7H4O2+ 1 120.0206 0.66
  133.0285 C8H5O2+ 1 133.0284 0.56
  135.0441 C8H7O2+ 1 135.0441 0.25
  138.0312 C7H6O3+ 1 138.0311 0.18
  163.0391 C9H7O3+ 1 163.039 0.49
PK$NUM_PEAK: 29
PK$PEAK: m/z int. rel.int.
  50.0151 2179417.2 29
  51.023 2881796.2 39
  53.0386 21590080 295
  54.0464 98190.8 1
  55.0179 1411954.5 19
  63.023 790241.2 10
  64.0307 642117.6 8
  65.0386 439583.8 6
  67.0542 294744.4 4
  68.9971 92421.4 1
  77.0386 59274704 811
  79.0542 17284556 236
  80.0257 87355.1 1
  81.0335 3072857 42
  91.0543 1333749.8 18
  92.0257 47419900 649
  94.0413 1668532.9 22
  95.0492 72942768 999
  105.0336 24249552 332
  105.0448 52555148 719
  106.0418 500316.5 6
  107.0492 2113826.5 28
  109.0649 350689.3 4
  119.0492 78887.8 1
  120.0207 7205643 98
  133.0285 33229196 455
  135.0441 38892128 532
  138.0312 2437153.5 33
  163.0391 21885980 299
//
