ACCESSION: MSBNK-Eawag-EQ01129201
RECORD_TITLE: Phenthoate; LC-ESI-QFT; MS2; CE: 15%; R=17500; [M+H]+
DATE: 2023.04.27
AUTHORS: B. Beck [dtc,com], J. Hollender [dtc]
LICENSE: CC BY-SA
COPYRIGHT: Copyright (C) Eawag 2023
COMMENT: CONFIDENCE standard compound
COMMENT: UCHEM_ID 11292
CH$NAME: Phenthoate
CH$NAME: ethyl 2-dimethoxyphosphinothioylsulfanyl-2-phenylacetate
CH$COMPOUND_CLASS: N/A; Environmental Standard
CH$FORMULA: C12H17O4PS2
CH$EXACT_MASS: 320.0306
CH$SMILES: CCOC(=O)C(C1=CC=CC=C1)SP(=S)(OC)OC
CH$IUPAC: InChI=1S/C12H17O4PS2/c1-4-16-12(13)11(10-8-6-5-7-9-10)19-17(18,14-2)15-3/h5-9,11H,4H2,1-3H3
CH$LINK: CAS 123-30-8
CH$LINK: CHEBI CHEBI:34917
CH$LINK: KEGG C14429
CH$LINK: PUBCHEM CID:17435
CH$LINK: INCHIKEY XAMUDJHXFNRLCY-UHFFFAOYSA-N
CH$LINK: CHEMSPIDER 16492
AC$INSTRUMENT: Exploris 240 Orbitrap Thermo Scientific
AC$INSTRUMENT_TYPE: LC-ESI-QFT
AC$MASS_SPECTROMETRY: MS_TYPE MS2
AC$MASS_SPECTROMETRY: ION_MODE POSITIVE
AC$MASS_SPECTROMETRY: IONIZATION ESI
AC$MASS_SPECTROMETRY: FRAGMENTATION_MODE HCD
AC$MASS_SPECTROMETRY: COLLISION_ENERGY 15 % (nominal)
AC$MASS_SPECTROMETRY: RESOLUTION 17500
AC$MASS_SPECTROMETRY: MASS_RANGE_M/Z 50-348
AC$CHROMATOGRAPHY: COLUMN_NAME XBridge C18 3.5um, 2.1x50mm, Waters
AC$CHROMATOGRAPHY: FLOW_GRADIENT 90/10 at 0 min, 50/50 at 4 min, 5/95 at 17 min, 5/95 at 25 min, 90/10 at 25.1 min, 90/10 at 30 min
AC$CHROMATOGRAPHY: FLOW_RATE 200 uL/min
AC$CHROMATOGRAPHY: RETENTION_TIME 10.719 min
MS$FOCUSED_ION: BASE_PEAK 275.0712
MS$FOCUSED_ION: PRECURSOR_M/Z 321.0379
MS$FOCUSED_ION: PRECURSOR_TYPE [M+H]+
MS$DATA_PROCESSING: RECALIBRATE loess on assigned fragments and MS1
MS$DATA_PROCESSING: REANALYZE Peaks with additional N2/O included
MS$DATA_PROCESSING: WHOLE RMassBank 3.11.0.1
PK$SPLASH: splash10-01ot-0890000000-0242bf6272f1bc6ec98f
PK$ANNOTATION: m/z tentative_formula formula_count mass error(ppm)
  91.0542 C7H7+ 1 91.0542 -0.12
  107.0492 C7H7O+ 1 107.0491 0.72
  135.0441 C8H7O2+ 1 135.0441 0.09
  135.0803 C9H11O+ 1 135.0804 -1.11
  163.0753 C10H11O2+ 1 163.0754 -0.42
  247.001 C9H12O2PS2+ 1 247.0011 -0.26
PK$NUM_PEAK: 6
PK$PEAK: m/z int. rel.int.
  91.0542 1950062 44
  107.0492 367661.4 8
  135.0441 1870360.6 43
  135.0803 2226329.8 51
  163.0753 35226556 811
  247.001 43343520 999
//
