ACCESSION: MSBNK-Eawag-EQ01133304
RECORD_TITLE: Carbophenothion; LC-ESI-QFT; MS2; CE: 60%; R=17500; [M+H]+
DATE: 2023.04.27
AUTHORS: B. Beck [dtc,com], J. Hollender [dtc]
LICENSE: CC BY-SA
COPYRIGHT: Copyright (C) Eawag 2023
COMMENT: CONFIDENCE standard compound
COMMENT: UCHEM_ID 11333
CH$NAME: Carbophenothion
CH$NAME: (4-chlorophenyl)sulfanylmethylsulfanyl-diethoxy-sulfanylidene-lambda5-phosphane
CH$COMPOUND_CLASS: N/A; Environmental Standard
CH$FORMULA: C11H16ClO2PS3
CH$EXACT_MASS: 341.9739
CH$SMILES: CCOP(=S)(OCC)SCSC1=CC=C(C=C1)Cl
CH$IUPAC: InChI=1S/C11H16ClO2PS3/c1-3-13-15(16,14-4-2)18-9-17-11-7-5-10(12)6-8-11/h5-8H,3-4,9H2,1-2H3
CH$LINK: CAS 786-19-6
CH$LINK: CHEBI CHEBI:82107
CH$LINK: KEGG C18968
CH$LINK: PUBCHEM CID:13081
CH$LINK: INCHIKEY VEDTXTNSFWUXGQ-UHFFFAOYSA-N
CH$LINK: CHEMSPIDER 12536
AC$INSTRUMENT: Exploris 240 Orbitrap Thermo Scientific
AC$INSTRUMENT_TYPE: LC-ESI-QFT
AC$MASS_SPECTROMETRY: MS_TYPE MS2
AC$MASS_SPECTROMETRY: ION_MODE POSITIVE
AC$MASS_SPECTROMETRY: IONIZATION ESI
AC$MASS_SPECTROMETRY: FRAGMENTATION_MODE HCD
AC$MASS_SPECTROMETRY: COLLISION_ENERGY 60 % (nominal)
AC$MASS_SPECTROMETRY: RESOLUTION 17500
AC$MASS_SPECTROMETRY: MASS_RANGE_M/Z 50-371
AC$CHROMATOGRAPHY: COLUMN_NAME XBridge C18 3.5um, 2.1x50mm, Waters
AC$CHROMATOGRAPHY: FLOW_GRADIENT 90/10 at 0 min, 50/50 at 4 min, 5/95 at 17 min, 5/95 at 25 min, 90/10 at 25.1 min, 90/10 at 30 min
AC$CHROMATOGRAPHY: FLOW_RATE 200 uL/min
AC$CHROMATOGRAPHY: RETENTION_TIME 14.141 min
MS$FOCUSED_ION: BASE_PEAK 360.9651
MS$FOCUSED_ION: PRECURSOR_M/Z 342.9811
MS$FOCUSED_ION: PRECURSOR_TYPE [M+H]+
MS$DATA_PROCESSING: RECALIBRATE loess on assigned fragments and MS1
MS$DATA_PROCESSING: REANALYZE Peaks with additional N2/O included
MS$DATA_PROCESSING: WHOLE RMassBank 3.11.0.1
PK$SPLASH: splash10-0a4i-0900000000-14dc847c676b0f0aa3cd
PK$ANNOTATION: m/z tentative_formula formula_count mass error(ppm)
  59.0491 C3H7O+ 1 59.0491 -0.21
  96.9507 H2O2PS+ 2 96.9508 -0.91
  114.9616 CH4ClO2S+ 1 114.9615 0.4
  122.0183 C7H6S+ 1 122.0185 -1.14
  142.9386 CH4O2PS2+ 2 142.9385 0.5
  156.9873 C7H6ClS+ 2 156.9873 0.05
PK$NUM_PEAK: 6
PK$PEAK: m/z int. rel.int.
  59.0491 11003.7 20
  96.9507 44371.3 81
  114.9616 61627.7 112
  122.0183 28126.2 51
  142.9386 48078.6 87
  156.9873 546376.3 999
//
