ACCESSION: MSBNK-Eawag-EQ417502
RECORD_TITLE: Terbuthylazine-TP CSCD648241 (LM6); LC-ESI-QFT; MS2; CE: 30%; R=17500; [M+H]+
DATE: 2019.12.03
AUTHORS: K. Kiefer [dtc], J. Hollender [dtc], H. Singer [dtc], M. Stravs [com]
LICENSE: CC BY-SA
COPYRIGHT: Copyright (C) Eawag 2019
PUBLICATION: Kiefer, K.; Mueller, A.; Singer, H.; Hollender, J. New relevant pesticide transformation products in groundwater detected using target and suspect screening for agricultural and urban micropollutants with LC-HRMS. Water Research 2019, 165. DOI: https://doi.org/10.1016/j.watres.2019.114972
COMMENT: CONFIDENCE standard compound
COMMENT: UCHEM_ID 4175
CH$NAME: Terbuthylazine-TP CSCD648241 (LM6)
CH$NAME: 3-Methyl-6-[(2-methyl-2-propanyl)amino]-1,3,5-triazine-2,4(1H,3H)-dione
CH$COMPOUND_CLASS: N/A; Environmental Standard
CH$FORMULA: C8H14N4O2
CH$EXACT_MASS: 198.1117
CH$SMILES: CN1C(O)=NC(NC(C)(C)C)=NC1=O
CH$IUPAC: InChI=1S/C8H14N4O2/c1-8(2,3)11-5-9-6(13)12(4)7(14)10-5/h1-4H3,(H2,9,10,11,13,14)
CH$LINK: INCHIKEY SKWILWLBILDCEB-UHFFFAOYSA-N
CH$LINK: CHEMSPIDER 71047229
AC$INSTRUMENT: Q Exactive Plus Orbitrap Thermo Scientific
AC$INSTRUMENT_TYPE: LC-ESI-QFT
AC$MASS_SPECTROMETRY: MS_TYPE MS2
AC$MASS_SPECTROMETRY: ION_MODE POSITIVE
AC$MASS_SPECTROMETRY: IONIZATION ESI
AC$MASS_SPECTROMETRY: FRAGMENTATION_MODE HCD
AC$MASS_SPECTROMETRY: COLLISION_ENERGY 30 % (nominal)
AC$MASS_SPECTROMETRY: RESOLUTION 17500
AC$CHROMATOGRAPHY: COLUMN_NAME XBridge C18 3.5um, 2.1x50mm, Waters
AC$CHROMATOGRAPHY: FLOW_GRADIENT 90/10 at 0 min, 50/50 at 4 min, 5/95 at 17 min, 5/95 at 25 min, 90/10 at 25.1 min, 90/10 at 30 min
AC$CHROMATOGRAPHY: FLOW_RATE 200 uL/min
AC$CHROMATOGRAPHY: RETENTION_TIME 4.105 min
AC$CHROMATOGRAPHY: SOLVENT A water with 0.1% formic acid
AC$CHROMATOGRAPHY: SOLVENT B MeOH with 0.1% formic acid
MS$FOCUSED_ION: BASE_PEAK 199.119
MS$FOCUSED_ION: PRECURSOR_M/Z 199.119
MS$FOCUSED_ION: PRECURSOR_TYPE [M+H]+
MS$DATA_PROCESSING: RECALIBRATE loess on assigned fragments and MS1
MS$DATA_PROCESSING: REANALYZE Peaks with additional N2/O included
MS$DATA_PROCESSING: WHOLE RMassBank 2.99.1
PK$SPLASH: splash10-0006-0900000000-fe2c3ac675a0a1a049bd
PK$ANNOTATION: m/z tentative_formula formula_count mass error(ppm)
  57.0699 C4H9+ 1 57.0699 0.04
  86.0348 C2H4N3O+ 1 86.0349 -0.68
  143.0564 C4H7N4O2+ 1 143.0564 0.25
  199.1189 C8H15N4O2+ 1 199.119 -0.11
PK$NUM_PEAK: 4
PK$PEAK: m/z int. rel.int.
  57.0699 23838324 76
  86.0348 430080.5 1
  143.0564 312418304 999
  199.1189 35122612 112
//
