ACCESSION: MSBNK-Eawag-EQ369002
RECORD_TITLE: Meclofenamic Acid; LC-ESI-QFT; MS2; CE: 30; R=35000; [M+H]+
DATE: 2015.08.25
AUTHORS: Stravs M, Schymanski E, Singer H, Department of Environmental Chemistry, Eawag and Thomaidis N, University of Athens
LICENSE: CC BY
COPYRIGHT: Copyright (C) 2015 Eawag, Duebendorf, Switzerland
COMMENT: CONFIDENCE standard compound
COMMENT: EAWAG_UCHEM_ID 3690
CH$NAME: Meclofenamic Acid
CH$NAME: 2-(2,6-dichloro-3-methylanilino)benzoic acid
CH$COMPOUND_CLASS: N/A; Environmental Standard
CH$FORMULA: C14H11Cl2NO2
CH$EXACT_MASS: 295.01668
CH$SMILES: CC1=C(C(=C(C=C1)Cl)NC2=CC=CC=C2C(=O)O)Cl
CH$IUPAC: InChI=1S/C14H11Cl2NO2/c1-8-6-7-10(15)13(12(8)16)17-11-5-3-2-4-9(11)14(18)19/h2-7,17H,1H3,(H,18,19)
CH$LINK: CAS 644-62-2
CH$LINK: CHEBI CHEBI:6710
CH$LINK: KEGG C07117
CH$LINK: PUBCHEM CID:4037
CH$LINK: INCHIKEY SBDNJUWAMKYJOX-UHFFFAOYSA-N
CH$LINK: CHEMSPIDER 3897
CH$LINK: COMPTOX DTXSID0048559
AC$INSTRUMENT: Q Exactive Plus Orbitrap Thermo Scientific
AC$INSTRUMENT_TYPE: LC-ESI-QFT
AC$MASS_SPECTROMETRY: MS_TYPE MS2
AC$MASS_SPECTROMETRY: ION_MODE POSITIVE
AC$MASS_SPECTROMETRY: IONIZATION ESI
AC$MASS_SPECTROMETRY: FRAGMENTATION_MODE HCD
AC$MASS_SPECTROMETRY: COLLISION_ENERGY 30 (nominal)
AC$MASS_SPECTROMETRY: RESOLUTION 35000
AC$CHROMATOGRAPHY: COLUMN_NAME XBridge C18 3.5um, 2.1x50mm, Waters
AC$CHROMATOGRAPHY: FLOW_GRADIENT 90/10 at 0 min, 50/50 at 4 min, 5/95 at 17 min, 5/95 at 25 min, 90/10 at 25.1 min, 90/10 at 30 min
AC$CHROMATOGRAPHY: FLOW_RATE 200 ul/min
AC$CHROMATOGRAPHY: RETENTION_TIME 14.0 min
AC$CHROMATOGRAPHY: SOLVENT A water with 0.1% formic acid
AC$CHROMATOGRAPHY: SOLVENT B methanol with 0.1% formic acid
MS$FOCUSED_ION: BASE_PEAK 296.0233
MS$FOCUSED_ION: PRECURSOR_M/Z 296.024
MS$FOCUSED_ION: PRECURSOR_TYPE [M+H]+
MS$DATA_PROCESSING: RECALIBRATE loess on assigned fragments and MS1
MS$DATA_PROCESSING: REANALYZE Peaks with additional N2/O included
MS$DATA_PROCESSING: WHOLE RMassBank 1.9.6
PK$SPLASH: splash10-004l-0090000000-a2cbafbde1150bf5812e
PK$ANNOTATION: m/z tentative_formula formula_count mass error(ppm)
  242.0368 C14H9ClNO+ 1 242.0367 0.17
  243.0445 C14H10ClNO+ 1 243.0445 -0.14
  278.0133 C14H10Cl2NO+ 1 278.0134 -0.34
  296.0243 C14H12Cl2NO2+ 1 296.024 1.15
PK$NUM_PEAK: 4
PK$PEAK: m/z int. rel.int.
  242.0368 25280540 146
  243.0445 126579064 732
  278.0133 172714112 999
  296.0243 718569.8 4
//
