ACCESSION: MSBNK-Eawag-EQ314002
RECORD_TITLE: Nystatin; LC-ESI-QFT; MS2; CE: 30; R=35000; [M+H]+
DATE: 2015.08.25
AUTHORS: Beck B, Stravs M, Schymanski E, Singer H, Department of Environmental Chemistry, Eawag
LICENSE: CC BY
COPYRIGHT: Copyright (C) 2015 Eawag, Duebendorf, Switzerland
COMMENT: CONFIDENCE standard compound
COMMENT: EAWAG_UCHEM_ID 3140
CH$NAME: Nystatin
CH$NAME: (1S,3R,4R,7R,9R,11R,15S,16R,17R,18S,19E,21E,25E,27E,29E,31E,33R,35S,36R,37S)-33-[(3-Amino-3,6-dideoxy-?-D-mannopyranosyl)oxy]-1,3,4,7,9,11,17,37-octahydroxy-15,16,18-trimethyl-13-oxo-14,39-dioxabic yclo[33.3.1]nonatriaconta-19,21,25,27,29,31-hexaene-36-carboxylic acid
CH$COMPOUND_CLASS: N/A; Environmental Standard
CH$FORMULA: C47H75NO17
CH$EXACT_MASS: 925.50350
CH$SMILES: CC1C=CC=CCCC=CC=CC=CC=CC(CC2C(C(CC(O2)(CC(C(CCC(CC(CC(CC(=O)OC(C(C1O)C)C)O)O)O)O)O)O)O)C(=O)O)OC3C(C(C(C(O3)C)O)N)O
CH$IUPAC: InChI=1S/C47H75NO17/c1-27-17-15-13-11-9-7-5-6-8-10-12-14-16-18-34(64-46-44(58)41(48)43(57)30(4)63-46)24-38-40(45(59)60)37(54)26-47(61,65-38)25-36(53)35(52)20-19-31(49)21-32(50)22-33(51)23-39(55)62-29(3)28(2)42(27)56/h5-6,8,10-18,27-38,40-44,46,49-54,56-58,61H,7,9,19-26,48H2,1-4H3,(H,59,60)/b6-5+,10-8+,13-11+,14-12+,17-15+,18-16+/t27-,28-,29-,30+,31+,32+,33+,34-,35+,36+,37-,38-,40+,41-,42+,43+,44-,46-,47+/m0/s1
CH$LINK: PUBCHEM CID:11286230
CH$LINK: INCHIKEY VQOXZBDYSJBXMA-NQTDYLQESA-N
CH$LINK: CHEMSPIDER 23078586
CH$LINK: COMPTOX DTXSID80872323
AC$INSTRUMENT: Q Exactive Orbitrap Thermo Scientific
AC$INSTRUMENT_TYPE: LC-ESI-QFT
AC$MASS_SPECTROMETRY: MS_TYPE MS2
AC$MASS_SPECTROMETRY: ION_MODE POSITIVE
AC$MASS_SPECTROMETRY: IONIZATION ESI
AC$MASS_SPECTROMETRY: FRAGMENTATION_MODE HCD
AC$MASS_SPECTROMETRY: COLLISION_ENERGY 30 (nominal)
AC$MASS_SPECTROMETRY: RESOLUTION 35000
AC$CHROMATOGRAPHY: COLUMN_NAME XBridge C18 3.5um, 2.1x50mm, Waters
AC$CHROMATOGRAPHY: FLOW_GRADIENT 90/10 at 0 min, 50/50 at 4 min, 5/95 at 17 min, 5/95 at 25 min, 90/10 at 25.1 min, 90/10 at 30 min
AC$CHROMATOGRAPHY: FLOW_RATE 200 ul/min
AC$CHROMATOGRAPHY: RETENTION_TIME 11.6 min
AC$CHROMATOGRAPHY: SOLVENT A water with 0.1% formic acid
AC$CHROMATOGRAPHY: SOLVENT B methanol with 0.1% formic acid
MS$FOCUSED_ION: BASE_PEAK 926.5109
MS$FOCUSED_ION: PRECURSOR_M/Z 926.5108
MS$FOCUSED_ION: PRECURSOR_TYPE [M+H]+
MS$DATA_PROCESSING: DEPROFILE Spline
MS$DATA_PROCESSING: RECALIBRATE loess on assigned fragments and MS1
MS$DATA_PROCESSING: REANALYZE Peaks with additional N2/O included
MS$DATA_PROCESSING: WHOLE RMassBank 1.9.6
PK$SPLASH: splash10-0a4i-2951000000-08a72e151bc2a1b4b651
PK$ANNOTATION: m/z tentative_formula formula_count mass error(ppm)
  65.0384 C5H5+ 1 65.0386 -2.87
  67.0542 C5H7+ 1 67.0542 -0.7
  69.0334 C4H5O+ 1 69.0335 -0.89
  69.0698 C5H9+ 1 69.0699 -0.82
  71.0127 C3H3O2+ 1 71.0128 -0.79
  71.0491 C4H7O+ 1 71.0491 -1
  73.0283 C3H5O2+ 1 73.0284 -1.72
  74.0963 C4H12N+ 1 74.0964 -1.43
  77.0386 C6H5+ 1 77.0386 0.04
  79.0542 C6H7+ 1 79.0542 -0.72
  81.0334 C5H5O+ 1 81.0335 -0.76
  81.0698 C6H9+ 1 81.0699 -0.58
  83.0491 C5H7O+ 1 83.0491 -0.5
  83.0855 C6H11+ 1 83.0855 -0.56
  84.0444 C4H6NO+ 1 84.0444 0.24
  85.0283 C4H5O2+ 1 85.0284 -0.77
  85.0648 C5H9O+ 1 85.0648 -0.49
  87.0441 C4H7O2+ 1 87.0441 0.28
  89.0233 C3H5O3+ 1 89.0233 -0.12
  91.0541 C7H7+ 1 91.0542 -0.95
  93.0698 C7H9+ 1 93.0699 -0.82
  95.0126 C5H3O2+ 1 95.0128 -1.32
  95.0491 C6H7O+ 1 95.0491 -0.64
  95.0855 C7H11+ 1 95.0855 -0.7
  97.0283 C5H5O2+ 1 97.0284 -0.88
  97.0647 C6H9O+ 1 97.0648 -0.94
  97.1011 C7H13+ 1 97.1012 -0.69
  99.044 C5H7O2+ 1 99.0441 -0.56
  100.0476 H8N2O4+ 1 100.0479 -2.58
  101.0233 C4H5O3+ 1 101.0233 -0.6
  101.0597 C5H9O2+ 1 101.0597 -0.16
  103.0541 C8H7+ 1 103.0542 -0.84
  105.0698 C8H9+ 1 105.0699 -0.54
  106.0733 C3H10N2O2+ 1 106.0737 -3.95
  107.0491 C7H7O+ 1 107.0491 -0.48
  107.0855 C8H11+ 1 107.0855 -0.34
  108.0888 C3H12N2O2+ 1 108.0893 -4.89
  109.0647 C7H9O+ 1 109.0648 -0.65
  109.1011 C8H13+ 1 109.1012 -0.61
  110.1045 C3H14N2O2+ 1 110.105 -4.35
  111.044 C6H7O2+ 1 111.0441 -0.5
  111.0804 C7H11O+ 1 111.0804 -0.73
  113.0232 C5H5O3+ 1 113.0233 -0.71
  113.0596 C6H9O2+ 1 113.0597 -0.67
  113.0959 C7H13O+ 1 113.0961 -1.34
  115.0389 C5H7O3+ 1 115.039 -0.7
  115.054 C9H7+ 1 115.0542 -1.88
  116.0618 C9H8+ 1 116.0621 -2
  117.0697 C9H9+ 1 117.0699 -1.08
  118.0733 C4H10N2O2+ 1 118.0737 -3.46
  119.0491 C8H7O+ 1 119.0491 -0.68
  119.0855 C9H11+ 1 119.0855 -0.56
  120.089 C4H12N2O2+ 1 120.0893 -2.74
  121.0284 C7H5O2+ 1 121.0284 -0.46
  121.0647 C8H9O+ 1 121.0648 -0.67
  121.1011 C9H13+ 1 121.1012 -1.05
  122.068 C3H10N2O3+ 1 122.0686 -4.78
  122.1044 C4H14N2O2+ 1 122.105 -4.5
  123.0439 C7H7O2+ 1 123.0441 -1.43
  123.0803 C8H11O+ 1 123.0804 -0.99
  123.1167 C9H15+ 1 123.1168 -1.27
  125.0232 C6H5O3+ 1 125.0233 -1.36
  125.0596 C7H9O2+ 1 125.0597 -0.93
  125.096 C8H13O+ 1 125.0961 -0.81
  127.0391 C6H7O3+ 1 127.039 1.18
  127.0752 C7H11O2+ 1 127.0754 -1.31
  128.0617 C10H8+ 1 128.0621 -2.98
  129.0546 C6H9O3+ 1 129.0546 -0.55
  129.0698 C10H9+ 1 129.0699 -0.67
  130.0732 C5H10N2O2+ 1 130.0737 -3.84
  130.0774 C10H10+ 1 130.0777 -2.09
  131.0491 C9H7O+ 1 131.0491 -0.31
  131.0855 C10H11+ 1 131.0855 -0.28
  132.0888 C5H12N2O2+ 1 132.0893 -4.01
  133.0647 C9H9O+ 1 133.0648 -0.54
  133.1011 C10H13+ 1 133.1012 -0.35
  134.068 C4H10N2O3+ 1 134.0686 -4.5
  134.1044 C5H14N2O2+ 1 134.105 -4.24
  135.044 C8H7O2+ 1 135.0441 -0.71
  135.0804 C9H11O+ 1 135.0804 -0.6
  135.1167 C10H15+ 1 135.1168 -0.64
  136.0838 C4H12N2O3+ 1 136.0842 -3.33
  136.1201 C5H16N2O2+ 1 136.1206 -3.89
  137.0596 C8H9O2+ 1 137.0597 -0.48
  137.0961 C9H13O+ 1 137.0961 0.06
  137.1324 C10H17+ 1 137.1325 -0.56
  139.0389 C7H7O3+ 1 139.039 -0.51
  139.0753 C8H11O2+ 1 139.0754 -0.33
  139.1118 C9H15O+ 1 139.1117 0.06
  141.0546 C7H9O3+ 1 141.0546 -0.43
  141.0697 C11H9+ 1 141.0699 -1.04
  141.091 C8H13O2+ 1 141.091 0.31
  142.078 C11H10+ 1 142.0777 2.24
  143.0856 C11H11+ 1 143.0855 0.23
  144.089 C6H12N2O2+ 1 144.0893 -2.21
  144.0936 C11H12+ 1 144.0934 1.44
  145.0648 C10H9O+ 1 145.0648 0.2
  145.1012 C11H13+ 1 145.1012 0.16
  146.0679 C5H10N2O3+ 1 146.0686 -4.82
  146.0813 C6H12NO3+ 1 146.0812 0.62
  146.1044 C6H14N2O2+ 1 146.105 -4.31
  147.0441 C9H7O2+ 1 147.0441 0.03
  147.0805 C10H11O+ 1 147.0804 0.13
  147.1168 C11H15+ 1 147.1168 -0.11
  148.0837 C5H12N2O3+ 1 148.0842 -3.54
  148.1201 C6H16N2O2+ 1 148.1206 -3.71
  149.0598 C9H9O2+ 1 149.0597 0.36
  149.0961 C10H13O+ 1 149.0961 0.06
  149.1325 C11H17+ 1 149.1325 -0.18
  151.039 C8H7O3+ 1 151.039 -0.07
  151.0753 C9H11O2+ 1 151.0754 -0.17
  151.1117 C10H15O+ 1 151.1117 -0.34
  152.1151 C5H16N2O3+ 1 152.1155 -2.85
  153.0546 C8H9O3+ 1 153.0546 -0.07
  153.0698 C12H9+ 1 153.0699 -0.76
  153.091 C9H13O2+ 1 153.091 -0.17
  153.1274 C10H17O+ 1 153.1274 0.25
  155.0703 C8H11O3+ 1 155.0703 0.32
  155.0855 C12H11+ 1 155.0855 -0.3
  156.0888 C7H12N2O2+ 1 156.0893 -3.52
  156.0941 C12H12+ 1 156.0934 4.99
  157.0648 C11H9O+ 1 157.0648 0.12
  157.086 C8H13O3+ 1 157.0859 0.38
  157.1012 C12H13+ 1 157.1012 -0.11
  159.044 C10H7O2+ 1 159.0441 -0.54
  159.0655 C7H11O4+ 1 159.0652 1.73
  159.0804 C11H11O+ 1 159.0804 -0.07
  159.1168 C12H15+ 1 159.1168 -0.11
  161.0597 C10H9O2+ 1 161.0597 0.03
  161.096 C11H13O+ 1 161.0961 -0.32
  161.1324 C12H17+ 1 161.1325 -0.35
  162.0629 C5H10N2O4+ 1 162.0635 -3.51
  162.136 C7H18N2O2+ 1 162.1363 -1.91
  163.0391 C9H7O3+ 1 163.039 0.67
  163.0753 C10H11O2+ 1 163.0754 -0.4
  163.1116 C11H15O+ 1 163.1117 -0.81
  163.148 C12H19+ 1 163.1481 -0.72
  165.0547 C9H9O3+ 1 165.0546 0.3
  165.0691 C13H9+ 1 165.0699 -4.83
  165.091 C10H13O2+ 1 165.091 0.27
  165.1277 C11H17O+ 1 165.1274 1.69
  166.0779 C13H10+ 1 166.0777 1.13
  167.0703 C9H11O3+ 1 167.0703 0
  167.0854 C13H11+ 1 167.0855 -0.64
  168.0939 C13H12+ 1 168.0934 3.32
  169.0647 C12H9O+ 1 169.0648 -0.54
  169.0859 C9H13O3+ 1 169.0859 -0.06
  169.1011 C13H13+ 1 169.1012 -0.34
  171.0804 C12H11O+ 1 171.0804 -0.24
  171.1167 C13H15+ 1 171.1168 -0.51
  173.0596 C11H9O2+ 1 173.0597 -0.55
  173.0961 C12H13O+ 1 173.0961 -0.07
  173.1324 C13H17+ 1 173.1325 -0.39
  174.0994 C7H14N2O3+ 1 174.0999 -3.01
  175.0391 C10H7O3+ 1 175.039 0.85
  175.0753 C11H11O2+ 1 175.0754 -0.26
  175.1115 C12H15O+ 1 175.1117 -1.32
  175.148 C13H19+ 1 175.1481 -0.55
  176.0787 C6H12N2O4+ 1 176.0792 -2.38
  177.0548 C10H9O3+ 1 177.0546 1.07
  177.091 C11H13O2+ 1 177.091 -0.03
  177.1274 C12H17O+ 1 177.1274 -0.23
  177.1635 C13H21+ 1 177.1638 -1.51
  178.0778 C14H10+ 1 178.0777 0.27
  179.0703 C10H11O3+ 1 179.0703 -0.06
  179.0855 C14H11+ 1 179.0855 -0.21
  179.1432 C12H19O+ 1 179.143 0.88
  181.0496 C9H9O4+ 1 181.0495 0.25
  181.0645 C13H9O+ 1 181.0648 -1.61
  181.086 C10H13O3+ 1 181.0859 0.38
  181.1011 C14H13+ 1 181.1012 -0.15
  183.0804 C13H11O+ 1 183.0804 -0.28
  183.1019 C10H15O3+ 1 183.1016 1.8
  183.1168 C14H15+ 1 183.1168 0.02
  184.1201 C9H16N2O2+ 1 184.1206 -2.6
  185.0595 C12H9O2+ 1 185.0597 -1.11
  185.0811 C9H13O4+ 1 185.0808 1.65
  185.0962 C13H13O+ 1 185.0961 0.48
  185.1325 C14H17+ 1 185.1325 0.12
  186.1354 C9H18N2O2+ 1 186.1363 -4.51
  187.0753 C12H11O2+ 1 187.0754 -0.09
  187.1118 C13H15O+ 1 187.1117 0.42
  187.1481 C14H19+ 1 187.1481 -0.14
  189.0547 C11H9O3+ 1 189.0546 0.16
  189.091 C12H13O2+ 1 189.091 -0.09
  189.1277 C13H17O+ 1 189.1274 1.42
  189.1639 C14H21+ 1 189.1638 0.49
  190.0943 C7H14N2O4+ 1 190.0948 -2.83
  191.0703 C11H11O3+ 1 191.0703 0.36
  191.1065 C12H15O2+ 1 191.1067 -0.61
  192.0935 C15H12+ 1 192.0934 0.88
  193.0859 C11H13O3+ 1 193.0859 0.15
  193.1007 C15H13+ 1 193.1012 -2.42
  194.0892 C6H14N2O5+ 1 194.0897 -2.64
  194.1098 C15H14+ 1 194.109 4.01
  195.0654 C10H11O4+ 1 195.0652 1.05
  195.0806 C14H11O+ 1 195.0804 0.97
  195.1018 C11H15O3+ 1 195.1016 1.33
  195.1168 C15H15+ 1 195.1168 -0.19
  196.0889 C14H12O+ 1 196.0883 3.13
  197.0597 C13H9O2+ 1 197.0597 -0.28
  197.0811 C10H13O4+ 1 197.0808 1.39
  197.096 C14H13O+ 1 197.0961 -0.51
  197.1325 C15H17+ 1 197.1325 -0.14
  198.0993 C9H14N2O3+ 1 198.0999 -3
  199.0753 C13H11O2+ 1 199.0754 -0.03
  199.0965 C10H15O4+ 1 199.0965 0.22
  199.1117 C14H15O+ 1 199.1117 -0.01
  199.1481 C15H19+ 1 199.1481 -0.34
  200.151 C10H20N2O2+ 1 200.1519 -4.69
  201.0546 C12H9O3+ 1 201.0546 -0.2
  201.091 C13H13O2+ 1 201.091 -0.08
  201.1273 C14H17O+ 1 201.1274 -0.41
  201.1636 C15H21+ 1 201.1638 -0.63
  203.0703 C12H11O3+ 1 203.0703 0.39
  203.0853 C16H11+ 1 203.0855 -1.26
  203.1064 C13H15O2+ 1 203.1067 -1.36
  203.1434 C14H19O+ 1 203.143 1.91
  203.18 C15H23+ 1 203.1794 2.92
  204.0936 C16H12+ 1 204.0934 1.02
  205.0864 C12H13O3+ 1 205.0859 2.43
  205.1011 C16H13+ 1 205.1012 -0.13
  205.1224 C13H17O2+ 1 205.1223 0.26
  206.1095 C16H14+ 1 206.109 2.61
  207.0654 C11H11O4+ 1 207.0652 0.99
  207.0807 C15H11O+ 1 207.0804 1.1
  207.1018 C12H15O3+ 1 207.1016 1.3
  207.1167 C16H15+ 1 207.1168 -0.37
  208.0885 C15H12O+ 1 208.0883 1.36
  208.1241 C16H16+ 1 208.1247 -2.6
  209.0809 C11H13O4+ 1 209.0808 0.36
  209.0959 C15H13O+ 1 209.0961 -0.68
  209.1175 C12H17O3+ 1 209.1172 1.29
  209.1324 C16H17+ 1 209.1325 -0.27
  210.1403 C16H18+ 1 210.1403 0.13
  211.0755 C14H11O2+ 1 211.0754 0.92
  211.0966 C11H15O4+ 1 211.0965 0.59
  211.1117 C15H15O+ 1 211.1117 -0.01
  211.1481 C16H19+ 1 211.1481 -0.18
  212.1558 C16H20+ 1 212.156 -0.95
  213.0911 C14H13O2+ 1 213.091 0.3
  213.1274 C15H17O+ 1 213.1274 -0.01
  213.1637 C16H21+ 1 213.1638 -0.41
  214.1714 C16H22+ 1 214.1716 -0.94
  215.0701 C13H11O3+ 1 215.0703 -0.7
  215.0919 C10H15O5+ 1 215.0914 2.37
  215.1067 C14H15O2+ 1 215.1067 0.2
  215.1431 C15H19O+ 1 215.143 0.46
  215.1796 C16H23+ 1 215.1794 0.8
  216.0938 C17H12+ 1 216.0934 2.12
  217.0859 C13H13O3+ 1 217.0859 0.04
  217.1013 C17H13+ 1 217.1012 0.38
  217.1222 C14H17O2+ 1 217.1223 -0.63
  217.1585 C15H21O+ 1 217.1587 -0.74
  218.0897 C8H14N2O5+ 1 218.0897 -0.2
  219.0651 C12H11O4+ 1 219.0652 -0.16
  219.0803 C16H11O+ 1 219.0804 -0.87
  219.1017 C13H15O3+ 1 219.1016 0.5
  219.117 C17H15+ 1 219.1168 0.61
  221.0808 C12H13O4+ 1 221.0808 -0.2
  221.0962 C16H13O+ 1 221.0961 0.58
  221.1325 C17H17+ 1 221.1325 0.29
  223.075 C15H11O2+ 1 223.0754 -1.46
  223.0961 C12H15O4+ 1 223.0965 -1.5
  223.1118 C16H15O+ 1 223.1117 0.22
  223.1482 C17H19+ 1 223.1481 0.15
  225.0911 C15H13O2+ 1 225.091 0.33
  225.1121 C12H17O4+ 1 225.1121 -0.16
  225.1275 C16H17O+ 1 225.1274 0.66
  225.1637 C17H21+ 1 225.1638 -0.25
  226.1155 C7H18N2O6+ 1 226.1159 -2.02
  227.07 C14H11O3+ 1 227.0703 -1.32
  227.1066 C15H15O2+ 1 227.1067 -0.38
  227.1279 C12H19O4+ 1 227.1278 0.46
  227.143 C16H19O+ 1 227.143 -0.05
  227.1795 C17H23+ 1 227.1794 0.23
  229.0862 C14H13O3+ 1 229.0859 1.13
  229.1225 C15H17O2+ 1 229.1223 0.98
  229.1587 C16H21O+ 1 229.1587 -0.05
  229.1949 C17H25+ 1 229.1951 -0.6
  230.11 C18H14+ 1 230.109 4.38
  231.1016 C14H15O3+ 1 231.1016 0.3
  231.1167 C18H15+ 1 231.1168 -0.51
  231.1747 C16H23O+ 1 231.1743 1.51
  232.1245 C18H16+ 1 232.1247 -0.53
  233.0809 C13H13O4+ 1 233.0808 0.45
  233.097 C17H13O+ 1 233.0961 3.73
  233.1172 C14H17O3+ 1 233.1172 0.04
  233.1323 C18H17+ 1 233.1325 -0.76
  235.0759 C16H11O2+ 1 235.0754 2.19
  235.0965 C13H15O4+ 1 235.0965 0.06
  235.1117 C17H15O+ 1 235.1117 -0.35
  235.1329 C14H19O3+ 1 235.1329 0.25
  235.148 C18H19+ 1 235.1481 -0.46
  237.091 C16H13O2+ 1 237.091 -0.03
  237.1122 C13H17O4+ 1 237.1121 0.23
  237.1273 C17H17O+ 1 237.1274 -0.6
  237.1637 C18H21+ 1 237.1638 -0.11
  238.0941 C11H14N2O4+ 1 238.0948 -2.81
  239.0703 C15H11O3+ 1 239.0703 0.12
  239.1067 C16H15O2+ 1 239.1067 0.1
  239.143 C17H19O+ 1 239.143 -0.3
  239.1795 C18H23+ 1 239.1794 0.39
  240.1103 C11H16N2O4+ 1 240.1105 -0.7
  241.0859 C15H13O3+ 1 241.0859 -0.13
  241.1221 C16H17O2+ 1 241.1223 -0.86
  241.1586 C17H21O+ 1 241.1587 -0.46
  241.195 C18H25+ 1 241.1951 -0.36
  243.1018 C15H15O3+ 1 243.1016 1.03
  243.1167 C19H15+ 1 243.1168 -0.32
  243.1379 C16H19O2+ 1 243.138 -0.35
  243.174 C17H23O+ 1 243.1743 -1.36
  244.105 C10H16N2O5+ 1 244.1054 -1.49
  244.1245 C19H16+ 1 244.1247 -0.46
  245.0963 C18H13O+ 1 245.0961 0.73
  245.1174 C15H17O3+ 1 245.1172 0.93
  245.1325 C19H17+ 1 245.1325 0.09
  247.0969 C14H15O4+ 1 247.0965 1.8
  247.1119 C18H15O+ 1 247.1117 0.76
  247.1482 C19H19+ 1 247.1481 0.17
  249.0913 C17H13O2+ 1 249.091 0.98
  249.1125 C14H17O4+ 1 249.1121 1.3
  249.1275 C18H17O+ 1 249.1274 0.4
  249.1638 C19H21+ 1 249.1638 0.05
  251.1068 C17H15O2+ 1 251.1067 0.49
  251.1278 C14H19O4+ 1 251.1278 0.18
  251.1429 C18H19O+ 1 251.143 -0.68
  251.1793 C19H23+ 1 251.1794 -0.63
  253.087 C16H13O3+ 1 253.0859 4.07
  253.1072 C13H17O5+ 1 253.1071 0.47
  253.1225 C17H17O2+ 1 253.1223 0.77
  253.1585 C18H21O+ 1 253.1587 -0.6
  253.1952 C19H25+ 1 253.1951 0.48
  255.1019 C16H15O3+ 1 255.1016 1.41
  255.1221 C13H19O5+ 1 255.1227 -2.43
  255.1379 C17H19O2+ 1 255.138 -0.3
  255.1741 C18H23O+ 1 255.1743 -1.1
  256.1248 C20H16+ 1 256.1247 0.73
  257.0813 C15H13O4+ 1 257.0808 2
  257.1172 C16H17O3+ 1 257.1172 -0.2
  257.1327 C20H17+ 1 257.1325 0.67
  257.1533 C17H21O2+ 1 257.1536 -1.19
  257.19 C18H25O+ 1 257.19 0.19
  258.1396 C20H18+ 1 258.1403 -2.87
  259.0967 C15H15O4+ 1 259.0965 0.83
  259.1118 C19H15O+ 1 259.1117 0.15
  259.133 C16H19O3+ 1 259.1329 0.42
  259.1483 C20H19+ 1 259.1481 0.86
  260.1551 C20H20+ 1 260.156 -3.35
  261.0906 C18H13O2+ 1 261.091 -1.59
  261.1125 C15H17O4+ 1 261.1121 1.47
  261.1272 C19H17O+ 1 261.1274 -0.66
  261.1635 C20H21+ 1 261.1638 -0.91
  262.1161 C10H18N2O6+ 1 262.1159 0.5
  263.1067 C18H15O2+ 1 263.1067 0.32
  263.1281 C15H19O4+ 1 263.1278 1.35
  263.1432 C19H19O+ 1 263.143 0.68
  263.1796 C20H23+ 1 263.1794 0.62
  265.0858 C17H13O3+ 1 265.0859 -0.3
  265.1224 C18H17O2+ 1 265.1223 0.28
  265.1587 C19H21O+ 1 265.1587 0.22
  265.195 C20H25+ 1 265.1951 -0.4
  267.1017 C17H15O3+ 1 267.1016 0.67
  267.1167 C21H15+ 1 267.1168 -0.55
  267.1231 C14H19O5+ 1 267.1227 1.53
  267.1373 C18H19O2+ 1 267.138 -2.53
  267.1742 C19H23O+ 1 267.1743 -0.57
  267.2114 C20H27+ 1 267.2107 2.52
  269.138 C14H21O5+ 1 269.1384 -1.15
  269.1538 C18H21O2+ 1 269.1536 0.79
  269.1904 C19H25O+ 1 269.19 1.7
  270.1399 C21H18+ 1 270.1403 -1.53
  271.0967 C16H15O4+ 1 271.0965 0.75
  271.1329 C17H19O3+ 1 271.1329 0.25
  271.1481 C21H19+ 1 271.1481 0.01
  273.1278 C20H17O+ 1 273.1274 1.61
  273.1495 C17H21O3+ 1 273.1485 3.51
  273.1634 C21H21+ 1 273.1638 -1.45
  275.1064 C19H15O2+ 1 275.1067 -1.11
  275.128 C16H19O4+ 1 275.1278 0.92
  275.1434 C20H19O+ 1 275.143 1.27
  275.1792 C21H23+ 1 275.1794 -0.75
  277.1071 C15H17O5+ 1 277.1071 0.14
  277.1226 C19H17O2+ 1 277.1223 0.99
  277.1586 C20H21O+ 1 277.1587 -0.22
  277.1947 C21H25+ 1 277.1951 -1.22
  279.1229 C15H19O5+ 1 279.1227 0.86
  279.1381 C19H19O2+ 1 279.138 0.37
  281.1171 C18H17O3+ 1 281.1172 -0.43
  281.1533 C19H21O2+ 1 281.1536 -1.05
  281.1898 C20H25O+ 1 281.19 -0.5
  282.1412 C22H18+ 1 282.1403 3.04
  283.1329 C18H19O3+ 1 283.1329 0.03
  283.1485 C22H19+ 1 283.1481 1.18
  283.1688 C19H23O2+ 1 283.1693 -1.47
  283.2049 C20H27O+ 1 283.2056 -2.62
  285.1124 C17H17O4+ 1 285.1121 0.89
  285.1278 C21H17O+ 1 285.1274 1.57
  285.1479 C18H21O3+ 1 285.1485 -2.07
  285.1639 C22H21+ 1 285.1638 0.61
  286.1159 C12H18N2O6+ 1 286.1159 -0.1
  287.1071 C20H15O2+ 1 287.1067 1.65
  287.1276 C17H19O4+ 1 287.1278 -0.54
  287.1434 C21H19O+ 1 287.143 1.39
  287.1793 C22H23+ 1 287.1794 -0.34
  289.1068 C16H17O5+ 1 289.1071 -0.86
  289.1227 C20H17O2+ 1 289.1223 1.36
  289.1434 C17H21O4+ 1 289.1434 -0.23
  289.1585 C21H21O+ 1 289.1587 -0.7
  289.1946 C22H25+ 1 289.1951 -1.55
  291.1019 C19H15O3+ 1 291.1016 1.13
  291.1379 C20H19O2+ 1 291.138 -0.09
  291.1744 C21H23O+ 1 291.1743 0.06
  291.2108 C22H27+ 1 291.2107 0.15
  293.1177 C19H17O3+ 1 293.1172 1.5
  293.1369 C16H21O5+ 1 293.1384 -4.81
  293.1526 C20H21O2+ 1 293.1536 -3.36
  293.1901 C21H25O+ 1 293.19 0.44
  293.2268 C22H29+ 1 293.2264 1.44
  295.0965 C18H15O4+ 1 295.0965 0.19
  295.1169 C15H19O6+ 1 295.1176 -2.29
  295.1331 C19H19O3+ 1 295.1329 0.74
  295.1491 C23H19+ 1 295.1481 3.33
  295.1695 C20H23O2+ 1 295.1693 0.69
  295.2056 C21H27O+ 1 295.2056 -0.28
  297.1333 C15H21O6+ 1 297.1333 0.25
  298.1367 C10H22N2O8+ 1 298.1371 -1.1
  299.1279 C18H19O4+ 1 299.1278 0.52
  299.1796 C23H23+ 1 299.1794 0.54
  301.1071 C17H17O5+ 1 301.1071 0.1
  301.1229 C21H17O2+ 1 301.1223 1.91
  301.1434 C18H21O4+ 1 301.1434 -0.12
  301.1586 C22H21O+ 1 301.1587 -0.27
  301.1951 C23H25+ 1 301.1951 0.21
  302.1625 C17H22N2O3+ 1 302.1625 0.12
  303.1225 C17H19O5+ 1 303.1227 -0.56
  303.1382 C21H19O2+ 1 303.138 0.77
  303.1743 C22H23O+ 1 303.1743 -0.14
  305.1172 C20H17O3+ 1 305.1172 -0.17
  305.1377 C17H21O5+ 1 305.1384 -2.26
  305.1539 C21H21O2+ 1 305.1536 0.86
  305.1899 C22H25O+ 1 305.19 -0.17
  305.2264 C23H29+ 1 305.2264 0.24
  307.1328 C20H19O3+ 1 307.1329 -0.23
  307.1486 C24H19+ 1 307.1481 1.41
  307.169 C21H23O2+ 1 307.1693 -0.77
  307.2063 C22H27O+ 1 307.2056 2.27
  309.1486 C20H21O3+ 1 309.1485 0.22
  309.1644 C24H21+ 1 309.1638 1.98
  309.1836 C21H25O2+ 1 309.1849 -4.16
  309.2212 C22H29O+ 1 309.2213 -0.39
  311.1272 C19H19O4+ 1 311.1278 -1.79
  311.1436 C23H19O+ 1 311.143 1.86
  311.1641 C20H23O3+ 1 311.1642 -0.13
  311.1798 C24H23+ 1 311.1794 1.13
  311.199 C21H27O2+ 1 311.2006 -4.84
  311.2379 C22H31O+ 1 311.2369 2.98
  313.107 C18H17O5+ 1 313.1071 -0.13
  313.1234 C22H17O2+ 1 313.1223 3.46
  313.143 C19H21O4+ 1 313.1434 -1.3
  313.1593 C23H21O+ 1 313.1587 1.85
  313.1955 C24H25+ 1 313.1951 1.22
  315.139 C22H19O2+ 1 315.138 3.44
  315.1753 C23H23O+ 1 315.1743 3.2
  316.1452 C22H20O2+ 1 316.1458 -1.71
  317.138 C18H21O5+ 1 317.1384 -1.14
  317.1539 C22H21O2+ 1 317.1536 0.99
  317.1906 C23H25O+ 1 317.19 1.82
  317.2268 C24H29+ 1 317.2264 1.24
  319.1173 C17H19O6+ 1 319.1176 -0.95
  319.1334 C21H19O3+ 1 319.1329 1.5
  319.1689 C22H23O2+ 1 319.1693 -1.18
  319.2409 C24H31+ 1 319.242 -3.63
  321.1329 C17H21O6+ 1 321.1333 -1.23
  321.1489 C21H21O3+ 1 321.1485 1.09
  321.1649 C25H21+ 1 321.1638 3.56
  323.1269 C20H19O4+ 1 323.1278 -2.74
  323.1644 C21H23O3+ 1 323.1642 0.74
  323.1809 C25H23+ 1 323.1794 4.71
  323.1998 C22H27O2+ 1 323.2006 -2.4
  325.1234 C23H17O2+ 1 325.1223 3.27
  325.1433 C20H21O4+ 1 325.1434 -0.42
  325.1587 C24H21O+ 1 325.1587 0.06
  325.1948 C25H25+ 1 325.1951 -0.79
  327.1383 C23H19O2+ 1 327.138 1.08
  327.1584 C20H23O4+ 1 327.1591 -2
  327.1759 C24H23O+ 1 327.1743 4.82
  327.2103 C25H27+ 1 327.2107 -1.37
  329.1376 C19H21O5+ 1 329.1384 -2.34
  329.1539 C23H21O2+ 1 329.1536 0.89
  329.1904 C24H25O+ 1 329.19 1.27
  329.2261 C25H29+ 1 329.2264 -0.87
  331.1169 C18H19O6+ 1 331.1176 -2.28
  331.1702 C23H23O2+ 1 331.1693 2.97
  333.1855 C23H25O2+ 1 333.1849 1.66
  333.2215 C24H29O+ 1 333.2213 0.56
  335.1644 C22H23O3+ 1 335.1642 0.68
  335.2359 C24H31O+ 1 335.2369 -3.14
  337.1278 C17H21O7+ 1 337.1282 -1.07
  337.1441 C21H21O4+ 1 337.1434 2.06
  337.1799 C22H25O3+ 1 337.1798 0.17
  337.251 C24H33O+ 1 337.2526 -4.69
  339.1434 C17H23O7+ 1 339.1438 -1.24
  339.1596 C21H23O4+ 1 339.1591 1.61
  339.1756 C25H23O+ 1 339.1743 3.59
  339.2122 C26H27+ 1 339.2107 4.31
  341.1371 C20H21O5+ 1 341.1384 -3.55
  341.1542 C24H21O2+ 1 341.1536 1.71
  341.1745 C21H25O4+ 1 341.1747 -0.81
  341.2256 C26H29+ 1 341.2264 -2.25
  343.1342 C23H19O3+ 2 343.1329 3.93
  343.1708 C24H23O2+ 1 343.1693 4.47
  343.2059 C25H27O+ 1 343.2056 0.72
  343.2426 C26H31+ 1 343.242 1.78
  345.1502 C26H19N+ 2 345.1512 -2.87
  345.1853 C24H25O2+ 1 345.1849 1.11
  345.2204 C25H29O+ 1 345.2213 -2.55
  347.1638 C23H23O3+ 1 347.1642 -1.01
  347.1991 C24H27O2+ 1 347.2006 -4.2
  349.1275 C18H21O7+ 1 349.1282 -2.03
  349.1785 C23H25O3+ 1 349.1798 -3.87
  349.2147 C24H29O2+ 1 349.2162 -4.46
  350.1324 C13H22N2O9+ 1 350.132 1.17
  351.1594 C22H23O4+ 1 351.1591 0.78
  353.1749 C22H25O4+ 1 353.1747 0.52
  353.2477 C24H33O2+ 1 353.2475 0.46
  355.2412 C27H31+ 1 355.242 -2.19
  357.1325 C20H21O6+ 1 357.1333 -2.2
  359.1663 C27H21N+ 1 359.1669 -1.59
  359.2006 C25H27O2+ 1 359.2006 0.2
  359.2367 C26H31O+ 1 359.2369 -0.59
  361.18 C24H25O3+ 1 361.1798 0.38
  361.216 C25H29O2+ 1 361.2162 -0.46
  361.2531 C26H33O+ 1 361.2526 1.3
  363.1592 C23H23O4+ 1 363.1591 0.2
  363.1957 C24H27O3+ 1 363.1955 0.58
  365.1743 C23H25O4+ 1 365.1747 -1.14
  367.137 C18H23O8+ 2 367.1387 -4.78
  369.2216 C27H29O+ 1 369.2213 0.73
  371.202 C26H27O2+ 1 371.2006 3.81
  373.1806 C25H25O3+ 1 373.1798 2.06
  373.2156 C26H29O2+ 1 373.2162 -1.71
  375.1956 C25H27O3+ 1 375.1955 0.32
  375.2316 C26H31O2+ 1 375.2319 -0.58
  377.2481 C26H33O2+ 1 377.2475 1.49
  379.1537 C23H23O5+ 1 379.154 -0.84
  379.1895 C24H27O4+ 1 379.1904 -2.42
  379.263 C26H35O2+ 1 379.2632 -0.52
  381.1686 C23H25O5+ 1 381.1697 -2.73
  385.2538 C28H33O+ 1 385.2526 3.19
  387.1962 C26H27O3+ 1 387.1955 1.8
  387.2316 C27H31O2+ 1 387.2319 -0.61
  389.2479 C27H33O2+ 1 389.2475 0.96
  391.1536 C24H23O5+ 1 391.154 -1
  391.1891 C25H27O4+ 1 391.1904 -3.18
  393.2042 C25H29O4+ 1 393.206 -4.72
  393.2423 C26H33O3+ 1 393.2424 -0.26
  397.1641 C23H25O6+ 1 397.1646 -1.2
  397.2186 C16H33N2O9+ 1 397.2181 1.44
  397.253 C29H33O+ 1 397.2526 0.93
  399.2323 C28H31O2+ 1 399.2319 1.09
  399.2688 C29H35O+ 1 399.2682 1.3
  401.2119 C30H27N+ 2 401.2138 -4.76
  401.2476 C28H33O2+ 1 401.2475 0.26
  403.2279 C27H31O3+ 2 403.2268 2.75
  403.2639 C28H35O2+ 1 403.2632 1.94
  405.1694 C25H25O5+ 1 405.1697 -0.74
  405.2426 C27H33O3+ 1 405.2424 0.49
  413.2109 C28H29O3+ 1 413.2111 -0.49
  413.2471 C29H33O2+ 1 413.2475 -0.98
  415.2274 C28H31O3+ 1 415.2268 1.39
  423.1796 C25H27O6+ 1 423.1802 -1.41
  425.2485 C30H33O2+ 1 425.2475 2.34
  427.2634 C30H35O2+ 1 427.2632 0.59
  429.1927 C24H29O7+ 2 429.1908 4.4
  429.278 C30H37O2+ 1 429.2788 -1.95
  431.2221 C28H31O4+ 1 431.2217 0.98
  431.2566 C29H35O3+ 1 431.2581 -3.32
  439.2634 C31H35O2+ 1 439.2632 0.51
  441.242 C30H33O3+ 1 441.2424 -1.02
  443.257 C30H35O3+ 1 443.2581 -2.42
  445.1878 C24H29O8+ 2 445.1857 4.64
  445.2752 C30H37O3+ 2 445.2737 3.32
  453.2777 C32H37O2+ 1 453.2788 -2.51
  455.2565 C31H35O3+ 1 455.2581 -3.39
  455.2937 C32H39O2+ 1 455.2945 -1.68
  459.2532 C30H35O4+ 1 459.253 0.57
  471.2531 C31H35O4+ 1 471.253 0.22
  475.2138 C29H31O6+ 2 475.2115 4.72
  477.2292 C32H31NO3+ 2 477.2298 -1.27
  477.2645 C30H37O5+ 2 477.2636 1.99
  481.2733 C33H37O3+ 1 481.2737 -0.77
  483.2523 C32H35O4+ 1 483.253 -1.5
  483.2909 C33H39O3+ 2 483.2894 3.1
  485.267 C32H37O4+ 1 485.2686 -3.27
  493.2219 C29H33O7+ 1 493.2221 -0.43
  499.2835 C33H39O4+ 1 499.2843 -1.61
  501.2997 C33H41O4+ 1 501.2999 -0.45
  507.2889 C20H45NO13+ 2 507.2885 0.73
  509.3047 C35H41O3+ 1 509.305 -0.69
  515.2418 C32H35O6+ 1 515.2428 -1.93
  517.2956 C33H41O5+ 2 517.2949 1.53
  525.2991 C35H41O4+ 1 525.2999 -1.63
  527.3141 C35H43O4+ 1 527.3156 -2.8
  535.2839 C21H45NO14+ 2 535.2835 0.74
  537.2981 C21H47NO14+ 2 537.2991 -1.82
  543.3113 C35H43O5+ 2 543.3105 1.43
  553.2948 C36H41O5+ 3 553.2949 -0.09
  555.3141 C39H41NO2+ 2 555.3132 1.69
  571.3044 C36H43O6+ 1 571.3054 -1.85
  581.2872 C22H47NO16+ 2 581.2889 -3
  589.3166 C36H45O7+ 2 589.316 1.07
  601.3303 C26H51NO14+ 2 601.3304 -0.09
  611.3359 C24H53NO16+ 2 611.3359 0.09
  627.3673 C40H51O6+ 1 627.368 -1.09
  629.3852 C43H51NO3+ 2 629.3863 -1.87
  673.3737 C41H53O8+ 2 673.3735 0.27
  674.3773 C33H56NO13+ 1 674.3746 3.92
  691.383 C41H55O9+ 1 691.3841 -1.52
PK$NUM_PEAK: 619
PK$PEAK: m/z int. rel.int.
  65.0384 206593.7 35
  67.0542 1990859.6 337
  69.0334 495149.2 84
  69.0698 1194069.2 202
  71.0127 96087.3 16
  71.0491 1535878.9 260
  73.0283 37718.5 6
  74.0963 26748.6 4
  77.0386 146494.5 24
  79.0542 2922950.3 496
  81.0334 1673794.9 284
  81.0698 2148160.4 364
  83.0491 451960.9 76
  83.0855 419507.8 71
  84.0444 134166.3 22
  85.0283 649868.9 110
  85.0648 570057.2 96
  87.0441 102401.3 17
  89.0233 216617.5 36
  91.0541 3147719.3 534
  93.0698 4963239.9 842
  95.0126 217835.9 36
  95.0491 2736046.2 464
  95.0855 2419866.6 410
  97.0283 919955.8 156
  97.0647 660071 112
  97.1011 638779.4 108
  99.044 1608934.6 273
  100.0476 33505.5 5
  101.0233 38896.7 6
  101.0597 287903.2 48
  103.0541 231589.2 39
  105.0698 4205054.5 713
  106.0733 51658.2 8
  107.0491 1738964.4 295
  107.0855 5886330.1 999
  108.0888 164600.1 27
  109.0647 675778.4 114
  109.1011 3833646.6 650
  110.1045 152444.1 25
  111.044 798013.1 135
  111.0804 632943.1 107
  113.0232 325835.4 55
  113.0596 1173263.2 199
  113.0959 378416.1 64
  115.0389 358171.8 60
  115.054 308925.8 52
  116.0618 26533.4 4
  117.0697 3190569.5 541
  118.0733 164757.2 27
  119.0491 475294.2 80
  119.0855 3447274.3 585
  120.089 179240.6 30
  121.0284 253673 43
  121.0647 1620600.4 275
  121.1011 2682880.3 455
  122.068 54007.8 9
  122.1044 44572.5 7
  123.0439 2070630.7 351
  123.0803 1009352.4 171
  123.1167 1237017.1 209
  125.0232 151531.6 25
  125.0596 511596.4 86
  125.096 1331541.4 225
  127.0391 181357.8 30
  127.0752 208407.3 35
  128.0617 250547.1 42
  129.0546 449318.8 76
  129.0698 2315063 392
  130.0732 116759.1 19
  130.0774 62140.5 10
  131.0491 463795.8 78
  131.0855 3460751.2 587
  132.0888 136673.9 23
  133.0647 1878387.3 318
  133.1011 2400733.2 407
  134.068 51237.2 8
  134.1044 97944.7 16
  135.044 503481.2 85
  135.0804 1599062.4 271
  135.1167 4113852 698
  136.0838 54441.4 9
  136.1201 197661.3 33
  137.0596 1293180.4 219
  137.0961 578470.6 98
  137.1324 248223.7 42
  139.0389 474758.7 80
  139.0753 1133393.4 192
  139.1118 269379.1 45
  141.0546 967340.1 164
  141.0697 881776.7 149
  141.091 160934.4 27
  142.078 56045.2 9
  143.0856 2349101.6 398
  144.089 95636 16
  144.0936 29648.3 5
  145.0648 812262.5 137
  145.1012 3027952.2 513
  146.0679 42751.7 7
  146.0813 163786 27
  146.1044 38100.5 6
  147.0441 505164.4 85
  147.0805 1860387.1 315
  147.1168 1491258.2 253
  148.0837 47800.2 8
  148.1201 38759.1 6
  149.0598 1008050.9 171
  149.0961 719936.2 122
  149.1325 451113 76
  151.039 580611 98
  151.0753 1726166.4 292
  151.1117 1402144.3 237
  152.1151 28631 4
  153.0546 329117.6 55
  153.0698 215709 36
  153.091 254840 43
  153.1274 30085.5 5
  155.0703 881764 149
  155.0855 1822335.3 309
  156.0888 103857.4 17
  156.0941 70740.7 12
  157.0648 748579.5 127
  157.086 126908.2 21
  157.1012 2089550.5 354
  159.044 127471.3 21
  159.0655 172001.1 29
  159.0804 828980.8 140
  159.1168 1766517.7 299
  161.0597 742506.2 126
  161.096 636338 107
  161.1324 3279532.5 556
  162.0629 38295.5 6
  162.136 196487.5 33
  163.0391 238475 40
  163.0753 1273525.8 216
  163.1116 391816.3 66
  163.148 236607.7 40
  165.0547 550128.8 93
  165.0691 228227.3 38
  165.091 1004022.4 170
  165.1277 52146.8 8
  166.0779 38022.8 6
  167.0703 2129788.1 361
  167.0854 1019973.7 173
  168.0939 47661.8 8
  169.0647 187024.6 31
  169.0859 524122.8 88
  169.1011 2220873 376
  171.0804 992800.6 168
  171.1167 2014181.4 341
  173.0596 617206 104
  173.0961 1082630.2 183
  173.1324 1214828.1 206
  174.0994 37304.9 6
  175.0391 178388.9 30
  175.0753 1617762.7 274
  175.1115 330111.7 56
  175.148 525072.9 89
  176.0787 106584.8 18
  177.0548 278253.1 47
  177.091 494556.8 83
  177.1274 427536.6 72
  177.1635 31827.1 5
  178.0778 36981.4 6
  179.0703 858619.3 145
  179.0855 664931.4 112
  179.1432 319357.2 54
  181.0496 127459.3 21
  181.0645 214238.1 36
  181.086 570639.5 96
  181.1011 1520845.6 258
  183.0804 683325.4 115
  183.1019 142312.5 24
  183.1168 1670299 283
  184.1201 120192.8 20
  185.0595 236013.1 40
  185.0811 357922.6 60
  185.0962 839138.4 142
  185.1325 1460971.7 247
  186.1354 93117.2 15
  187.0753 670326.5 113
  187.1118 654666.3 111
  187.1481 789119.3 133
  189.0547 207440.8 35
  189.091 1269385.4 215
  189.1277 217178.4 36
  189.1639 146906.5 24
  190.0943 41442.3 7
  191.0703 1087128.7 184
  191.1065 950800.1 161
  192.0935 44426.1 7
  193.0859 1671808.1 283
  193.1007 759194.1 128
  194.0892 87665.6 14
  194.1098 38524.3 6
  195.0654 127053.1 21
  195.0806 402876.9 68
  195.1018 132638.7 22
  195.1168 1406806 238
  196.0889 32882.4 5
  197.0597 102199.1 17
  197.0811 836639.8 141
  197.096 1123750.5 190
  197.1325 1256282.1 213
  198.0993 40477.7 6
  199.0753 798165.6 135
  199.0965 303855.3 51
  199.1117 609718.1 103
  199.1481 1273818 216
  200.151 45419.3 7
  201.0546 188429.5 31
  201.091 900628.4 152
  201.1273 316096.8 53
  201.1636 542667.9 92
  203.0703 383901.8 65
  203.0853 92957 15
  203.1064 266735.3 45
  203.1434 102737.7 17
  203.18 37821.1 6
  204.0936 28471.1 4
  205.0864 305249.1 51
  205.1011 680015 115
  205.1224 135597.8 23
  206.1095 42664.7 7
  207.0654 305726.9 51
  207.0807 229377 38
  207.1018 1007150.8 170
  207.1167 1057392.8 179
  208.0885 29757.7 5
  208.1241 44358 7
  209.0809 1493926 253
  209.0959 512586.3 86
  209.1175 419848.6 71
  209.1324 1037605 176
  210.1403 39828.4 6
  211.0755 290868.6 49
  211.0966 755147.9 128
  211.1117 565164 95
  211.1481 963166.6 163
  212.1558 54258.2 9
  213.0911 618729.5 105
  213.1274 282873 48
  213.1637 864867.3 146
  214.1714 28351.7 4
  215.0701 156724.8 26
  215.0919 171037.4 29
  215.1067 1210913.2 205
  215.1431 66963 11
  215.1796 243679.3 41
  216.0938 31596.8 5
  217.0859 1070742 181
  217.1013 351969 59
  217.1222 212857.5 36
  217.1585 94781.8 16
  218.0897 47186.5 8
  219.0651 215231.2 36
  219.0803 98905.1 16
  219.1017 1039796.6 176
  219.117 735398.9 124
  221.0808 122871.4 20
  221.0962 521276.8 88
  221.1325 1094064.2 185
  223.075 205458.7 34
  223.0961 50358.8 8
  223.1118 561805.5 95
  223.1482 798361.1 135
  225.0911 834434.1 141
  225.1121 984614.8 167
  225.1275 394428.3 66
  225.1637 812779 137
  226.1155 38557 6
  227.07 153505.1 26
  227.1066 697891.8 118
  227.1279 48856.3 8
  227.143 271658 46
  227.1795 403451 68
  229.0862 298919.6 50
  229.1225 247816 42
  229.1587 146843.2 24
  229.1949 32012.3 5
  230.11 35677 6
  231.1016 385958.7 65
  231.1167 451605 76
  231.1747 37345.7 6
  232.1245 47897.3 8
  233.0809 88976.6 15
  233.097 342446 58
  233.1172 1082658.2 183
  233.1323 693789.3 117
  235.0759 124968.9 21
  235.0965 897391.4 152
  235.1117 455687 77
  235.1329 339761.5 57
  235.148 650250.1 110
  237.091 350987.9 59
  237.1122 450360.2 76
  237.1273 405659.1 68
  237.1637 543813.9 92
  238.0941 26671.9 4
  239.0703 82556.4 14
  239.1067 783108.5 132
  239.143 362385.7 61
  239.1795 484058.4 82
  240.1103 41517 7
  241.0859 362585.8 61
  241.1221 433311 73
  241.1586 152313.9 25
  241.195 137779 23
  243.1018 1153970 195
  243.1167 217424 36
  243.1379 92286.9 15
  243.174 166110.7 28
  244.105 108508 18
  244.1245 55388.1 9
  245.0963 118144.9 20
  245.1174 309162.7 52
  245.1325 415695 70
  247.0969 136668.2 23
  247.1119 360054.7 61
  247.1482 536402.3 91
  249.0913 267090.3 45
  249.1125 239959.1 40
  249.1275 455405.8 77
  249.1638 533238.7 90
  251.1068 540767.2 91
  251.1278 648867.5 110
  251.1429 341043.2 57
  251.1793 481031.2 81
  253.087 170394 28
  253.1072 431453.9 73
  253.1225 433803.7 73
  253.1585 179962.5 30
  253.1952 224679.8 38
  255.1019 338457.1 57
  255.1221 262626.1 44
  255.1379 174283.6 29
  255.1741 120229.5 20
  256.1248 32864.2 5
  257.0813 77148.3 13
  257.1172 661310.8 112
  257.1327 315325.3 53
  257.1533 37163.5 6
  257.19 52880.7 8
  258.1396 41310.7 7
  259.0967 247581.7 42
  259.1118 250648 42
  259.133 176143.3 29
  259.1483 531274.6 90
  260.1551 90588.5 15
  261.0906 155983.5 26
  261.1125 2765173.8 469
  261.1272 545901.7 92
  261.1635 484114.7 82
  262.1161 182597.5 30
  263.1067 457655.2 77
  263.1281 135772.1 23
  263.1432 416326.4 70
  263.1796 467305.3 79
  265.0858 49480.9 8
  265.1224 539415.9 91
  265.1587 233828.9 39
  265.195 395254.2 67
  267.1017 803875.8 136
  267.1167 41198.6 6
  267.1231 74734.4 12
  267.1373 399968.8 67
  267.1742 207502 35
  267.2114 186342.3 31
  269.138 548629.3 93
  269.1538 163014.9 27
  269.1904 137395.5 23
  270.1399 27756.9 4
  271.0967 149780 25
  271.1329 159765.1 27
  271.1481 265062 44
  273.1278 240855.9 40
  273.1495 35886.5 6
  273.1634 300438.2 50
  275.1064 128044 21
  275.128 276051 46
  275.1434 346190.4 58
  275.1792 338357 57
  277.1071 327467.6 55
  277.1226 468117.2 79
  277.1586 281839.9 47
  277.1947 221078.3 37
  279.1229 4378082.7 743
  279.1381 421988.1 71
  281.1171 328369.8 55
  281.1533 230858.6 39
  281.1898 53307 9
  282.1412 30998.9 5
  283.1329 290638.7 49
  283.1485 238954.4 40
  283.1688 98463.3 16
  283.2049 43079.5 7
  285.1124 946809.1 160
  285.1278 153975.3 26
  285.1479 90374.6 15
  285.1639 365820.7 62
  286.1159 30452.9 5
  287.1071 96599.4 16
  287.1276 235102 39
  287.1434 248881.3 42
  287.1793 202262.6 34
  289.1068 146052.1 24
  289.1227 310964.9 52
  289.1434 53393.6 9
  289.1585 271518.7 46
  289.1946 276049.7 46
  291.1019 35976.7 6
  291.1379 399162.4 67
  291.1744 234964.8 39
  291.2108 353536.1 60
  293.1177 233763.8 39
  293.1369 134749.9 22
  293.1526 256270.5 43
  293.1901 158539.4 26
  293.2268 137504.9 23
  295.0965 111170.7 18
  295.1169 81739.2 13
  295.1331 382505.5 64
  295.1491 131497.2 22
  295.1695 157791.8 26
  295.2056 51753.6 8
  297.1333 5728793.7 972
  298.1367 501580 85
  299.1279 177993.7 30
  299.1796 200348.2 34
  301.1071 257859.9 43
  301.1229 211242.3 35
  301.1434 140859.2 23
  301.1586 302069.1 51
  301.1951 158668.7 26
  302.1625 39612.1 6
  303.1225 1060984.1 180
  303.1382 348249.1 59
  303.1743 275800.5 46
  305.1172 140478.4 23
  305.1377 119567 20
  305.1539 276202.2 46
  305.1899 180969.2 30
  305.2264 94791.6 16
  307.1328 295804.5 50
  307.1486 53825.2 9
  307.169 196310.8 33
  307.2063 31405.3 5
  309.1486 206724 35
  309.1644 153562.6 26
  309.1836 34262.2 5
  309.2212 154561.6 26
  311.1272 166377.7 28
  311.1436 112050.6 19
  311.1641 123969.5 21
  311.1798 168734.8 28
  311.199 46202.9 7
  311.2379 34674.9 5
  313.107 321354.5 54
  313.1234 84151.2 14
  313.143 245130.2 41
  313.1593 219509.3 37
  313.1955 202011.1 34
  315.139 181258.3 30
  315.1753 153747.4 26
  316.1452 44702.9 7
  317.138 49009.2 8
  317.1539 368401.2 62
  317.1906 170564.4 28
  317.2268 174765.4 29
  319.1173 345872.3 58
  319.1334 179622.6 30
  319.1689 305861 51
  319.2409 39192.1 6
  321.1329 1204193.2 204
  321.1489 157585.6 26
  321.1649 61226.1 10
  323.1269 93416.9 15
  323.1644 136626.5 23
  323.1809 90192.6 15
  323.1998 28509.2 4
  325.1234 44108 7
  325.1433 124443.3 21
  325.1587 139568.2 23
  325.1948 100275.3 17
  327.1383 148023.4 25
  327.1584 145457.7 24
  327.1759 183646.9 31
  327.2103 45697.8 7
  329.1376 84730.9 14
  329.1539 247823.8 42
  329.1904 104073.1 17
  329.2261 46202.6 7
  331.1169 532301.4 90
  331.1702 287229.6 48
  333.1855 175581 29
  333.2215 107520.1 18
  335.1644 118491.9 20
  335.2359 229493.3 38
  337.1278 407871.5 69
  337.1441 143604.8 24
  337.1799 118129.3 20
  337.251 47423.3 8
  339.1434 244637.4 41
  339.1596 133763 22
  339.1756 75863.4 12
  339.2122 34495.3 5
  341.1371 82624.9 14
  341.1542 160351.4 27
  341.1745 105783 17
  341.2256 53800.6 9
  343.1342 31166.7 5
  343.1708 250802.8 42
  343.2059 116485.4 19
  343.2426 88930.5 15
  345.1502 207740.7 35
  345.1853 145458.1 24
  345.2204 94414 16
  347.1638 236976.6 40
  347.1991 160565.4 27
  349.1275 780776.5 132
  349.1785 167473.9 28
  349.2147 58214.4 9
  350.1324 45197.9 7
  351.1594 117441 19
  353.1749 95789.3 16
  353.2477 144111.3 24
  355.2412 41875.9 7
  357.1325 98712.2 16
  359.1663 166907.1 28
  359.2006 152651.8 25
  359.2367 137435.2 23
  361.18 234066.5 39
  361.216 95304.1 16
  361.2531 34563.3 5
  363.1592 159347.1 27
  363.1957 111433 18
  365.1743 159535.4 27
  367.137 280870.4 47
  369.2216 142188.7 24
  371.202 161563 27
  373.1806 129522.2 21
  373.2156 47173.4 8
  375.1956 50372.8 8
  375.2316 69223.7 11
  377.2481 222166.9 37
  379.1537 94782.1 16
  379.1895 72238.5 12
  379.263 39630.8 6
  381.1686 36023.9 6
  385.2538 50458.5 8
  387.1962 141259 23
  387.2316 200172.4 33
  389.2479 50883.8 8
  391.1536 43625.9 7
  391.1891 54580.9 9
  393.2042 35706.5 6
  393.2423 28148.6 4
  397.1641 105874.7 17
  397.2186 74050.5 12
  397.253 36063.6 6
  399.2323 103931.6 17
  399.2688 47420.6 8
  401.2119 117036.8 19
  401.2476 54367 9
  403.2279 45695.5 7
  403.2639 29088.9 4
  405.1694 54041.9 9
  405.2426 170879.1 29
  413.2109 104005.9 17
  413.2471 128859.5 21
  415.2274 126760.7 21
  423.1796 28925.5 4
  425.2485 76206.4 12
  427.2634 86229.4 14
  429.1927 112002.1 19
  429.278 31259.8 5
  431.2221 54451.5 9
  431.2566 33707.1 5
  439.2634 119361 20
  441.242 132646 22
  443.257 40304.4 6
  445.1878 37487.8 6
  445.2752 34076 5
  453.2777 44700.1 7
  455.2565 38715.6 6
  455.2937 30064.5 5
  459.2532 45094.4 7
  471.2531 38566.4 6
  475.2138 32377.2 5
  477.2292 45202.7 7
  477.2645 47700.1 8
  481.2733 50762.1 8
  483.2523 27549.3 4
  483.2909 42340.4 7
  485.267 37624.3 6
  493.2219 49805.5 8
  499.2835 115493.7 19
  501.2997 33036 5
  507.2889 56874.9 9
  509.3047 42691.2 7
  515.2418 33754.6 5
  517.2956 39921 6
  525.2991 156207 26
  527.3141 35996.7 6
  535.2839 36854.4 6
  537.2981 33943.5 5
  543.3113 44435.6 7
  553.2948 49205.4 8
  555.3141 29415 4
  571.3044 142732.8 24
  581.2872 34896.1 5
  589.3166 34588.2 5
  601.3303 29812.4 5
  611.3359 99838.1 16
  627.3673 44100.7 7
  629.3852 100421.1 17
  673.3737 293667.4 49
  674.3773 46678.6 7
  691.383 143166.3 24
//
