ACCESSION: MSBNK-Eawag-EQ01143951
RECORD_TITLE: 10-2-FTS; LC-ESI-QFT; MS2; CE: 15%; R=17500; [M-H]-
DATE: 2024.05.15
AUTHORS: B. Beck [dtc,com], J. Hollender [dtc]
LICENSE: CC BY-SA
COPYRIGHT: Copyright (C) Eawag 2023
COMMENT: CONFIDENCE standard compound
COMMENT: UCHEM_ID 11439
CH$NAME: 10-2-FTS
CH$NAME: 2-(Perfluorodecyl)ethane-1-sulfonic acid
CH$NAME: 3,3,4,4,5,5,6,6,7,7,8,8,9,9,10,10,11,11,12,12,12-henicosafluorododecane-1-sulfonic acid
CH$COMPOUND_CLASS: N/A; Environmental Standard
CH$FORMULA: C12H5F21O3S
CH$EXACT_MASS: 627.96240764
CH$SMILES: C(CS(=O)(=O)O)C(C(C(C(C(C(C(C(C(C(F)(F)F)(F)F)(F)F)(F)F)(F)F)(F)F)(F)F)(F)F)(F)F)(F)F
CH$IUPAC: InChI=1S/C12H5F21O3S/c13-3(14,1-2-37(34,35)36)4(15,16)5(17,18)6(19,20)7(21,22)8(23,24)9(25,26)10(27,28)11(29,30)12(31,32)33/h1-2H2,(H,34,35,36)
CH$LINK: PUBCHEM CID:23136180
CH$LINK: INCHIKEY AJMAYLFJZQYRHN-UHFFFAOYSA-N
CH$LINK: CHEMSPIDER 16166117
AC$INSTRUMENT: Exploris 240 Orbitrap Thermo Scientific
AC$INSTRUMENT_TYPE: LC-ESI-QFT
AC$MASS_SPECTROMETRY: MS_TYPE MS2
AC$MASS_SPECTROMETRY: ION_MODE NEGATIVE
AC$MASS_SPECTROMETRY: IONIZATION ESI
AC$MASS_SPECTROMETRY: FRAGMENTATION_MODE HCD
AC$MASS_SPECTROMETRY: COLLISION_ENERGY 15 % (nominal)
AC$MASS_SPECTROMETRY: RESOLUTION 17500
AC$MASS_SPECTROMETRY: MASS_RANGE_M/Z 66-661
AC$CHROMATOGRAPHY: COLUMN_NAME XBridge C18 3.5um, 2.1x50mm, Waters
AC$CHROMATOGRAPHY: FLOW_GRADIENT 90/10 at 0 min, 50/50 at 4 min, 5/95 at 17 min, 5/95 at 25 min, 90/10 at 25.1 min, 90/10 at 30 min
AC$CHROMATOGRAPHY: FLOW_RATE 200 uL/min
AC$CHROMATOGRAPHY: RETENTION_TIME 13.460 min
MS$FOCUSED_ION: BASE_PEAK 626.9549
MS$FOCUSED_ION: PRECURSOR_M/Z 626.9551
MS$FOCUSED_ION: PRECURSOR_TYPE [M-H]-
MS$DATA_PROCESSING: RECALIBRATE loess on assigned fragments and MS1
MS$DATA_PROCESSING: REANALYZE Peaks with additional N2/O included
MS$DATA_PROCESSING: WHOLE RMassBank 3.15.1.1
PK$SPLASH: splash10-004i-0000009000-cb7d5f4cd55d6bc82434
PK$ANNOTATION: m/z tentative_formula formula_count mass error(ppm)
  80.965 HO3S- 1 80.9652 -2.13
  606.948 C12H3F20O3S- 1 606.9489 -1.46
  626.9552 C12H4F21O3S- 1 626.9551 0.04
PK$NUM_PEAK: 3
PK$PEAK: m/z int. rel.int.
  80.965 75792.8 1
  606.948 394716.6 6
  626.9552 62006304 999
//
