ACCESSION: MSBNK-Eawag-EQ324703
RECORD_TITLE: MCLF; LC-ESI-QFT; MS2; CE: 45%; R=17500; [M+H]+
DATE: 2020.02.03
AUTHORS: E. Janssen [dtc], B. Lauper [com]
LICENSE: CC BY-SA
COPYRIGHT: Copyright (C) Eawag 2019
COMMENT: CONFIDENCE standard compound
COMMENT: UCHEM_ID 3247
COMMENT: NaToxAq - Natural Toxins and Drinking Water Quality - From Source to Tap (https://natoxaq.ku.dk)
COMMENT: EQ cyanopeptide spectra replaced with more comprehensive acquisition.
CH$NAME: MCLF
CH$NAME: Microcystin LF
CH$NAME: 15-benzyl-18-[(1E,3E)-6-methoxy-3,5-dimethyl-7-phenylhepta-1,3-dienyl]-1,5,12,19-tetramethyl-2-methylidene-8-(2-methylpropyl)-3,6,9,13,16,20,25-heptaoxo-1,4,7,10,14,17,21-heptazacyclopentacosane-11,22-dicarboxylic acid
CH$COMPOUND_CLASS: NA
CH$FORMULA: C52H71N7O12
CH$EXACT_MASS: 985.5161
CH$SMILES: COC(Cc1ccccc1)C(C)/C=C(C)/C=C/C2NC(=O)C(Cc3ccccc3)NC(=O)C(C)C(NC(=O)C(CC(C)C)NC(=O)C(C)NC(=O)C(=C)N(C)C(=O)CCC(NC(=O)C2C)C(O)=O)C(O)=O
CH$IUPAC: InChI=1S/C52H71N7O12/c1-29(2)25-40-50(66)58-44(52(69)70)33(6)46(62)56-41(27-36-17-13-11-14-18-36)49(65)54-38(22-21-30(3)26-31(4)42(71-10)28-37-19-15-12-16-20-37)32(5)45(61)55-39(51(67)68)23-24-43(60)59(9)35(8)48(64)53-34(7)47(63)57-40/h11-22,26,29,31-34,38-42,44H,8,23-25,27-28H2,1-7,9-10H3,(H,53,64)(H,54,65)(H,55,61)(H,56,62)(H,57,63)(H,58,66)(H,67,68)(H,69,70)/b22-21+,30-26+
CH$LINK: PUBCHEM CID:6442256
CH$LINK: INCHIKEY FEVBMCJUKWWWBT-BNIOFCGNSA-N
CH$LINK: CHEMSPIDER 4946344
AC$INSTRUMENT: Q Exactive Plus Orbitrap Thermo Scientific
AC$INSTRUMENT_TYPE: LC-ESI-QFT
AC$MASS_SPECTROMETRY: MS_TYPE MS2
AC$MASS_SPECTROMETRY: ION_MODE POSITIVE
AC$MASS_SPECTROMETRY: IONIZATION ESI
AC$MASS_SPECTROMETRY: FRAGMENTATION_MODE HCD
AC$MASS_SPECTROMETRY: COLLISION_ENERGY 45 % (nominal)
AC$MASS_SPECTROMETRY: RESOLUTION 17500
AC$CHROMATOGRAPHY: COLUMN_NAME XBridge C18 3.5um, 2.1x50mm, Waters
AC$CHROMATOGRAPHY: FLOW_GRADIENT 90/10 at 0 min, 50/50 at 4 min, 5/95 at 17 min, 5/95 at 25 min, 90/10 at 25.1 min, 90/10 at 30 min
AC$CHROMATOGRAPHY: FLOW_RATE 200 uL/min
AC$CHROMATOGRAPHY: RETENTION_TIME 12.318 min
AC$CHROMATOGRAPHY: SOLVENT A water with 0.1% formic acid
AC$CHROMATOGRAPHY: SOLVENT B MeOH with 0.1% formic acid
MS$FOCUSED_ION: BASE_PEAK 164.9846
MS$FOCUSED_ION: PRECURSOR_M/Z 986.5233
MS$FOCUSED_ION: PRECURSOR_TYPE [M+H]+
MS$DATA_PROCESSING: RECALIBRATE loess on assigned fragments and MS1
MS$DATA_PROCESSING: REANALYZE Peaks with additional N2/O included
MS$DATA_PROCESSING: WHOLE RMassBank 2.99.1
PK$SPLASH: splash10-052r-1920000000-7b207fa90e3b2b2b01bf
PK$ANNOTATION: m/z tentative_formula formula_count mass error(ppm)
  69.0335 C4H5O+ 1 69.0335 -0.08
  69.0699 C5H9+ 1 69.0699 0.8
  77.0386 C6H5+ 1 77.0386 0.06
  79.0542 C6H7+ 1 79.0542 -0.88
  82.065 C5H8N+ 1 82.0651 -0.94
  84.0444 C4H6NO+ 1 84.0444 -0.01
  86.0964 C5H12N+ 1 86.0964 -0.35
  91.0542 C7H7+ 1 91.0542 -0.16
  93.0699 C7H9+ 1 93.0699 0.62
  94.0653 C6H8N+ 1 94.0651 1.63
  95.0491 C6H7O+ 1 95.0491 -0.06
  95.0854 C7H11+ 1 95.0855 -1.44
  96.081 C6H10N+ 1 96.0808 1.83
  99.0917 C5H11N2+ 1 99.0917 0.42
  101.0712 C4H9N2O+ 1 101.0709 2.2
  102.0546 C4H8NO2+ 1 102.055 -3.26
  103.0542 C8H7+ 1 103.0542 -0.51
  105.0447 C6H5N2+ 1 105.0447 0
  105.0699 C8H9+ 1 105.0699 -0.13
  107.0855 C8H11+ 1 107.0855 -0.21
  109.0645 C7H9O+ 1 109.0648 -2.39
  110.06 C6H8NO+ 1 110.06 -0.3
  112.0391 C5H6NO2+ 1 112.0393 -2.15
  112.0755 C6H10NO+ 1 112.0757 -1.68
  113.0234 C5H5O3+ 1 113.0233 0.71
  115.0542 C9H7+ 1 115.0542 -0.44
  117.0699 C9H9+ 1 117.0699 -0.14
  119.0855 C9H11+ 1 119.0855 -0.07
  120.0807 C8H10N+ 1 120.0808 -0.23
  121.0648 C8H9O+ 1 121.0648 0.4
  121.101 C9H13+ 1 121.1012 -1.19
  122.0601 C7H8NO+ 1 122.06 0.2
  122.0966 C8H12N+ 1 122.0964 1.56
  124.0757 C7H10NO+ 1 124.0757 0.47
  124.1121 C8H14N+ 1 124.1121 0.03
  127.0865 C6H11N2O+ 1 127.0866 -0.34
  128.0619 C10H8+ 1 128.0621 -1.55
  128.0707 C6H10NO2+ 1 128.0706 1.01
  129.0699 C10H9+ 1 129.0699 -0.19
  130.0499 C5H8NO3+ 1 130.0499 0.43
  130.0652 C9H8N+ 1 130.0651 0.21
  131.0855 C10H11+ 1 131.0855 -0.25
  133.1012 C10H13+ 1 133.1012 0.36
  135.0804 C9H11O+ 1 135.0804 -0.57
  135.1167 C10H15+ 1 135.1168 -0.75
  136.0759 C8H10NO+ 1 136.0757 1.83
  138.0549 C7H8NO2+ 1 138.055 -0.42
  139.0865 C7H11N2O+ 1 139.0866 -0.66
  140.0708 C7H10NO2+ 1 140.0706 1.04
  143.0856 C11H11+ 1 143.0855 0.81
  145.1011 C11H13+ 1 145.1012 -0.62
  146.0964 C10H12N+ 1 146.0964 -0.27
  146.109 C11H14+ 1 146.109 -0.08
  147.08 C10H11O+ 1 147.0804 -3.01
  147.0915 C9H11N2+ 1 147.0917 -1.37
  149.0707 C8H9N2O+ 1 149.0709 -1.54
  150.0551 C8H8NO2+ 1 150.055 1.28
  151.0863 C8H11N2O+ 1 151.0866 -1.96
  152.0704 C8H10NO2+ 1 152.0706 -1.37
  152.1072 C9H14NO+ 1 152.107 1.28
  155.0815 C7H11N2O2+ 1 155.0815 -0.33
  157.1336 C8H17N2O+ 1 157.1335 0.19
  158.0962 C11H12N+ 1 158.0964 -1.31
  159.0803 C11H11O+ 1 159.0804 -0.93
  159.1164 C12H15+ 1 159.1168 -2.42
  160.1121 C11H14N+ 1 160.1121 -0.06
  161.0961 C11H13O+ 1 161.0961 -0.07
  163.1117 C11H15O+ 1 163.1117 -0.15
  165.102 C9H13N2O+ 1 165.1022 -1.29
  167.0816 C8H11N2O2+ 1 167.0815 0.72
  168.0657 C8H10NO3+ 1 168.0655 1.08
  171.0806 C12H11O+ 1 171.0804 0.66
  171.1169 C13H15+ 1 171.1168 0.16
  173.096 C12H13O+ 1 173.0961 -0.64
  174.1043 C12H14O+ 1 174.1039 2.22
  176.0711 C10H10NO2+ 1 176.0706 3.07
  176.1073 C11H14NO+ 1 176.107 1.89
  178.1226 C11H16NO+ 1 178.1226 -0.07
  180.1384 C11H18NO+ 1 180.1383 0.81
  181.1335 C10H17N2O+ 1 181.1335 0.04
  183.1167 C14H15+ 2 183.1168 -0.94
  185.0932 C8H13N2O3+ NA 185.0921 5.96
  188.1072 C12H14NO+ 1 188.107 0.97
  188.1432 C13H18N+ 1 188.1434 -1.1
  190.1222 C12H16NO+ 2 190.1226 -2.54
  194.1655 C11H20N3+ 1 194.1652 1.5
  195.0767 C9H11N2O3+ 1 195.0764 1.66
  195.1165 C15H15+ 3 195.1168 -1.8
  196.0609 C9H10NO4+ 2 196.0604 2.28
  197.129 C10H17N2O2+ 1 197.1285 2.87
  203.1179 C12H15N2O+ 1 203.1179 0.13
  207.1167 C16H15+ 3 207.1168 -0.85
  209.1304 CH23NO10+ NA 209.1316 -6.2
  211.0715 C9H11N2O4+ 1 211.0713 0.82
  213.0873 C9H13N2O4+ 2 213.087 1.38
  218.1542 H22N6O7+ 2 218.1544 -1.05
  221.0922 C11H13N2O3+ 1 221.0921 0.6
  222.1602 C12H20N3O+ 1 222.1601 0.69
  223.109 C11H15N2O3+ NA 223.1077 5.91
  226.1593 C2H22N6O6+ 3 226.1595 -1.07
  228.1387 CH20N6O7+ 2 228.1388 -0.38
  231.112 C11H13N5O+ 2 231.1115 2.34
  232.0975 C13H14NO3+ 2 232.0968 3.04
  232.1217 CH20N4O9+ 2 232.1225 -3.51
  237.1234 C12H17N2O3+ 1 237.1234 0.02
  237.164 C18H21+ 3 237.1638 0.78
  239.0664 C10H11N2O5+ 2 239.0662 0.64
  246.1495 CH22N6O8+ 2 246.1494 0.4
  249.1238 C13H17N2O3+ 1 249.1234 1.69
  250.1559 C15H22O3+ 3 250.1563 -1.98
  258.1856 C3H26N6O7+ 3 258.1857 -0.64
  259.1084 H17N7O9+ 3 259.1082 0.81
  259.1809 C2H25N7O7+ 4 259.181 -0.32
  265.1593 C5H23N5O7+ 3 265.1592 0.35
  268.166 C13H22N3O3+ 2 268.1656 1.66
  269.1132 C12H17N2O5+ 2 269.1132 0.08
  277.1195 C15H13N6+ 4 277.1196 -0.59
  282.1852 C19H24NO+ 4 282.1852 -0.15
  293.1138 H19N7O11+ 4 293.1137 0.3
  319.2023 C4H29N7O9+ 3 319.2021 0.48
  320.201 C22H26NO+ 4 320.2009 0.46
  329.1861 C19H25N2O3+ 3 329.186 0.29
  347.1963 C19H27N2O4+ 4 347.1965 -0.67
  375.1909 C20H27N2O5+ 4 375.1914 -1.42
  384.2267 C20H28N6O2+ 4 384.2268 -0.35
PK$NUM_PEAK: 126
PK$PEAK: m/z int. rel.int.
  69.0335 59855.5 41
  69.0699 15095.9 10
  77.0386 14271.4 9
  79.0542 103693.9 72
  82.065 73719.9 51
  84.0444 306529.4 213
  84.0807 9694.4 6
  86.0964 1053949.9 732
  91.0542 424464.2 295
  93.0699 199877.6 138
  94.0653 21238.3 14
  95.0491 73126 50
  95.0854 42871.9 29
  96.081 27600.2 19
  99.0917 55594.7 38
  101.0712 11947.6 8
  102.0546 48703.2 33
  103.0542 375074.7 260
  105.0447 26100.1 18
  105.0699 409522.4 284
  107.0855 1437392.5 999
  109.0645 38163.1 26
  110.06 56109.6 38
  112.0391 18916.8 13
  112.0755 15577.2 10
  113.0234 17643.4 12
  115.0542 54038.9 37
  117.0699 144004.8 100
  119.0855 53379.9 37
  120.0807 1119291.8 777
  121.0648 25441.7 17
  121.101 32460.2 22
  122.0601 7912 5
  122.0966 19551.7 13
  124.0757 61843.3 42
  124.1121 112597.1 78
  127.0865 1206021.4 838
  128.0619 18800.8 13
  128.0707 39624.1 27
  129.0699 37592.5 26
  130.0499 64652.5 44
  130.0652 42919.6 29
  131.0855 131360.5 91
  133.1012 75135.9 52
  135.0804 1264779.4 879
  135.1167 1002473 696
  136.0759 14197.1 9
  138.0549 248471.6 172
  139.0865 15119.6 10
  140.0708 23269.8 16
  143.0856 85928.8 59
  145.1011 93858.1 65
  146.0964 92708.3 64
  146.109 25136.6 17
  147.08 7939 5
  147.0915 13332 9
  149.0707 54256.8 37
  150.0551 8141.7 5
  151.0863 14934 10
  152.0704 21043.9 14
  152.1072 16842 11
  155.0815 726970.8 505
  157.1336 106871.3 74
  158.0962 20705 14
  159.0803 10955.8 7
  159.1164 38502.5 26
  160.1121 42538.7 29
  161.0961 82238.9 57
  163.1117 641885.2 446
  165.102 32363.9 22
  167.0816 347864 241
  168.0657 29470 20
  171.0806 22539.6 15
  171.1169 37366.4 25
  173.096 52200.6 36
  174.1043 11570.4 8
  176.0711 22488.1 15
  176.1073 17847.2 12
  178.1226 14306 9
  180.1384 15696.2 10
  181.1335 56341.2 39
  183.1167 9652.6 6
  185.0932 12783.6 8
  188.1072 24538 17
  188.1432 49204.2 34
  190.1222 36098.9 25
  194.1655 24587.4 17
  195.0767 230287.5 160
  195.1165 58425.8 40
  196.0609 51745.8 35
  197.129 20751.1 14
  203.1179 85801.4 59
  207.1167 12686.3 8
  209.1304 118140 82
  211.0715 16216.2 11
  213.0873 965033 670
  218.1542 103181.5 71
  221.0922 11869.2 8
  222.1602 19566.2 13
  223.109 29407.2 20
  226.1593 134445.8 93
  228.1387 16217 11
  231.112 47853.8 33
  232.0975 124600.8 86
  232.1217 12201.2 8
  237.1234 23033.8 16
  237.164 104883.7 72
  239.0664 82452.5 57
  246.1495 87304.3 60
  249.1238 510310.4 354
  250.1559 10049.5 6
  258.1856 23676.1 16
  259.1084 13806.8 9
  259.1809 48280.8 33
  265.1593 25129.3 17
  268.166 21702.5 15
  269.1132 13802.3 9
  277.1195 47709.4 33
  282.1852 24457 16
  293.1138 13797.9 9
  319.2023 23615.9 16
  320.201 16282.2 11
  329.1861 15518.2 10
  347.1963 26768.2 18
  375.1909 44813.1 31
  384.2267 19328.2 13
//
