ACCESSION: MSBNK-Eawag-EA298603
RECORD_TITLE: Acetamiprid; LC-ESI-ITFT; MS2; CE: 30%; R=7500; [M+H]+
DATE: 2014.01.14
AUTHORS: Stravs M, Schymanski E, Singer H, Department of Environmental Chemistry, Eawag
LICENSE: CC BY
COPYRIGHT: Copyright (C) 2012 Eawag, Duebendorf, Switzerland
COMMENT: CONFIDENCE standard compound
COMMENT: EAWAG_UCHEM_ID 2986
CH$NAME: Acetamiprid
CH$NAME: (1E)-N-[(6-Chloro-3-pyridinyl)methyl]-N'-cyano-N-methylethanimidamide
CH$COMPOUND_CLASS: N/A; Environmental Standard
CH$FORMULA: C10H11ClN4
CH$EXACT_MASS: 222.0672
CH$SMILES: CN(CC1=CN=C(Cl)C=C1)C(\C)=N\C#N
CH$IUPAC: InChI=1S/C10H11ClN4/c1-8(14-7-12)15(2)6-9-3-4-10(11)13-5-9/h3-5H,6H2,1-2H3/b14-8+
CH$LINK: CAS 160430-64-8
CH$LINK: CHEBI CHEBI:39164
CH$LINK: CHEMSPIDER 184719
CH$LINK: COMPTOX DTXSID0034300
CH$LINK: INCHIKEY WCXDHFDTOYPNIE-RIYZIHGNSA-N
AC$INSTRUMENT: LTQ Orbitrap XL Thermo Scientific
AC$INSTRUMENT_TYPE: LC-ESI-ITFT
AC$MASS_SPECTROMETRY: MS_TYPE MS2
AC$MASS_SPECTROMETRY: ION_MODE POSITIVE
AC$MASS_SPECTROMETRY: IONIZATION ESI
AC$MASS_SPECTROMETRY: FRAGMENTATION_MODE HCD
AC$MASS_SPECTROMETRY: COLLISION_ENERGY 30 % (nominal)
AC$MASS_SPECTROMETRY: RESOLUTION 7500
AC$CHROMATOGRAPHY: COLUMN_NAME XBridge C18 3.5um, 2.1x50mm, Waters
AC$CHROMATOGRAPHY: FLOW_GRADIENT 90/10 at 0 min, 50/50 at 4 min, 5/95 at 17 min, 5/95 at 25 min, 90/10 at 25.1 min, 90/10 at 30 min
AC$CHROMATOGRAPHY: FLOW_RATE 200 ul/min
AC$CHROMATOGRAPHY: RETENTION_TIME 5.3 min
AC$CHROMATOGRAPHY: SOLVENT A water with 0.1% formic acid
AC$CHROMATOGRAPHY: SOLVENT B methanol with 0.1% formic acid
MS$FOCUSED_ION: BASE_PEAK 223.0746
MS$FOCUSED_ION: PRECURSOR_M/Z 223.0745
MS$FOCUSED_ION: PRECURSOR_TYPE [M+H]+
MS$DATA_PROCESSING: DEPROFILE Spline
MS$DATA_PROCESSING: RECALIBRATE loess on assigned fragments and MS1
MS$DATA_PROCESSING: REANALYZE Peaks with additional N2/O included
MS$DATA_PROCESSING: WHOLE RMassBank 1.3.1
PK$SPLASH: splash10-00di-0490000000-c19e50704dd68b2728b8
PK$ANNOTATION: m/z tentative_formula formula_count mass error(ppm)
  56.0495 C3H6N+ 1 56.0495 -0.46
  90.034 C6H4N+ 1 90.0338 2.27
  126.0104 C6H5ClN+ 1 126.0105 -0.5
  151.0056 C7H4ClN2+ 1 151.0058 -1.14
  155.0367 C7H8ClN2+ 1 155.0371 -2.6
  168.0331 C7H7ClN3+ 1 168.0323 4.93
  181.0528 C9H10ClN2+ 1 181.0527 0.43
  182.048 C8H9ClN3+ 1 182.048 0.16
  187.0978 C10H11N4+ 1 187.0978 -0.18
  192.0322 C9H7ClN3+ 1 192.0323 -0.79
  196.0637 C9H11ClN3+ 1 196.0636 0.5
  206.0479 C10H9ClN3+ 1 206.048 -0.2
  223.0744 C10H12ClN4+ 1 223.0745 -0.41
PK$NUM_PEAK: 13
PK$PEAK: m/z int. rel.int.
  56.0495 7100727.7 83
  90.034 164941.7 1
  126.0104 41127044 484
  151.0056 107742.9 1
  155.0367 308488.1 3
  168.0331 90299.7 1
  181.0528 1269146.5 14
  182.048 328904.8 3
  187.0978 1569068.3 18
  192.0322 196955.8 2
  196.0637 870851.4 10
  206.0479 865699.5 10
  223.0744 84861053.9 999
//
