ACCESSION: MSBNK-Eawag-EA030907
RECORD_TITLE: Atrazine-desethyl; LC-ESI-ITFT; MS2; CE: 90%; R=7500; [M+H]+
DATE: 2014.01.14
AUTHORS: Stravs M, Schymanski E, Singer H, Department of Environmental Chemistry, Eawag
LICENSE: CC BY
COPYRIGHT: Copyright (C) 2012 Eawag, Duebendorf, Switzerland
COMMENT: CONFIDENCE standard compound
COMMENT: EAWAG_UCHEM_ID 309
CH$NAME: Atrazine-desethyl
CH$NAME: Deethylatrazine
CH$NAME: (4-amino-6-chloro-s-triazin-2-yl)-isopropyl-amine
CH$COMPOUND_CLASS: N/A; Environmental Standard
CH$FORMULA: C6H10ClN5
CH$EXACT_MASS: 187.0625
CH$SMILES: c1(nc(nc(n1)Cl)N)NC(C)C
CH$IUPAC: InChI=1S/C6H10ClN5/c1-3(2)9-6-11-4(7)10-5(8)12-6/h3H,1-2H3,(H3,8,9,10,11,12)
CH$LINK: CAS 6190-65-4
CH$LINK: CHEBI CHEBI:28212
CH$LINK: KEGG C06559
CH$LINK: PUBCHEM CID:22563
CH$LINK: INCHIKEY DFWFIQKMSFGDCQ-UHFFFAOYSA-N
CH$LINK: CHEMSPIDER 21157
CH$LINK: COMPTOX DTXSID5037494
AC$INSTRUMENT: LTQ Orbitrap XL Thermo Scientific
AC$INSTRUMENT_TYPE: LC-ESI-ITFT
AC$MASS_SPECTROMETRY: MS_TYPE MS2
AC$MASS_SPECTROMETRY: ION_MODE POSITIVE
AC$MASS_SPECTROMETRY: IONIZATION ESI
AC$MASS_SPECTROMETRY: FRAGMENTATION_MODE HCD
AC$MASS_SPECTROMETRY: COLLISION_ENERGY 90 % (nominal)
AC$MASS_SPECTROMETRY: RESOLUTION 7500
AC$CHROMATOGRAPHY: COLUMN_NAME XBridge C18 3.5um, 2.1x50mm, Waters
AC$CHROMATOGRAPHY: FLOW_GRADIENT 90/10 at 0 min, 50/50 at 4 min, 5/95 at 17 min, 5/95 at 25 min, 90/10 at 25.1 min, 90/10 at 30 min
AC$CHROMATOGRAPHY: FLOW_RATE 200 ul/min
AC$CHROMATOGRAPHY: RETENTION_TIME 5.6 min
AC$CHROMATOGRAPHY: SOLVENT A water with 0.1% formic acid
AC$CHROMATOGRAPHY: SOLVENT B methanol with 0.1% formic acid
MS$FOCUSED_ION: BASE_PEAK 188.07
MS$FOCUSED_ION: PRECURSOR_M/Z 188.0697
MS$FOCUSED_ION: PRECURSOR_TYPE [M+H]+
MS$DATA_PROCESSING: DEPROFILE Spline
MS$DATA_PROCESSING: RECALIBRATE loess on assigned fragments and MS1
MS$DATA_PROCESSING: REANALYZE Peaks with additional N2/O included
MS$DATA_PROCESSING: WHOLE RMassBank 1.3.1
PK$SPLASH: splash10-0v01-6900000000-32caa26c637e0192e9d1
PK$ANNOTATION: m/z tentative_formula formula_count mass error(ppm)
  61.9791 CHClN+ 1 61.9792 -0.86
  68.0243 C2H2N3+ 1 68.0243 -0.05
  79.0058 CH4ClN2+ 1 79.0058 0.35
  104.001 C2H3ClN3+ 1 104.001 0.08
  110.0461 C3H4N5+ 1 110.0461 -0.2
  128.057 ClH9N6+ 2 128.0572 -1.43
  146.0227 C3H5ClN5+ 1 146.0228 -0.61
PK$NUM_PEAK: 7
PK$PEAK: m/z int. rel.int.
  61.9791 391468.7 55
  68.0243 3760316 532
  79.0058 5300133.6 750
  104.001 7052039.2 999
  110.0461 1034025.1 146
  128.057 117033 16
  146.0227 5416953 767
//
