ACCESSION: MSBNK-Eawag-EA294361
RECORD_TITLE: Flonicamid; LC-ESI-ITFT; MS2; CE: 60%; R=15000; [M-H]-
DATE: 2014.01.14
AUTHORS: Stravs M, Schymanski E, Singer H, Department of Environmental Chemistry, Eawag
LICENSE: CC BY
COPYRIGHT: Copyright (C) 2012 Eawag, Duebendorf, Switzerland
COMMENT: CONFIDENCE standard compound
COMMENT: EAWAG_UCHEM_ID 2943
CH$NAME: Flonicamid
CH$NAME: N-(cyanomethyl)-4-(trifluoromethyl)-3-pyridinecarboxamide
CH$COMPOUND_CLASS: N/A; Environmental Standard
CH$FORMULA: C9H6F3N3O
CH$EXACT_MASS: 229.0463
CH$SMILES: O=C(NCC#N)c1cnccc1C(F)(F)F
CH$IUPAC: InChI=1S/C9H6F3N3O/c10-9(11,12)7-1-3-14-5-6(7)8(16)15-4-2-13/h1,3,5H,4H2,(H,15,16)
CH$LINK: CAS 158062-67-0
CH$LINK: CHEBI CHEBI:39291
CH$LINK: PUBCHEM CID:9834513
CH$LINK: INCHIKEY RLQJEEJISHYWON-UHFFFAOYSA-N
CH$LINK: CHEMSPIDER 8010234
CH$LINK: COMPTOX DTXSID8034611
AC$INSTRUMENT: LTQ Orbitrap XL Thermo Scientific
AC$INSTRUMENT_TYPE: LC-ESI-ITFT
AC$MASS_SPECTROMETRY: MS_TYPE MS2
AC$MASS_SPECTROMETRY: ION_MODE NEGATIVE
AC$MASS_SPECTROMETRY: IONIZATION ESI
AC$MASS_SPECTROMETRY: FRAGMENTATION_MODE HCD
AC$MASS_SPECTROMETRY: COLLISION_ENERGY 60 % (nominal)
AC$MASS_SPECTROMETRY: RESOLUTION 15000
AC$CHROMATOGRAPHY: COLUMN_NAME XBridge C18 3.5um, 2.1x50mm, Waters
AC$CHROMATOGRAPHY: FLOW_GRADIENT 90/10 at 0 min, 50/50 at 4 min, 5/95 at 17 min, 5/95 at 25 min, 90/10 at 25.1 min, 90/10 at 30 min
AC$CHROMATOGRAPHY: FLOW_RATE 200 ul/min
AC$CHROMATOGRAPHY: RETENTION_TIME 3.8 min
AC$CHROMATOGRAPHY: SOLVENT A water with 0.1% formic acid
AC$CHROMATOGRAPHY: SOLVENT B methanol with 0.1% formic acid
MS$FOCUSED_ION: BASE_PEAK 228.0399
MS$FOCUSED_ION: PRECURSOR_M/Z 228.039
MS$FOCUSED_ION: PRECURSOR_TYPE [M-H]-
MS$DATA_PROCESSING: DEPROFILE Spline
MS$DATA_PROCESSING: RECALIBRATE loess on assigned fragments and MS1
MS$DATA_PROCESSING: REANALYZE Peaks with additional N2/O included
MS$DATA_PROCESSING: WHOLE RMassBank 1.3.1
PK$SPLASH: splash10-004j-0890000000-2a27a91291ff1e658ce2
PK$ANNOTATION: m/z tentative_formula formula_count mass error(ppm)
  146.0224 C6H3F3N- 1 146.0223 0.57
  228.0509 C8H5F3N5- 1 228.0503 2.97
PK$NUM_PEAK: 2
PK$PEAK: m/z int. rel.int.
  146.0224 29857.7 933
  228.0509 31958.1 999
//
