ACCESSION: MSBNK-Eawag-EQ01136301
RECORD_TITLE: Famphur; LC-ESI-QFT; MS2; CE: 15%; R=17500; [M+H]+
DATE: 2023.04.27
AUTHORS: B. Beck [dtc,com], J. Hollender [dtc]
LICENSE: CC BY-SA
COPYRIGHT: Copyright (C) Eawag 2023
COMMENT: CONFIDENCE standard compound
COMMENT: UCHEM_ID 11363
CH$NAME: Famphur
CH$NAME: 4-dimethoxyphosphinothioyloxy-N,N-dimethylbenzenesulfonamide
CH$COMPOUND_CLASS: N/A; Environmental Standard
CH$FORMULA: C10H16NO5PS2
CH$EXACT_MASS: 325.0208
CH$SMILES: CN(C)S(=O)(=O)C1=CC=C(C=C1)OP(=S)(OC)OC
CH$IUPAC: InChI=1S/C10H16NO5PS2/c1-11(2)19(12,13)10-7-5-9(6-8-10)16-17(18,14-3)15-4/h5-8H,1-4H3
CH$LINK: CAS 52-85-7
CH$LINK: CHEBI CHEBI:38677
CH$LINK: KEGG C18658
CH$LINK: PUBCHEM CID:5859
CH$LINK: INCHIKEY JISACBWYRJHSMG-UHFFFAOYSA-N
CH$LINK: CHEMSPIDER 5650
AC$INSTRUMENT: Exploris 240 Orbitrap Thermo Scientific
AC$INSTRUMENT_TYPE: LC-ESI-QFT
AC$MASS_SPECTROMETRY: MS_TYPE MS2
AC$MASS_SPECTROMETRY: ION_MODE POSITIVE
AC$MASS_SPECTROMETRY: IONIZATION ESI
AC$MASS_SPECTROMETRY: FRAGMENTATION_MODE HCD
AC$MASS_SPECTROMETRY: COLLISION_ENERGY 15 % (nominal)
AC$MASS_SPECTROMETRY: RESOLUTION 17500
AC$MASS_SPECTROMETRY: MASS_RANGE_M/Z 50-354
AC$CHROMATOGRAPHY: COLUMN_NAME XBridge C18 3.5um, 2.1x50mm, Waters
AC$CHROMATOGRAPHY: FLOW_GRADIENT 90/10 at 0 min, 50/50 at 4 min, 5/95 at 17 min, 5/95 at 25 min, 90/10 at 25.1 min, 90/10 at 30 min
AC$CHROMATOGRAPHY: FLOW_RATE 200 uL/min
AC$CHROMATOGRAPHY: RETENTION_TIME 6.830 min
MS$FOCUSED_ION: BASE_PEAK 326.0278
MS$FOCUSED_ION: PRECURSOR_M/Z 326.028
MS$FOCUSED_ION: PRECURSOR_TYPE [M+H]+
MS$DATA_PROCESSING: RECALIBRATE loess on assigned fragments and MS1
MS$DATA_PROCESSING: REANALYZE Peaks with additional N2/O included
MS$DATA_PROCESSING: WHOLE RMassBank 3.11.0.1
PK$SPLASH: splash10-004i-0019000000-530d4737c4b3c3a1f85d
PK$ANNOTATION: m/z tentative_formula formula_count mass error(ppm)
  233.0034 C8H10O4PS+ 1 233.0032 0.81
  280.9702 C8H10O5PS2+ 1 280.9702 -0.05
  326.0279 C10H17NO5PS2+ 1 326.028 -0.28
PK$NUM_PEAK: 3
PK$PEAK: m/z int. rel.int.
  233.0034 827130.6 2
  280.9702 37744648 132
  326.0279 284156416 999
//
