ACCESSION: MSBNK-Eawag-EA012404
RECORD_TITLE: Thifensulfuron-methyl; LC-ESI-ITFT; MS2; CE: 45%; R=7500; [M+H]+
DATE: 2014.01.14
AUTHORS: Stravs M, Schymanski E, Singer H, Department of Environmental Chemistry, Eawag
LICENSE: CC BY
COPYRIGHT: Copyright (C) 2012 Eawag, Duebendorf, Switzerland
COMMENT: CONFIDENCE standard compound
COMMENT: EAWAG_UCHEM_ID 124
CH$NAME: Thifensulfuron-methyl
CH$NAME: 3-[(4-methoxy-6-methyl-s-triazin-2-yl)carbamoylsulfamoyl]thiophene-2-carboxylic acid methyl ester
CH$COMPOUND_CLASS: N/A; Environmental Standard
CH$FORMULA: C12H13N5O6S2
CH$EXACT_MASS: 387.0307
CH$SMILES: COC(=O)C1=C(C=CS1)S(=O)(=O)NC(=O)NC1=NC(C)=NC(OC)=N1
CH$IUPAC: InChI=1S/C12H13N5O6S2/c1-6-13-10(16-12(14-6)23-3)15-11(19)17-25(20,21)7-4-5-24-8(7)9(18)22-2/h4-5H,1-3H3,(H2,13,14,15,16,17,19)
CH$LINK: CAS 79277-27-3
CH$LINK: KEGG C10957
CH$LINK: PUBCHEM CID:73674
CH$LINK: INCHIKEY AHTPATJNIAFOLR-UHFFFAOYSA-N
CH$LINK: CHEMSPIDER 66325
CH$LINK: COMPTOX DTXSID1024124
AC$INSTRUMENT: LTQ Orbitrap XL Thermo Scientific
AC$INSTRUMENT_TYPE: LC-ESI-ITFT
AC$MASS_SPECTROMETRY: MS_TYPE MS2
AC$MASS_SPECTROMETRY: ION_MODE POSITIVE
AC$MASS_SPECTROMETRY: IONIZATION ESI
AC$MASS_SPECTROMETRY: FRAGMENTATION_MODE HCD
AC$MASS_SPECTROMETRY: COLLISION_ENERGY 45 % (nominal)
AC$MASS_SPECTROMETRY: RESOLUTION 7500
AC$CHROMATOGRAPHY: COLUMN_NAME XBridge C18 3.5um, 2.1x50mm, Waters
AC$CHROMATOGRAPHY: FLOW_GRADIENT 90/10 at 0 min, 50/50 at 4 min, 5/95 at 17 min, 5/95 at 25 min, 90/10 at 25.1 min, 90/10 at 30 min
AC$CHROMATOGRAPHY: FLOW_RATE 200 ul/min
AC$CHROMATOGRAPHY: RETENTION_TIME 7.2 min
AC$CHROMATOGRAPHY: SOLVENT A water with 0.1% formic acid
AC$CHROMATOGRAPHY: SOLVENT B methanol with 0.1% formic acid
MS$FOCUSED_ION: BASE_PEAK 388.0375
MS$FOCUSED_ION: PRECURSOR_M/Z 388.038
MS$FOCUSED_ION: PRECURSOR_TYPE [M+H]+
MS$DATA_PROCESSING: DEPROFILE Spline
MS$DATA_PROCESSING: RECALIBRATE loess on assigned fragments and MS1
MS$DATA_PROCESSING: REANALYZE Peaks with additional N2/O included
MS$DATA_PROCESSING: WHOLE RMassBank 1.3.1
PK$SPLASH: splash10-014i-0920000000-de9f971f4aca3029a7ae
PK$ANNOTATION: m/z tentative_formula formula_count mass error(ppm)
  69.008 C2HN2O+ 1 69.0083 -4.19
  78.9848 CH3O2S+ 1 78.9848 -0.21
  83.024 C3H3N2O+ 1 83.024 0.61
  85.0397 C3H5N2O+ 1 85.0396 0.6
  97.9818 C4H2OS+ 1 97.9821 -2.62
  100.0508 C3H6N3O+ 1 100.0505 2.42
  125.9771 C5H2O2S+ 1 125.977 0.38
  141.0005 C6H5O2S+ 1 141.0005 0.45
  141.0772 C5H9N4O+ 1 141.0771 1.01
  167.0565 C6H7N4O2+ 2 167.0564 0.59
  174.9517 C5H3O3S2+ 1 174.9518 -0.7
  189.9628 C5H4NO3S2+ 1 189.9627 0.62
  204.9625 C6H5O4S2+ 1 204.9624 0.7
  215.9422 C6H2NO4S2+ 1 215.942 0.99
PK$NUM_PEAK: 14
PK$PEAK: m/z int. rel.int.
  69.008 33177.4 3
  78.9848 21889.1 2
  83.024 143560.7 14
  85.0397 16915.7 1
  97.9818 13111 1
  100.0508 20954.7 2
  125.9771 145747.5 14
  141.0005 143733.9 14
  141.0772 2292875.2 230
  167.0565 9925965.7 999
  174.9517 150746.1 15
  189.9628 168419.3 16
  204.9625 3785911.9 381
  215.9422 105664.4 10
//
