ACCESSION: MSBNK-Eawag-EQ318402
RECORD_TITLE: 1H-Benzotriazole-5-carboxylic acid; LC-ESI-QFT; MS2; CE: 30; R=35000; [M+H]+
DATE: 2015.08.25
AUTHORS: Beck B, Stravs M, Schymanski E, Singer H, Department of Environmental Chemistry, Eawag
LICENSE: CC BY
COPYRIGHT: Copyright (C) 2015 Eawag, Duebendorf, Switzerland
COMMENT: CONFIDENCE standard compound
COMMENT: EAWAG_UCHEM_ID 3184
CH$NAME: 1H-Benzotriazole-5-carboxylic acid
CH$NAME: 1H-benzotriazole-5-carboxylic acid
CH$NAME: 2H-benzotriazole-5-carboxylic acid
CH$COMPOUND_CLASS: N/A; Environmental Standard
CH$FORMULA: C7H5N3O2
CH$EXACT_MASS: 163.03818
CH$SMILES: c1cc2c(cc1C(=O)O)nn[nH]2
CH$IUPAC: InChI=1S/C7H5N3O2/c11-7(12)4-1-2-5-6(3-4)9-10-8-5/h1-3H,(H,11,12)(H,8,9,10)
CH$LINK: CAS 23814-12-2
CH$LINK: PUBCHEM CID:72917
CH$LINK: INCHIKEY GUOVBFFLXKJFEE-UHFFFAOYSA-N
CH$LINK: CHEMSPIDER 65749
CH$LINK: COMPTOX DTXSID10881049
AC$INSTRUMENT: Q Exactive Plus Orbitrap Thermo Scientific
AC$INSTRUMENT_TYPE: LC-ESI-QFT
AC$MASS_SPECTROMETRY: MS_TYPE MS2
AC$MASS_SPECTROMETRY: ION_MODE POSITIVE
AC$MASS_SPECTROMETRY: IONIZATION ESI
AC$MASS_SPECTROMETRY: FRAGMENTATION_MODE HCD
AC$MASS_SPECTROMETRY: COLLISION_ENERGY 30 (nominal)
AC$MASS_SPECTROMETRY: RESOLUTION 35000
AC$CHROMATOGRAPHY: COLUMN_NAME XBridge C18 3.5um, 2.1x50mm, Waters
AC$CHROMATOGRAPHY: FLOW_GRADIENT 90/10 at 0 min, 50/50 at 4 min, 5/95 at 17 min, 5/95 at 25 min, 90/10 at 25.1 min, 90/10 at 30 min
AC$CHROMATOGRAPHY: FLOW_RATE 200 ul/min
AC$CHROMATOGRAPHY: RETENTION_TIME 3.7 min
AC$CHROMATOGRAPHY: SOLVENT A water with 0.1% formic acid
AC$CHROMATOGRAPHY: SOLVENT B methanol with 0.1% formic acid
MS$FOCUSED_ION: BASE_PEAK 164.0453
MS$FOCUSED_ION: PRECURSOR_M/Z 164.0455
MS$FOCUSED_ION: PRECURSOR_TYPE [M+H]+
MS$DATA_PROCESSING: RECALIBRATE loess on assigned fragments and MS1
MS$DATA_PROCESSING: REANALYZE Peaks with additional N2/O included
MS$DATA_PROCESSING: WHOLE RMassBank 1.9.6
PK$SPLASH: splash10-03di-0900000000-50395b734b62ee15432e
PK$ANNOTATION: m/z tentative_formula formula_count mass error(ppm)
  65.0384 C5H5+ 1 65.0386 -2.72
  80.0493 C5H6N+ 1 80.0495 -1.82
  108.0443 C6H6NO+ 1 108.0444 -0.56
  119.0472 C6H5N3+ 1 119.0478 -4.94
  136.0395 C7H6NO2+ 1 136.0393 1.29
  164.0453 C7H6N3O2+ 1 164.0455 -0.75
PK$NUM_PEAK: 6
PK$PEAK: m/z int. rel.int.
  65.0384 500542.6 1
  80.0493 736676.6 2
  108.0443 1682400 4
  119.0472 471601.5 1
  136.0395 528269.1 1
  164.0453 345683936 999
//
