ACCESSION: MSBNK-Eawag-EQ371502
RECORD_TITLE: 3,4-Methylenedioxyamphetamine (MDA); LC-ESI-QFT; MS2; CE: 30; R=35000; [M+H]+
DATE: 2015.08.25
AUTHORS: Stravs M, Schymanski E, Singer H, Department of Environmental Chemistry, Eawag and Thomaidis N, University of Athens
LICENSE: CC BY
COPYRIGHT: Copyright (C) 2015 Eawag, Duebendorf, Switzerland
COMMENT: CONFIDENCE standard compound
COMMENT: EAWAG_UCHEM_ID 3715
CH$NAME: 3,4-Methylenedioxyamphetamine (MDA)
CH$NAME: 1-(3,4-Methylenedioxyphenyl)-2-aminopropane
CH$NAME: 1-(1,3-benzodioxol-5-yl)propan-2-amine
CH$COMPOUND_CLASS: N/A; Environmental Standard
CH$FORMULA: C10H13NO2
CH$EXACT_MASS: 179.09463
CH$SMILES: CC(CC1=CC2=C(C=C1)OCO2)N
CH$IUPAC: InChI=1S/C10H13NO2/c1-7(11)4-8-2-3-9-10(5-8)13-6-12-9/h2-3,5,7H,4,6,11H2,1H3
CH$LINK: CAS 4764-17-4
CH$LINK: PUBCHEM CID:1614
CH$LINK: INCHIKEY NGBBVGZWCFBOGO-UHFFFAOYSA-N
CH$LINK: CHEMSPIDER 1555
CH$LINK: COMPTOX DTXSID40859958
AC$INSTRUMENT: Q Exactive Plus Orbitrap Thermo Scientific
AC$INSTRUMENT_TYPE: LC-ESI-QFT
AC$MASS_SPECTROMETRY: MS_TYPE MS2
AC$MASS_SPECTROMETRY: ION_MODE POSITIVE
AC$MASS_SPECTROMETRY: IONIZATION ESI
AC$MASS_SPECTROMETRY: FRAGMENTATION_MODE HCD
AC$MASS_SPECTROMETRY: COLLISION_ENERGY 30 (nominal)
AC$MASS_SPECTROMETRY: RESOLUTION 35000
AC$CHROMATOGRAPHY: COLUMN_NAME XBridge C18 3.5um, 2.1x50mm, Waters
AC$CHROMATOGRAPHY: FLOW_GRADIENT 90/10 at 0 min, 50/50 at 4 min, 5/95 at 17 min, 5/95 at 25 min, 90/10 at 25.1 min, 90/10 at 30 min
AC$CHROMATOGRAPHY: FLOW_RATE 200 ul/min
AC$CHROMATOGRAPHY: RETENTION_TIME 3.6 min
AC$CHROMATOGRAPHY: SOLVENT A water with 0.1% formic acid
AC$CHROMATOGRAPHY: SOLVENT B methanol with 0.1% formic acid
MS$FOCUSED_ION: BASE_PEAK 180.1013
MS$FOCUSED_ION: PRECURSOR_M/Z 180.1019
MS$FOCUSED_ION: PRECURSOR_TYPE [M+H]+
MS$DATA_PROCESSING: RECALIBRATE loess on assigned fragments and MS1
MS$DATA_PROCESSING: REANALYZE Peaks with additional N2/O included
MS$DATA_PROCESSING: WHOLE RMassBank 1.9.6
PK$SPLASH: splash10-03di-0900000000-7795b35d40550ca1ea10
PK$ANNOTATION: m/z tentative_formula formula_count mass error(ppm)
  77.0383 C6H5+ 1 77.0386 -3.33
  105.0698 C8H9+ 1 105.0699 -1.11
  133.0646 C9H9O+ 1 133.0648 -1.14
  135.0439 C8H7O2+ 1 135.0441 -1.45
  151.0753 C9H11O2+ 1 151.0754 -0.24
  163.0751 C10H11O2+ 1 163.0754 -1.75
  180.1016 C10H14NO2+ 1 180.1019 -1.47
PK$NUM_PEAK: 7
PK$PEAK: m/z int. rel.int.
  77.0383 1181538.4 1
  105.0698 24691906 39
  133.0646 62285580 99
  135.0439 61754452 98
  151.0753 1459384.9 2
  163.0751 628422784 999
  180.1016 12290022 19
//
