ACCESSION: MSBNK-Eawag-EQ371402
RECORD_TITLE: Molinate; LC-ESI-QFT; MS2; CE: 30; R=35000; [M+H]+
DATE: 2015.08.25
AUTHORS: Stravs M, Schymanski E, Singer H, Department of Environmental Chemistry, Eawag and Thomaidis N, University of Athens
LICENSE: CC BY
COPYRIGHT: Copyright (C) 2015 Eawag, Duebendorf, Switzerland
COMMENT: CONFIDENCE standard compound
COMMENT: EAWAG_UCHEM_ID 3714
CH$NAME: Molinate
CH$NAME: S-ethyl azepane-1-carbothioate
CH$COMPOUND_CLASS: N/A; Environmental Standard
CH$FORMULA: C9H17NOS
CH$EXACT_MASS: 187.10309
CH$SMILES: CCSC(=O)N1CCCCCC1
CH$IUPAC: InChI=1S/C9H17NOS/c1-2-12-9(11)10-7-5-3-4-6-8-10/h2-8H2,1H3
CH$LINK: CAS 2212-67-1
CH$LINK: CHEBI CHEBI:6964
CH$LINK: KEGG C11086
CH$LINK: PUBCHEM CID:16653
CH$LINK: INCHIKEY DEDOPGXGGQYYMW-UHFFFAOYSA-N
CH$LINK: CHEMSPIDER 15790
CH$LINK: COMPTOX DTXSID6024206
AC$INSTRUMENT: Q Exactive Plus Orbitrap Thermo Scientific
AC$INSTRUMENT_TYPE: LC-ESI-QFT
AC$MASS_SPECTROMETRY: MS_TYPE MS2
AC$MASS_SPECTROMETRY: ION_MODE POSITIVE
AC$MASS_SPECTROMETRY: IONIZATION ESI
AC$MASS_SPECTROMETRY: FRAGMENTATION_MODE HCD
AC$MASS_SPECTROMETRY: COLLISION_ENERGY 30 (nominal)
AC$MASS_SPECTROMETRY: RESOLUTION 35000
AC$CHROMATOGRAPHY: COLUMN_NAME XBridge C18 3.5um, 2.1x50mm, Waters
AC$CHROMATOGRAPHY: FLOW_GRADIENT 90/10 at 0 min, 50/50 at 4 min, 5/95 at 17 min, 5/95 at 25 min, 90/10 at 25.1 min, 90/10 at 30 min
AC$CHROMATOGRAPHY: FLOW_RATE 200 ul/min
AC$CHROMATOGRAPHY: RETENTION_TIME 10.5 min
AC$CHROMATOGRAPHY: SOLVENT A water with 0.1% formic acid
AC$CHROMATOGRAPHY: SOLVENT B methanol with 0.1% formic acid
MS$FOCUSED_ION: BASE_PEAK 188.11
MS$FOCUSED_ION: PRECURSOR_M/Z 188.1104
MS$FOCUSED_ION: PRECURSOR_TYPE [M+H]+
MS$DATA_PROCESSING: RECALIBRATE loess on assigned fragments and MS1
MS$DATA_PROCESSING: REANALYZE Peaks with additional N2/O included
MS$DATA_PROCESSING: WHOLE RMassBank 1.9.6
PK$SPLASH: splash10-004r-1900000000-1ba5c0ce9882e497a8cd
PK$ANNOTATION: m/z tentative_formula formula_count mass error(ppm)
  55.0542 C4H7+ 1 55.0542 -0.67
  69.0698 C5H9+ 1 69.0699 -1.4
  70.0651 C4H8N+ 1 70.0651 -0.51
  81.0699 C6H9+ 1 81.0699 -0.33
  83.0855 C6H11+ 1 83.0855 -0.56
  84.0807 C5H10N+ 1 84.0808 -0.66
  89.0055 C3H5OS+ 1 89.0056 -0.59
  97.0647 C6H9O+ 1 97.0648 -0.73
  98.0964 C6H12N+ 1 98.0964 0.04
  126.0913 C7H12NO+ 1 126.0913 -0.16
  128.1433 C8H18N+ 1 128.1434 -0.2
  160.1154 C8H18NS+ 1 160.1154 -0.04
  188.1103 C9H18NOS+ 1 188.1104 -0.22
PK$NUM_PEAK: 13
PK$PEAK: m/z int. rel.int.
  55.0542 1441034.4 40
  69.0698 39652.8 1
  70.0651 560141.3 15
  81.0699 267665.3 7
  83.0855 3191242.8 90
  84.0807 165427.4 4
  89.0055 190231.9 5
  97.0647 65022.3 1
  98.0964 2850539.8 80
  126.0913 35420684 999
  128.1433 89097.8 2
  160.1154 661385.3 18
  188.1103 20189814 569
//
