ACCESSION: MSBNK-Eawag-EQ332401
RECORD_TITLE: Fosinopril; LC-ESI-QFT; MS2; CE: 15; R=35000; [M+H]+
DATE: 2015.08.25
AUTHORS: Otto J, Stravs M, Schymanski E, Singer H, Department of Environmental Chemistry, Eawag
LICENSE: CC BY
COPYRIGHT: Copyright (C) 2015 Eawag, Duebendorf, Switzerland
COMMENT: CONFIDENCE standard compound
COMMENT: EAWAG_UCHEM_ID 3324
CH$NAME: Fosinopril
CH$NAME: (2S,4S)-4-cyclohexyl-1-[2-[(2-methyl-1-propanoyloxypropoxy)-(4-phenylbutyl)phosphoryl]acetyl]pyrrolidine-2-carboxylic acid
CH$COMPOUND_CLASS: N/A; Environmental Standard
CH$FORMULA: C30H46NO7P
CH$EXACT_MASS: 563.30119
CH$SMILES: O=C(CP(=O)(CCCCc1ccccc1)OC(OC(=O)CC)C(C)C)N2C[C@@H](C[C@H]2C(O)=O)C3CCCCC3
CH$IUPAC: InChI=1S/C30H46NO7P/c1-4-28(33)37-30(22(2)3)38-39(36,18-12-11-15-23-13-7-5-8-14-23)21-27(32)31-20-25(19-26(31)29(34)35)24-16-9-6-10-17-24/h5,7-8,13-14,22,24-26,30H,4,6,9-12,15-21H2,1-3H3,(H,34,35)/t25-,26+,30?,39?/m1/s1
CH$LINK: CAS 98048-97-6
CH$LINK: KEGG C07016
CH$LINK: PUBCHEM CID:55891
CH$LINK: INCHIKEY BIDNLKIUORFRQP-FKDWWROVSA-N
CH$LINK: CHEMSPIDER 50469
CH$LINK: COMPTOX DTXSID1023079
AC$INSTRUMENT: Q Exactive Orbitrap Thermo Scientific
AC$INSTRUMENT_TYPE: LC-ESI-QFT
AC$MASS_SPECTROMETRY: MS_TYPE MS2
AC$MASS_SPECTROMETRY: ION_MODE POSITIVE
AC$MASS_SPECTROMETRY: IONIZATION ESI
AC$MASS_SPECTROMETRY: FRAGMENTATION_MODE HCD
AC$MASS_SPECTROMETRY: COLLISION_ENERGY 15 (nominal)
AC$MASS_SPECTROMETRY: RESOLUTION 35000
AC$CHROMATOGRAPHY: COLUMN_NAME XBridge C18 3.5um, 2.1x50mm, Waters
AC$CHROMATOGRAPHY: FLOW_GRADIENT 90/10 at 0 min, 50/50 at 4 min, 5/95 at 17 min, 5/95 at 25 min, 90/10 at 25.1 min, 90/10 at 30 min
AC$CHROMATOGRAPHY: FLOW_RATE 200 ul/min
AC$CHROMATOGRAPHY: RETENTION_TIME 16.6 min
AC$CHROMATOGRAPHY: SOLVENT A water with 0.1% formic acid
AC$CHROMATOGRAPHY: SOLVENT B methanol with 0.1% formic acid
MS$FOCUSED_ION: BASE_PEAK 564.3085
MS$FOCUSED_ION: PRECURSOR_M/Z 564.3085
MS$FOCUSED_ION: PRECURSOR_TYPE [M+H]+
MS$DATA_PROCESSING: DEPROFILE vendor picking in Proteowizard
MS$DATA_PROCESSING: RECALIBRATE loess on assigned fragments and MS1
MS$DATA_PROCESSING: REANALYZE Peaks with additional N2/O included
MS$DATA_PROCESSING: WHOLE RMassBank 1.9.6
PK$SPLASH: splash10-000i-0000900000-f625a00c8eb75cbf317d
PK$ANNOTATION: m/z tentative_formula formula_count mass error(ppm)
  152.1435 C10H18N+ 1 152.1434 0.68
  372.2073 C26H28O2+ 3 372.2084 -2.96
  418.2142 C23H33NO4P+ 2 418.2142 0
  436.2246 C23H35NO5P+ 2 436.2247 -0.34
  490.2718 C27H41NO5P+ 1 490.2717 0.21
  492.251 C26H39NO6P+ 2 492.251 0.16
PK$NUM_PEAK: 7
PK$PEAK: m/z int. rel.int.
  152.1435 1962923.9 11
  372.2073 481956.4 2
  390.2191 19287112 109
  418.2142 75489152 428
  436.2246 176056256 999
  490.2718 561269.3 3
  492.251 1245013.4 7
//
