ACCESSION: MSBNK-Eawag-EQ01151451
RECORD_TITLE: Acyclovir; LC-ESI-QFT; MS2; CE: 15%; R=17500; [M-H]-
DATE: 2024.05.08
AUTHORS: C. Meyer [dtc], B. Beck [dtc,com], J. Hollender [dtc]
LICENSE: CC BY-SA
COPYRIGHT: Copyright (C) Eawag 2023
PUBLICATION: Meyer, C., Stravs, M., Hollender, J.. How Wastewater Reflects Human Metabolism - Suspect Screening of Pharmaceutical Metabolites in Wastewater Influent. doi:10.1021/acs.est.4c00968
COMMENT: CONFIDENCE standard compound
COMMENT: UCHEM_ID 11514
CH$NAME: Acyclovir
CH$NAME: 2-amino-9-(2-hydroxyethoxymethyl)-3H-purin-6-one
CH$COMPOUND_CLASS: N/A; Environmental Standard
CH$FORMULA: C8H11N5O3
CH$EXACT_MASS: 225.0861892
CH$SMILES: C1=NC2=C(N1COCCO)N=C(NC2=O)N
CH$IUPAC: InChI=1S/C8H11N5O3/c9-8-11-6-5(7(15)12-8)10-3-13(6)4-16-2-1-14/h3,14H,1-2,4H2,(H3,9,11,12,15)
CH$LINK: CHEBI CHEBI:2453
CH$LINK: PUBCHEM CID:2022
CH$LINK: INCHIKEY MKUXAQIIEYXACX-UHFFFAOYSA-N
CH$LINK: CHEMSPIDER 1945
AC$INSTRUMENT: Exploris 240 Orbitrap Thermo Scientific
AC$INSTRUMENT_TYPE: LC-ESI-QFT
AC$MASS_SPECTROMETRY: MS_TYPE MS2
AC$MASS_SPECTROMETRY: ION_MODE NEGATIVE
AC$MASS_SPECTROMETRY: IONIZATION ESI
AC$MASS_SPECTROMETRY: FRAGMENTATION_MODE HCD
AC$MASS_SPECTROMETRY: COLLISION_ENERGY 15 % (nominal)
AC$MASS_SPECTROMETRY: RESOLUTION 17500
AC$MASS_SPECTROMETRY: MASS_RANGE_M/Z 49-250
AC$CHROMATOGRAPHY: COLUMN_NAME XBridge C18 3.5um, 2.1x50mm, Waters
AC$CHROMATOGRAPHY: FLOW_GRADIENT 90/10 at 0 min, 50/50 at 4 min, 5/95 at 17 min, 5/95 at 25 min, 90/10 at 25.1 min, 90/10 at 30 min
AC$CHROMATOGRAPHY: FLOW_RATE 200 uL/min
AC$CHROMATOGRAPHY: RETENTION_TIME 1.167 min
MS$FOCUSED_ION: BASE_PEAK 224.0788
MS$FOCUSED_ION: PRECURSOR_M/Z 224.0789
MS$FOCUSED_ION: PRECURSOR_TYPE [M-H]-
MS$DATA_PROCESSING: RECALIBRATE loess on assigned fragments and MS1
MS$DATA_PROCESSING: REANALYZE Peaks with additional N2/O included
MS$DATA_PROCESSING: WHOLE RMassBank 3.15.1
PK$SPLASH: splash10-00di-0090000000-a3ec72a7434d42b7dcf0
PK$ANNOTATION: m/z tentative_formula formula_count mass error(ppm)
  150.0422 C5H4N5O- 1 150.0421 0.3
  162.0423 C6H4N5O- 1 162.0421 0.96
  224.0789 C8H10N5O3- 1 224.0789 0.12
PK$NUM_PEAK: 3
PK$PEAK: m/z int. rel.int.
  150.0422 92205.2 5
  162.0423 56836.5 3
  224.0789 17901118 999
//
