ACCESSION: MSBNK-Eawag-EQ419502
RECORD_TITLE: Asulam-TP Sulfanilamide; LC-ESI-QFT; MS2; CE: 30%; R=17500; [M+H]+
DATE: 2019.12.03
AUTHORS: K. Kiefer [dtc], J. Hollender [dtc], H. Singer [dtc], M. Stravs [com]
LICENSE: CC BY-SA
COPYRIGHT: Copyright (C) Eawag 2019
PUBLICATION: Kiefer, K.; Mueller, A.; Singer, H.; Hollender, J. New relevant pesticide transformation products in groundwater detected using target and suspect screening for agricultural and urban micropollutants with LC-HRMS. Water Research 2019, 165. DOI: https://doi.org/10.1016/j.watres.2019.114972
COMMENT: CONFIDENCE standard compound
COMMENT: UCHEM_ID 4195
CH$NAME: Asulam-TP Sulfanilamide
CH$NAME: Sulfanilamide
CH$NAME: 4-aminobenzenesulfonamide
CH$COMPOUND_CLASS: N/A; Environmental Standard
CH$FORMULA: C6H8N2O2S
CH$EXACT_MASS: 172.0306
CH$SMILES: C1=C(C=CC(=C1)S(=O)(=O)N)N
CH$IUPAC: InChI=1S/C6H8N2O2S/c7-5-1-3-6(4-2-5)11(8,9)10/h1-4H,7H2,(H2,8,9,10)
CH$LINK: CAS 63-74-1
CH$LINK: CHEBI CHEBI:45373
CH$LINK: KEGG D08543
CH$LINK: PUBCHEM CID:5333
CH$LINK: INCHIKEY FDDDEECHVMSUSB-UHFFFAOYSA-N
CH$LINK: CHEMSPIDER 5142
AC$INSTRUMENT: Q Exactive Plus Orbitrap Thermo Scientific
AC$INSTRUMENT_TYPE: LC-ESI-QFT
AC$MASS_SPECTROMETRY: MS_TYPE MS2
AC$MASS_SPECTROMETRY: ION_MODE POSITIVE
AC$MASS_SPECTROMETRY: IONIZATION ESI
AC$MASS_SPECTROMETRY: FRAGMENTATION_MODE HCD
AC$MASS_SPECTROMETRY: COLLISION_ENERGY 30 % (nominal)
AC$MASS_SPECTROMETRY: RESOLUTION 17500
AC$CHROMATOGRAPHY: COLUMN_NAME XBridge C18 3.5um, 2.1x50mm, Waters
AC$CHROMATOGRAPHY: FLOW_GRADIENT 90/10 at 0 min, 50/50 at 4 min, 5/95 at 17 min, 5/95 at 25 min, 90/10 at 25.1 min, 90/10 at 30 min
AC$CHROMATOGRAPHY: FLOW_RATE 200 uL/min
AC$CHROMATOGRAPHY: RETENTION_TIME 1.130 min
AC$CHROMATOGRAPHY: SOLVENT A water with 0.1% formic acid
AC$CHROMATOGRAPHY: SOLVENT B MeOH with 0.1% formic acid
MS$FOCUSED_ION: BASE_PEAK 156.0115
MS$FOCUSED_ION: PRECURSOR_M/Z 173.0379
MS$FOCUSED_ION: PRECURSOR_TYPE [M+H]+
MS$DATA_PROCESSING: RECALIBRATE loess on assigned fragments and MS1
MS$DATA_PROCESSING: REANALYZE Peaks with additional N2/O included
MS$DATA_PROCESSING: WHOLE RMassBank 2.99.1
PK$SPLASH: splash10-00di-1900000000-bc96b2aafc331ca521b3
PK$ANNOTATION: m/z tentative_formula formula_count mass error(ppm)
  65.0387 C5H5+ 1 65.0386 1.16
  68.0495 C4H6N+ 1 68.0495 0.41
  69.0335 C4H5O+ 1 69.0335 0.8
  78.034 C5H4N+ 1 78.0338 2.7
  79.0178 C5H3O+ 1 79.0178 0.01
  92.0495 C6H6N+ 1 92.0495 0.41
  93.0573 C6H7N+ 1 93.0573 0.19
  96.0444 C5H6NO+ 1 96.0444 -0.03
  108.0444 C6H6NO+ 1 108.0444 0.11
  110.0601 C6H8NO+ 1 110.06 0.68
  113.9637 C3NO2S+ NA 113.9644 -6.75
  125.0473 C6H7NO2+ 1 125.0471 1.5
  156.0114 C6H6NO2S+ 1 156.0114 0.3
  173.038 C6H9N2O2S+ 1 173.0379 0.67
PK$NUM_PEAK: 17
PK$PEAK: m/z int. rel.int.
  65.0387 25220.8 4
  68.0495 95035.7 15
  69.0335 7978 1
  78.034 11066.1 1
  79.0178 14242.6 2
  92.0495 690003.2 113
  93.0573 437752.7 71
  96.0444 18647.8 3
  108.0444 962437.2 158
  110.0601 86009 14
  113.9637 91957.2 15
  120.0557 26346.6 4
  125.0473 8266.1 1
  156.0114 1473950.1 242
  157.0144 25373.3 4
  173.038 6080114.5 999
  191.0485 13925.5 2
//
