ACCESSION: MSBNK-Eawag-EQ362707
RECORD_TITLE: Lacosamide; LC-ESI-QFT; MS2; CE: 120; R=35000; [M+H]+
DATE: 2015.08.25
AUTHORS: Stravs M, Schymanski E, Singer H, Department of Environmental Chemistry, Eawag and Thomaidis N, University of Athens
LICENSE: CC BY
COPYRIGHT: Copyright (C) 2015 Eawag, Duebendorf, Switzerland
COMMENT: CONFIDENCE standard compound
COMMENT: EAWAG_UCHEM_ID 3627
CH$NAME: Lacosamide
CH$NAME: N2-Acetyl-N-benzyl-O-methyl-D-serinamide
CH$NAME: 2-acetamido-N-benzyl-3-methoxypropanamide
CH$COMPOUND_CLASS: N/A; Environmental Standard
CH$FORMULA: C13H18N2O3
CH$EXACT_MASS: 250.13174
CH$SMILES: CC(=O)NC(COC)C(=O)NCC1=CC=CC=C1
CH$IUPAC: InChI=1S/C13H18N2O3/c1-10(16)15-12(9-18-2)13(17)14-8-11-6-4-3-5-7-11/h3-7,12H,8-9H2,1-2H3,(H,14,17)(H,15,16)
CH$LINK: CAS 175481-36-4
CH$LINK: PUBCHEM CID:21634109
CH$LINK: INCHIKEY VPPJLAIAVCUEMN-UHFFFAOYSA-N
CH$LINK: CHEMSPIDER 10266281
AC$INSTRUMENT: Q Exactive Plus Orbitrap Thermo Scientific
AC$INSTRUMENT_TYPE: LC-ESI-QFT
AC$MASS_SPECTROMETRY: MS_TYPE MS2
AC$MASS_SPECTROMETRY: ION_MODE POSITIVE
AC$MASS_SPECTROMETRY: IONIZATION ESI
AC$MASS_SPECTROMETRY: FRAGMENTATION_MODE HCD
AC$MASS_SPECTROMETRY: COLLISION_ENERGY 120 (nominal)
AC$MASS_SPECTROMETRY: RESOLUTION 35000
AC$CHROMATOGRAPHY: COLUMN_NAME XBridge C18 3.5um, 2.1x50mm, Waters
AC$CHROMATOGRAPHY: FLOW_GRADIENT 90/10 at 0 min, 50/50 at 4 min, 5/95 at 17 min, 5/95 at 25 min, 90/10 at 25.1 min, 90/10 at 30 min
AC$CHROMATOGRAPHY: FLOW_RATE 200 ul/min
AC$CHROMATOGRAPHY: RETENTION_TIME 5.1 min
AC$CHROMATOGRAPHY: SOLVENT A water with 0.1% formic acid
AC$CHROMATOGRAPHY: SOLVENT B methanol with 0.1% formic acid
MS$FOCUSED_ION: BASE_PEAK 251.138
MS$FOCUSED_ION: PRECURSOR_M/Z 251.139
MS$FOCUSED_ION: PRECURSOR_TYPE [M+H]+
MS$DATA_PROCESSING: RECALIBRATE loess on assigned fragments and MS1
MS$DATA_PROCESSING: REANALYZE Peaks with additional N2/O included
MS$DATA_PROCESSING: WHOLE RMassBank 1.9.6
PK$SPLASH: splash10-0006-9000000000-714cd39f303c63c096c1
PK$ANNOTATION: m/z tentative_formula formula_count mass error(ppm)
  51.0228 C4H3+ 1 51.0229 -1.7
  56.0494 C3H6N+ 1 56.0495 -1.53
  59.0365 C2H5NO+ 1 59.0366 -1.44
  63.0228 C5H3+ 1 63.0229 -2.17
  65.0385 C5H5+ 1 65.0386 -1.48
  74.0599 C3H8NO+ 1 74.06 -2.03
  91.0541 C7H7+ 1 91.0542 -1.5
  103.054 C8H7+ 1 103.0542 -2.49
  115.054 C9H7+ 1 115.0542 -2.4
  117.0572 C8H7N+ 1 117.0573 -0.77
PK$NUM_PEAK: 10
PK$PEAK: m/z int. rel.int.
  51.0228 310006.2 2
  56.0494 1154651.2 9
  59.0365 4934326.5 41
  63.0228 1126485.4 9
  65.0385 32718328 273
  74.0599 24349184 203
  91.0541 119496088 999
  103.054 292339.2 2
  115.054 444759.3 3
  117.0572 146661.1 1
//
