ACCESSION: MSBNK-Eawag-EQ01123404
RECORD_TITLE: Dioxacarb; LC-ESI-QFT; MS2; CE: 60%; R=17500; [M+H]+
DATE: 2023.04.27
AUTHORS: B. Beck [dtc,com], J. Hollender [dtc]
LICENSE: CC BY-SA
COPYRIGHT: Copyright (C) Eawag 2023
COMMENT: CONFIDENCE standard compound
COMMENT: UCHEM_ID 11234
CH$NAME: Dioxacarb
CH$NAME: [2-(1,3-dioxolan-2-yl)phenyl] N-methylcarbamate
CH$COMPOUND_CLASS: N/A; Environmental Standard
CH$FORMULA: C11H13NO4
CH$EXACT_MASS: 223.0845
CH$SMILES: CNC(=O)OC1=CC=CC=C1C2OCCO2
CH$IUPAC: InChI=1S/C11H13NO4/c1-12-11(13)16-9-5-3-2-4-8(9)10-14-6-7-15-10/h2-5,10H,6-7H2,1H3,(H,12,13)
CH$LINK: CAS 6988-21-2
CH$LINK: CHEBI CHEBI:82093
CH$LINK: KEGG C18953
CH$LINK: PUBCHEM CID:23421
CH$LINK: INCHIKEY SDKQRNRRDYRQKY-UHFFFAOYSA-N
CH$LINK: CHEMSPIDER 21901
AC$INSTRUMENT: Exploris 240 Orbitrap Thermo Scientific
AC$INSTRUMENT_TYPE: LC-ESI-QFT
AC$MASS_SPECTROMETRY: MS_TYPE MS2
AC$MASS_SPECTROMETRY: ION_MODE POSITIVE
AC$MASS_SPECTROMETRY: IONIZATION ESI
AC$MASS_SPECTROMETRY: FRAGMENTATION_MODE HCD
AC$MASS_SPECTROMETRY: COLLISION_ENERGY 60 % (nominal)
AC$MASS_SPECTROMETRY: RESOLUTION 17500
AC$MASS_SPECTROMETRY: MASS_RANGE_M/Z 49-250
AC$CHROMATOGRAPHY: COLUMN_NAME XBridge C18 3.5um, 2.1x50mm, Waters
AC$CHROMATOGRAPHY: FLOW_GRADIENT 90/10 at 0 min, 50/50 at 4 min, 5/95 at 17 min, 5/95 at 25 min, 90/10 at 25.1 min, 90/10 at 30 min
AC$CHROMATOGRAPHY: FLOW_RATE 200 uL/min
AC$CHROMATOGRAPHY: RETENTION_TIME 3.997 min
MS$FOCUSED_ION: BASE_PEAK 167.0701
MS$FOCUSED_ION: PRECURSOR_M/Z 224.0917
MS$FOCUSED_ION: PRECURSOR_TYPE [M+H]+
MS$DATA_PROCESSING: RECALIBRATE loess on assigned fragments and MS1
MS$DATA_PROCESSING: REANALYZE Peaks with additional N2/O included
MS$DATA_PROCESSING: WHOLE RMassBank 3.11.0.1
PK$SPLASH: splash10-00dj-5900000000-3241eb92cf65b61b3e8d
PK$ANNOTATION: m/z tentative_formula formula_count mass error(ppm)
  53.0386 C4H5+ 1 53.0386 -0.17
  77.0385 C6H5+ 1 77.0386 -1.43
  91.0542 C7H7+ 1 91.0542 -0.16
  95.049 C6H7O+ 1 95.0491 -1.31
  118.0648 C8H8N+ 1 118.0651 -2.58
  123.0439 C7H7O2+ 1 123.0441 -1.43
  162.0546 C9H8NO2+ 1 162.055 -2.1
PK$NUM_PEAK: 7
PK$PEAK: m/z int. rel.int.
  53.0386 740146.8 13
  77.0385 2369801 44
  91.0542 930196.3 17
  95.049 30318428 567
  118.0648 892849.8 16
  123.0439 53334568 999
  162.0546 1894481.6 35
//
