ACCESSION: MSBNK-Eawag-EQ301601
RECORD_TITLE: Darunavir; LC-ESI-QFT; MS2; CE: 15; R=35000; [M+H]+
DATE: 2015.08.25
AUTHORS: Beck B, Stravs M, Schymanski E, Singer H, Department of Environmental Chemistry, Eawag
LICENSE: CC BY
COPYRIGHT: Copyright (C) 2015 Eawag, Duebendorf, Switzerland
COMMENT: CONFIDENCE standard compound
COMMENT: EAWAG_UCHEM_ID 3016
CH$NAME: Darunavir
CH$NAME: N-[(1S,2R)-1-benzyl-2-hydroxy-3-[isobutyl(sulfanilyl)amino]propyl]carbamic acid [(3aS,4R,6aR)-2,3,3a,4,5,6a-hexahydrofuro[2,3-b]furan-4-yl] ester
CH$COMPOUND_CLASS: N/A; Environmental Standard
CH$FORMULA: C27H37N3O7S
CH$EXACT_MASS: 547.23522
CH$SMILES: CC(C)CN(CC(C(CC1=CC=CC=C1)NC(=O)OC2COC3C2CCO3)O)S(=O)(=O)C4=CC=C(C=C4)N
CH$IUPAC: InChI=1S/C27H37N3O7S/c1-18(2)15-30(38(33,34)21-10-8-20(28)9-11-21)16-24(31)23(14-19-6-4-3-5-7-19)29-27(32)37-25-17-36-26-22(25)12-13-35-26/h3-11,18,22-26,31H,12-17,28H2,1-2H3,(H,29,32)/t22-,23-,24+,25-,26+/m0/s1
CH$LINK: CAS 206361-99-1
CH$LINK: KEGG D03656
CH$LINK: PUBCHEM CID:213039
CH$LINK: INCHIKEY CJBJHOAVZSMMDJ-HEXNFIEUSA-N
CH$LINK: CHEMSPIDER 184733
CH$LINK: COMPTOX DTXSID0046779
AC$INSTRUMENT: Q Exactive Orbitrap Thermo Scientific
AC$INSTRUMENT_TYPE: LC-ESI-QFT
AC$MASS_SPECTROMETRY: MS_TYPE MS2
AC$MASS_SPECTROMETRY: ION_MODE POSITIVE
AC$MASS_SPECTROMETRY: IONIZATION ESI
AC$MASS_SPECTROMETRY: FRAGMENTATION_MODE HCD
AC$MASS_SPECTROMETRY: COLLISION_ENERGY 15 (nominal)
AC$MASS_SPECTROMETRY: RESOLUTION 35000
AC$CHROMATOGRAPHY: COLUMN_NAME XBridge C18 3.5um, 2.1x50mm, Waters
AC$CHROMATOGRAPHY: FLOW_GRADIENT 90/10 at 0 min, 50/50 at 4 min, 5/95 at 17 min, 5/95 at 25 min, 90/10 at 25.1 min, 90/10 at 30 min
AC$CHROMATOGRAPHY: FLOW_RATE 200 ul/min
AC$CHROMATOGRAPHY: RETENTION_TIME 8.7 min
AC$CHROMATOGRAPHY: SOLVENT A water with 0.1% formic acid
AC$CHROMATOGRAPHY: SOLVENT B methanol with 0.1% formic acid
MS$FOCUSED_ION: BASE_PEAK 548.2426
MS$FOCUSED_ION: PRECURSOR_M/Z 548.2425
MS$FOCUSED_ION: PRECURSOR_TYPE [M+H]+
MS$DATA_PROCESSING: DEPROFILE Spline
MS$DATA_PROCESSING: RECALIBRATE loess on assigned fragments and MS1
MS$DATA_PROCESSING: REANALYZE Peaks with additional N2/O included
MS$DATA_PROCESSING: WHOLE RMassBank 1.9.6
PK$SPLASH: splash10-0006-2309000000-e6767f5d8648334c41c9
PK$ANNOTATION: m/z tentative_formula formula_count mass error(ppm)
  67.0542 C5H7+ 1 67.0542 -0.4
  69.0335 C4H5O+ 1 69.0335 -0.31
  95.0491 C6H7O+ 1 95.0491 -0.85
  113.0597 C6H9O2+ 1 113.0597 -0.32
  120.0809 C8H10N+ 1 120.0808 0.7
  156.0106 C6H6NO2S+ 1 156.0114 -4.78
  164.1071 C10H14NO+ 2 164.107 0.79
  241.1005 C11H17N2O2S+ 2 241.1005 -0.02
  245.1649 C15H21N2O+ 2 245.1648 0.41
  357.1633 C20H25N2O2S+ 1 357.1631 0.6
  375.1742 C20H27N2O3S+ 2 375.1737 1.41
  392.2003 C20H30N3O3S+ 2 392.2002 0.13
PK$NUM_PEAK: 14
PK$PEAK: m/z int. rel.int.
  67.0542 953888.6 11
  69.0335 23216214.2 287
  95.0491 210120.9 2
  113.0597 30098840.4 373
  120.0809 187842.9 2
  156.0106 1444626.4 17
  164.1071 243385.6 3
  241.1005 2166308.5 26
  245.1649 1480644.5 18
  357.1633 153982.9 1
  375.1742 186232.7 2
  392.2003 80593205.6 999
  418.1797 1584111.79 19
  436.1901 2142029.129 26
//
