ACCESSION: MSBNK-Eawag-EA256709
RECORD_TITLE: Tramadol; LC-ESI-ITFT; MS2; CE: 30%; R=15000; [M+H]+
DATE: 2014.01.14
AUTHORS: Stravs M, Schymanski E, Singer H, Department of Environmental Chemistry, Eawag
LICENSE: CC BY
COPYRIGHT: Copyright (C) 2012 Eawag, Duebendorf, Switzerland
COMMENT: CONFIDENCE standard compound
COMMENT: EAWAG_UCHEM_ID 2567
CH$NAME: Tramadol
CH$NAME: (1R,2R)-2-(dimethylaminomethyl)-1-(3-methoxyphenyl)-1-cyclohexanol
CH$COMPOUND_CLASS: N/A; Environmental Standard
CH$FORMULA: C16H25NO2
CH$EXACT_MASS: 263.1885
CH$SMILES: COC1=CC=CC(=C1)[C@@]2(O)CCCC[C@@H]2CN(C)C
CH$IUPAC: InChI=1S/C16H25NO2/c1-17(2)12-14-7-4-5-10-16(14,18)13-8-6-9-15(11-13)19-3/h6,8-9,11,14,18H,4-5,7,10,12H2,1-3H3/t14-,16+/m1/s1
CH$LINK: CAS 27203-92-5
CH$LINK: KEGG C07153
CH$LINK: PUBCHEM CID:33741
CH$LINK: INCHIKEY TVYLLZQTGLZFBW-ZBFHGGJFSA-N
CH$LINK: CHEMSPIDER 31105
CH$LINK: COMPTOX DTXSID90858931
AC$INSTRUMENT: LTQ Orbitrap XL Thermo Scientific
AC$INSTRUMENT_TYPE: LC-ESI-ITFT
AC$MASS_SPECTROMETRY: MS_TYPE MS2
AC$MASS_SPECTROMETRY: ION_MODE POSITIVE
AC$MASS_SPECTROMETRY: IONIZATION ESI
AC$MASS_SPECTROMETRY: FRAGMENTATION_MODE HCD
AC$MASS_SPECTROMETRY: COLLISION_ENERGY 30 % (nominal)
AC$MASS_SPECTROMETRY: RESOLUTION 15000
AC$CHROMATOGRAPHY: COLUMN_NAME XBridge C18 3.5um, 2.1x50mm, Waters
AC$CHROMATOGRAPHY: FLOW_GRADIENT 90/10 at 0 min, 50/50 at 4 min, 5/95 at 17 min, 5/95 at 25 min, 90/10 at 25.1 min, 90/10 at 30 min
AC$CHROMATOGRAPHY: FLOW_RATE 200 ul/min
AC$CHROMATOGRAPHY: RETENTION_TIME 4.9 min
AC$CHROMATOGRAPHY: SOLVENT A water with 0.1% formic acid
AC$CHROMATOGRAPHY: SOLVENT B methanol with 0.1% formic acid
MS$FOCUSED_ION: BASE_PEAK 264.1965
MS$FOCUSED_ION: PRECURSOR_M/Z 264.1958
MS$FOCUSED_ION: PRECURSOR_TYPE [M+H]+
MS$DATA_PROCESSING: DEPROFILE Spline
MS$DATA_PROCESSING: RECALIBRATE loess on assigned fragments and MS1
MS$DATA_PROCESSING: REANALYZE Peaks with additional N2/O included
MS$DATA_PROCESSING: WHOLE RMassBank 1.3.1
PK$SPLASH: splash10-0a4i-9030000000-fa1522b6a491e6da41c9
PK$ANNOTATION: m/z tentative_formula formula_count mass error(ppm)
  56.0492 C3H6N+ 1 56.0495 -4.2
  58.0651 C3H8N+ 1 58.0651 -0.1
  246.185 C16H24NO+ 1 246.1852 -0.94
  264.1962 C16H26NO2+ 1 264.1958 1.38
PK$NUM_PEAK: 4
PK$PEAK: m/z int. rel.int.
  56.0492 7624.5 2
  58.0651 3368881.9 999
  246.185 84474.2 25
  264.1962 1361408.9 403
//
