ACCESSION: MSBNK-Eawag-EA032713
RECORD_TITLE: Tebuconazole; LC-ESI-ITFT; MS2; CE: 90%; R=30000; [M+H]+
DATE: 2014.01.14
AUTHORS: Stravs M, Schymanski E, Singer H, Department of Environmental Chemistry, Eawag
LICENSE: CC BY
COPYRIGHT: Copyright (C) 2012 Eawag, Duebendorf, Switzerland
COMMENT: CONFIDENCE standard compound
COMMENT: EAWAG_UCHEM_ID 327
CH$NAME: Tebuconazole
CH$NAME: 1-(4-chlorophenyl)-4,4-dimethyl-3-(1,2,4-triazol-1-ylmethyl)-3-pentanol
CH$COMPOUND_CLASS: N/A; Environmental Standard
CH$FORMULA: C16H22ClN3O
CH$EXACT_MASS: 307.1446
CH$SMILES: CC(C)(C)C(CCC1=CC=C(C=C1)Cl)(CN2C=NC=N2)O
CH$IUPAC: InChI=1S/C16H22ClN3O/c1-15(2,3)16(21,10-20-12-18-11-19-20)9-8-13-4-6-14(17)7-5-13/h4-7,11-12,21H,8-10H2,1-3H3
CH$LINK: CAS 107534-96-3
CH$LINK: PUBCHEM CID:86102
CH$LINK: INCHIKEY PXMNMQRDXWABCY-UHFFFAOYSA-N
CH$LINK: CHEMSPIDER 77680
CH$LINK: COMPTOX DTXSID9032113
AC$INSTRUMENT: LTQ Orbitrap XL Thermo Scientific
AC$INSTRUMENT_TYPE: LC-ESI-ITFT
AC$MASS_SPECTROMETRY: MS_TYPE MS2
AC$MASS_SPECTROMETRY: ION_MODE POSITIVE
AC$MASS_SPECTROMETRY: IONIZATION ESI
AC$MASS_SPECTROMETRY: FRAGMENTATION_MODE HCD
AC$MASS_SPECTROMETRY: COLLISION_ENERGY 90 % (nominal)
AC$MASS_SPECTROMETRY: RESOLUTION 30000
AC$CHROMATOGRAPHY: COLUMN_NAME XBridge C18 3.5um, 2.1x50mm, Waters
AC$CHROMATOGRAPHY: FLOW_GRADIENT 90/10 at 0 min, 50/50 at 4 min, 5/95 at 17 min, 5/95 at 25 min, 90/10 at 25.1 min, 90/10 at 30 min
AC$CHROMATOGRAPHY: FLOW_RATE 200 ul/min
AC$CHROMATOGRAPHY: RETENTION_TIME 12.8 min
AC$CHROMATOGRAPHY: SOLVENT A water with 0.1% formic acid
AC$CHROMATOGRAPHY: SOLVENT B methanol with 0.1% formic acid
MS$FOCUSED_ION: BASE_PEAK 308.1531
MS$FOCUSED_ION: PRECURSOR_M/Z 308.1524
MS$FOCUSED_ION: PRECURSOR_TYPE [M+H]+
MS$DATA_PROCESSING: DEPROFILE Spline
MS$DATA_PROCESSING: RECALIBRATE loess on assigned fragments and MS1
MS$DATA_PROCESSING: REANALYZE Peaks with additional N2/O included
MS$DATA_PROCESSING: WHOLE RMassBank 1.3.1
PK$SPLASH: splash10-00di-9300000000-281633ee9048c60228ba
PK$ANNOTATION: m/z tentative_formula formula_count mass error(ppm)
  57.0698 C4H9+ 1 57.0699 -0.82
  59.0491 C3H7O+ 1 59.0491 -0.7
  70.04 C2H4N3+ 1 70.04 0.52
  83.0855 C6H11+ 1 83.0855 -0.44
  89.0385 C7H5+ 1 89.0386 -0.52
  103.0542 C8H7+ 1 103.0542 -0.16
  115.0542 C9H7+ 1 115.0542 0.03
  116.0621 C9H8+ 1 116.0621 0.24
  125.0153 C7H6Cl+ 1 125.0153 0.37
  129.0699 C10H9+ 1 129.0699 0.41
  130.0777 C10H10+ 1 130.0777 -0.01
  139.031 C8H8Cl+ 1 139.0309 0.4
  143.0605 C9H7N2+ 1 143.0604 0.81
  151.0309 C9H8Cl+ 1 151.0309 0.17
  308.153 C16H23ClN3O+ 1 308.1524 1.8
PK$NUM_PEAK: 15
PK$PEAK: m/z int. rel.int.
  57.0698 6043.1 5
  59.0491 30469.5 28
  70.04 1074027.5 999
  83.0855 2707 2
  89.0385 10217.1 9
  103.0542 13454.8 12
  115.0542 39933 37
  116.0621 64827.1 60
  125.0153 318816.7 296
  129.0699 9315.3 8
  130.0777 12337.2 11
  139.031 6867.9 6
  143.0605 4704.9 4
  151.0309 14120.2 13
  308.153 4198.8 3
//
