ACCESSION: MSBNK-Eawag-EQ300902
RECORD_TITLE: Primaquine; LC-ESI-QFT; MS2; CE: 30; R=35000; [M+H]+
DATE: 2015.08.25
AUTHORS: Beck B, Stravs M, Schymanski E, Singer H, Department of Environmental Chemistry, Eawag
LICENSE: CC BY
COPYRIGHT: Copyright (C) 2015 Eawag, Duebendorf, Switzerland
COMMENT: CONFIDENCE standard compound
COMMENT: EAWAG_UCHEM_ID 3009
CH$NAME: Primaquine
CH$NAME: (4-amino-1-methyl-butyl)-(6-methoxy-8-quinolyl)amine
CH$COMPOUND_CLASS: N/A; Environmental Standard
CH$FORMULA: C15H21N3O
CH$EXACT_MASS: 259.16846
CH$SMILES: O(c1cc(NC(C)CCCN)c2ncccc2c1)C
CH$IUPAC: InChI=1S/C15H21N3O/c1-11(5-3-7-16)18-14-10-13(19-2)9-12-6-4-8-17-15(12)14/h4,6,8-11,18H,3,5,7,16H2,1-2H3
CH$LINK: CAS 90-34-6
CH$LINK: KEGG C07627
CH$LINK: PUBCHEM CID:4908
CH$LINK: INCHIKEY INDBQLZJXZLFIT-UHFFFAOYSA-N
CH$LINK: CHEMSPIDER 4739
CH$LINK: COMPTOX DTXSID8023509
AC$INSTRUMENT: Q Exactive Orbitrap Thermo Scientific
AC$INSTRUMENT_TYPE: LC-ESI-QFT
AC$MASS_SPECTROMETRY: MS_TYPE MS2
AC$MASS_SPECTROMETRY: ION_MODE POSITIVE
AC$MASS_SPECTROMETRY: IONIZATION ESI
AC$MASS_SPECTROMETRY: FRAGMENTATION_MODE HCD
AC$MASS_SPECTROMETRY: COLLISION_ENERGY 30 (nominal)
AC$MASS_SPECTROMETRY: RESOLUTION 35000
AC$CHROMATOGRAPHY: COLUMN_NAME XBridge C18 3.5um, 2.1x50mm, Waters
AC$CHROMATOGRAPHY: FLOW_GRADIENT 90/10 at 0 min, 50/50 at 4 min, 5/95 at 17 min, 5/95 at 25 min, 90/10 at 25.1 min, 90/10 at 30 min
AC$CHROMATOGRAPHY: FLOW_RATE 200 ul/min
AC$CHROMATOGRAPHY: RETENTION_TIME 6.4 min
AC$CHROMATOGRAPHY: SOLVENT A water with 0.1% formic acid
AC$CHROMATOGRAPHY: SOLVENT B methanol with 0.1% formic acid
MS$FOCUSED_ION: BASE_PEAK 260.1758
MS$FOCUSED_ION: PRECURSOR_M/Z 260.1757
MS$FOCUSED_ION: PRECURSOR_TYPE [M+H]+
MS$DATA_PROCESSING: DEPROFILE Spline
MS$DATA_PROCESSING: RECALIBRATE loess on assigned fragments and MS1
MS$DATA_PROCESSING: REANALYZE Peaks with additional N2/O included
MS$DATA_PROCESSING: WHOLE RMassBank 1.9.6
PK$SPLASH: splash10-000l-9360000000-9f32d7ddbda48f0e2dc5
PK$ANNOTATION: m/z tentative_formula formula_count mass error(ppm)
  69.0699 C5H9+ 1 69.0699 0.05
  86.0964 C5H12N+ 1 86.0964 0.05
  132.0679 C8H8N2+ 1 132.0682 -1.89
  174.0786 C10H10N2O+ 1 174.0788 -0.94
  175.0866 C10H11N2O+ 1 175.0866 -0.05
  187.0866 C11H11N2O+ 1 187.0866 -0.1
  241.1336 C15H17N2O+ 1 241.1335 0.25
  243.1492 C15H19N2O+ 1 243.1492 0.17
  260.1757 C15H22N3O+ 1 260.1757 -0.07
PK$NUM_PEAK: 9
PK$PEAK: m/z int. rel.int.
  69.0699 20632018.8 72
  86.0964 285046533.7 999
  132.0679 547304 1
  174.0786 882502.6 3
  175.0866 125521400.8 439
  187.0866 6461744.6 22
  241.1336 17863236.2 62
  243.1492 198998502.3 697
  260.1757 11241178.7 39
//
