ACCESSION: MSBNK-Eawag-EA066502
RECORD_TITLE: Propachlor ESA; LC-ESI-ITFT; MS2; CE: 15%; R=7500; [M+H]+
DATE: 2014.01.14
AUTHORS: Stravs M, Schymanski E, Singer H, Department of Environmental Chemistry, Eawag
LICENSE: CC BY
COPYRIGHT: Copyright (C) 2012 Eawag, Duebendorf, Switzerland
COMMENT: CONFIDENCE standard compound
COMMENT: EAWAG_UCHEM_ID 665
CH$NAME: Propachlor ESA
CH$NAME: 2-[Isopropyl(phenyl)amino]-2-oxoethanesulfonic acid
CH$COMPOUND_CLASS: N/A; Environmental Standard
CH$FORMULA: C11H15NO4S
CH$EXACT_MASS: 257.0722
CH$SMILES: O=S(=O)(O)CC(=O)N(c1ccccc1)C(C)C
CH$IUPAC: InChI=1S/C11H15NO4S/c1-9(2)12(10-6-4-3-5-7-10)11(13)8-17(14,15)16/h3-7,9H,8H2,1-2H3,(H,14,15,16)
CH$LINK: CAS 123732-85-4
CH$LINK: PUBCHEM CID:16212221
CH$LINK: INCHIKEY BFSZJLBDHMMCAH-UHFFFAOYSA-N
CH$LINK: CHEMSPIDER 17340099
CH$LINK: COMPTOX DTXSID20891452
AC$INSTRUMENT: LTQ Orbitrap XL Thermo Scientific
AC$INSTRUMENT_TYPE: LC-ESI-ITFT
AC$MASS_SPECTROMETRY: MS_TYPE MS2
AC$MASS_SPECTROMETRY: ION_MODE POSITIVE
AC$MASS_SPECTROMETRY: IONIZATION ESI
AC$MASS_SPECTROMETRY: FRAGMENTATION_MODE HCD
AC$MASS_SPECTROMETRY: COLLISION_ENERGY 15 % (nominal)
AC$MASS_SPECTROMETRY: RESOLUTION 7500
AC$CHROMATOGRAPHY: COLUMN_NAME XBridge C18 3.5um, 2.1x50mm, Waters
AC$CHROMATOGRAPHY: FLOW_GRADIENT 90/10 at 0 min, 50/50 at 4 min, 5/95 at 17 min, 5/95 at 25 min, 90/10 at 25.1 min, 90/10 at 30 min
AC$CHROMATOGRAPHY: FLOW_RATE 200 ul/min
AC$CHROMATOGRAPHY: RETENTION_TIME 5.9 min
AC$CHROMATOGRAPHY: SOLVENT A water with 0.1% formic acid
AC$CHROMATOGRAPHY: SOLVENT B methanol with 0.1% formic acid
MS$FOCUSED_ION: BASE_PEAK 258.0802
MS$FOCUSED_ION: PRECURSOR_M/Z 258.0795
MS$FOCUSED_ION: PRECURSOR_TYPE [M+H]+
MS$DATA_PROCESSING: DEPROFILE Spline
MS$DATA_PROCESSING: RECALIBRATE loess on assigned fragments and MS1
MS$DATA_PROCESSING: REANALYZE Peaks with additional N2/O included
MS$DATA_PROCESSING: WHOLE RMassBank 1.3.1
PK$SPLASH: splash10-0a4i-0090000000-2f470286e6272ba8ad1c
PK$ANNOTATION: m/z tentative_formula formula_count mass error(ppm)
  94.065 C6H8N+ 1 94.0651 -1.02
  136.0756 C8H10NO+ 1 136.0757 -0.3
  198.022 C8H8NO3S+ 1 198.0219 0.5
  216.0327 C8H10NO4S+ 1 216.0325 0.9
  258.0798 C11H16NO4S+ 1 258.0795 1.18
PK$NUM_PEAK: 5
PK$PEAK: m/z int. rel.int.
  94.065 34580.1 8
  136.0756 22257.3 5
  198.022 30563.3 7
  216.0327 1377270.6 353
  258.0798 3894418.3 999
//
