ACCESSION: MSBNK-Eawag-EA265814
RECORD_TITLE: N,N-Didesmethylvenlafaxine; LC-ESI-ITFT; MS2; CE: 35%; R=30000; [M+H]+
DATE: 2014.01.14
AUTHORS: Stravs M, Schymanski E, Singer H, Department of Environmental Chemistry, Eawag
LICENSE: CC BY
COPYRIGHT: Copyright (C) 2012 Eawag, Duebendorf, Switzerland
COMMENT: CONFIDENCE standard compound
COMMENT: EAWAG_UCHEM_ID 2658
CH$NAME: N,N-Didesmethylvenlafaxine
CH$NAME: 1-[2-Amino-1-(4-methoxyphenyl)ethyl]cyclohexanol
CH$COMPOUND_CLASS: N/A; Environmental Standard
CH$FORMULA: C15H23NO2
CH$EXACT_MASS: 249.1729
CH$SMILES: OC2(C(c1ccc(OC)cc1)CN)CCCCC2
CH$IUPAC: InChI=1S/C15H23NO2/c1-18-13-7-5-12(6-8-13)14(11-16)15(17)9-3-2-4-10-15/h5-8,14,17H,2-4,9-11,16H2,1H3
CH$LINK: CAS 93413-77-5
CH$LINK: CHEBI CHEBI:261155
CH$LINK: PUBCHEM CID:9795857
CH$LINK: INCHIKEY SUQHIQRIIBKNOR-UHFFFAOYSA-N
CH$LINK: CHEMSPIDER 7971623
CH$LINK: COMPTOX DTXSID50891440
AC$INSTRUMENT: LTQ Orbitrap XL Thermo Scientific
AC$INSTRUMENT_TYPE: LC-ESI-ITFT
AC$MASS_SPECTROMETRY: MS_TYPE MS2
AC$MASS_SPECTROMETRY: ION_MODE POSITIVE
AC$MASS_SPECTROMETRY: IONIZATION ESI
AC$MASS_SPECTROMETRY: FRAGMENTATION_MODE CID
AC$MASS_SPECTROMETRY: COLLISION_ENERGY 35 % (nominal)
AC$MASS_SPECTROMETRY: RESOLUTION 30000
AC$CHROMATOGRAPHY: COLUMN_NAME XBridge C18 3.5um, 2.1x50mm, Waters
AC$CHROMATOGRAPHY: FLOW_GRADIENT 90/10 at 0 min, 50/50 at 4 min, 5/95 at 17 min, 5/95 at 25 min, 90/10 at 25.1 min, 90/10 at 30 min
AC$CHROMATOGRAPHY: FLOW_RATE 200 ul/min
AC$CHROMATOGRAPHY: RETENTION_TIME 6.3 min
AC$CHROMATOGRAPHY: SOLVENT A water with 0.1% formic acid
AC$CHROMATOGRAPHY: SOLVENT B methanol with 0.1% formic acid
MS$FOCUSED_ION: BASE_PEAK 250.1814
MS$FOCUSED_ION: PRECURSOR_M/Z 250.1802
MS$FOCUSED_ION: PRECURSOR_TYPE [M+H]+
MS$DATA_PROCESSING: DEPROFILE Spline
MS$DATA_PROCESSING: RECALIBRATE loess on assigned fragments and MS1
MS$DATA_PROCESSING: REANALYZE Peaks with additional N2/O included
MS$DATA_PROCESSING: WHOLE RMassBank 1.3.1
PK$SPLASH: splash10-001i-0090000000-ba72b921dbfb0667fa49
PK$ANNOTATION: m/z tentative_formula formula_count mass error(ppm)
  121.0646 C8H9O+ 1 121.0648 -1.25
  124.1121 C8H14N+ 1 124.1121 0.03
  203.1431 C14H19O+ 1 203.143 0.14
  215.1433 C15H19O+ 1 215.143 1.06
  232.1698 C15H22NO+ 1 232.1696 0.77
PK$NUM_PEAK: 5
PK$PEAK: m/z int. rel.int.
  121.0646 8365.4 5
  124.1121 1835.6 1
  203.1431 22927.6 14
  215.1433 414147.2 259
  232.1698 1596073.1 999
//
