ACCESSION: MSBNK-Eawag-EQ01154955
RECORD_TITLE: Sacubitrilat; LC-ESI-QFT; MS2; CE: 75%; R=17500; [M-H]-
DATE: 2024.05.08
AUTHORS: C. Meyer [dtc], B. Beck [dtc,com], J. Hollender [dtc]
LICENSE: CC BY-SA
COPYRIGHT: Copyright (C) Eawag 2023
PUBLICATION: Meyer, C., Stravs, M., Hollender, J.. How Wastewater Reflects Human Metabolism - Suspect Screening of Pharmaceutical Metabolites in Wastewater Influent. doi:10.1021/acs.est.4c00968
COMMENT: CONFIDENCE standard compound
COMMENT: UCHEM_ID 11549
CH$NAME: Sacubitrilat
CH$NAME: (2R,4S)-4-(3-carboxypropanoylamino)-2-methyl-5-(4-phenylphenyl)pentanoic Acid
CH$NAME: 4-(3-carboxypropanoylamino)-2-methyl-5-(4-phenylphenyl)pentanoic acid
CH$NAME: LBQ657
CH$COMPOUND_CLASS: N/A; Environmental Standard
CH$FORMULA: C22H25NO5
CH$EXACT_MASS: 383.1732729
CH$SMILES: CC(CC(CC1=CC=C(C=C1)C2=CC=CC=C2)NC(=O)CCC(=O)O)C(=O)O
CH$IUPAC: InChI=1S/C22H25NO5/c1-15(22(27)28)13-19(23-20(24)11-12-21(25)26)14-16-7-9-18(10-8-16)17-5-3-2-4-6-17/h2-10,15,19H,11-14H2,1H3,(H,23,24)(H,25,26)(H,27,28)
CH$LINK: PUBCHEM CID:18962645
CH$LINK: INCHIKEY DOBNVUFHFMVMDB-UHFFFAOYSA-N
CH$LINK: CHEMSPIDER 14294670
AC$INSTRUMENT: Exploris 240 Orbitrap Thermo Scientific
AC$INSTRUMENT_TYPE: LC-ESI-QFT
AC$MASS_SPECTROMETRY: MS_TYPE MS2
AC$MASS_SPECTROMETRY: ION_MODE NEGATIVE
AC$MASS_SPECTROMETRY: IONIZATION ESI
AC$MASS_SPECTROMETRY: FRAGMENTATION_MODE HCD
AC$MASS_SPECTROMETRY: COLLISION_ENERGY 75 % (nominal)
AC$MASS_SPECTROMETRY: RESOLUTION 17500
AC$MASS_SPECTROMETRY: MASS_RANGE_M/Z 50-411
AC$CHROMATOGRAPHY: COLUMN_NAME XBridge C18 3.5um, 2.1x50mm, Waters
AC$CHROMATOGRAPHY: FLOW_GRADIENT 90/10 at 0 min, 50/50 at 4 min, 5/95 at 17 min, 5/95 at 25 min, 90/10 at 25.1 min, 90/10 at 30 min
AC$CHROMATOGRAPHY: FLOW_RATE 200 uL/min
AC$CHROMATOGRAPHY: RETENTION_TIME 9.234 min
MS$FOCUSED_ION: BASE_PEAK 382.1658
MS$FOCUSED_ION: PRECURSOR_M/Z 382.166
MS$FOCUSED_ION: PRECURSOR_TYPE [M-H]-
MS$DATA_PROCESSING: RECALIBRATE loess on assigned fragments and MS1
MS$DATA_PROCESSING: REANALYZE Peaks with additional N2/O included
MS$DATA_PROCESSING: WHOLE RMassBank 3.15.1
PK$SPLASH: splash10-0002-9200000000-8d7878eedef353400559
PK$ANNOTATION: m/z tentative_formula formula_count mass error(ppm)
  55.0189 C3H3O- 1 55.0189 -1.32
  70.0299 C3H4NO- 1 70.0298 0.81
  72.0454 C3H6NO- 1 72.0455 -0.88
  98.0247 C4H4NO2- 1 98.0248 -0.54
  99.0088 C4H3O3- 1 99.0088 -0.08
  114.0556 C5H8NO2- 1 114.0561 -3.81
  116.0353 C4H6NO3- 1 116.0353 -0.16
  167.0866 C13H11- 1 167.0866 -0.41
PK$NUM_PEAK: 8
PK$PEAK: m/z int. rel.int.
  55.0189 623121.9 34
  70.0299 628229.1 34
  72.0454 1805871.5 98
  98.0247 18304154 999
  99.0088 1405264.6 76
  114.0556 224294 12
  116.0353 300263.8 16
  167.0866 6117429.5 333
//
