ACCESSION: MSBNK-Eawag-EQ01137101
RECORD_TITLE: Formothion; LC-ESI-QFT; MS2; CE: 15%; R=17500; [M+H]+
DATE: 2023.04.27
AUTHORS: B. Beck [dtc,com], J. Hollender [dtc]
LICENSE: CC BY-SA
COPYRIGHT: Copyright (C) Eawag 2023
COMMENT: CONFIDENCE standard compound
COMMENT: UCHEM_ID 11371
CH$NAME: Formothion
CH$NAME: 2-dimethoxyphosphinothioylsulfanyl-N-formyl-N-methylacetamide
CH$COMPOUND_CLASS: N/A; Environmental Standard
CH$FORMULA: C6H12NO4PS2
CH$EXACT_MASS: 256.9945
CH$SMILES: CN(C=O)C(=O)CSP(=S)(OC)OC
CH$IUPAC: InChI=1S/C6H12NO4PS2/c1-7(5-8)6(9)4-14-12(13,10-2)11-3/h5H,4H2,1-3H3
CH$LINK: CAS 2540-82-1
CH$LINK: CHEBI CHEBI:82126
CH$LINK: KEGG C18988
CH$LINK: PUBCHEM CID:17345
CH$LINK: INCHIKEY AIKKULXCBHRFOS-UHFFFAOYSA-N
CH$LINK: CHEMSPIDER 16412
AC$INSTRUMENT: Exploris 240 Orbitrap Thermo Scientific
AC$INSTRUMENT_TYPE: LC-ESI-QFT
AC$MASS_SPECTROMETRY: MS_TYPE MS2
AC$MASS_SPECTROMETRY: ION_MODE POSITIVE
AC$MASS_SPECTROMETRY: IONIZATION ESI
AC$MASS_SPECTROMETRY: FRAGMENTATION_MODE HCD
AC$MASS_SPECTROMETRY: COLLISION_ENERGY 15 % (nominal)
AC$MASS_SPECTROMETRY: RESOLUTION 17500
AC$MASS_SPECTROMETRY: MASS_RANGE_M/Z 50-284
AC$CHROMATOGRAPHY: COLUMN_NAME XBridge C18 3.5um, 2.1x50mm, Waters
AC$CHROMATOGRAPHY: FLOW_GRADIENT 90/10 at 0 min, 50/50 at 4 min, 5/95 at 17 min, 5/95 at 25 min, 90/10 at 25.1 min, 90/10 at 30 min
AC$CHROMATOGRAPHY: FLOW_RATE 200 uL/min
AC$CHROMATOGRAPHY: RETENTION_TIME 5.214 min
MS$FOCUSED_ION: BASE_PEAK 198.9647
MS$FOCUSED_ION: PRECURSOR_M/Z 258.0018
MS$FOCUSED_ION: PRECURSOR_TYPE [M+H]+
MS$DATA_PROCESSING: RECALIBRATE loess on assigned fragments and MS1
MS$DATA_PROCESSING: REANALYZE Peaks with additional N2/O included
MS$DATA_PROCESSING: WHOLE RMassBank 3.11.0.1
PK$SPLASH: splash10-0002-0900000000-8c56d0e90862a6115cfb
PK$ANNOTATION: m/z tentative_formula formula_count mass error(ppm)
  88.0215 C3H6NS+ 1 88.0215 -1.06
  100.0393 C4H6NO2+ 1 100.0393 -0.48
  116.0163 C4H6NOS+ 1 116.0165 -1.25
  124.982 C2H6O2PS+ 1 124.9821 -0.12
  142.9928 C2H8O3PS+ 1 142.9926 1.14
  170.9697 C3H8O2PS2+ 1 170.9698 -0.68
  184.9488 C3H6O3PS2+ 1 184.949 -1.43
  198.9646 C4H8O3PS2+ 1 198.9647 -0.65
PK$NUM_PEAK: 8
PK$PEAK: m/z int. rel.int.
  88.0215 113094.1 13
  100.0393 1300411.9 155
  116.0163 256744.2 30
  124.982 289827.9 34
  142.9928 105488.1 12
  170.9697 1055370.1 126
  184.9488 146693.2 17
  198.9646 8359779.5 999
//
