ACCESSION: MSBNK-Eawag-EQ01163307
RECORD_TITLE: Alverine; LC-ESI-QFT; MS2; CE: 120%; R=17500; [M+H]+
DATE: 2024.01.16
AUTHORS: B. Beck [dtc,com], J. Hollender [dtc]
LICENSE: CC BY-SA
COPYRIGHT: Copyright (C) Eawag 2023
COMMENT: CONFIDENCE standard compound
COMMENT: UCHEM_ID 11633
CH$NAME: Alverine
CH$NAME: N-ethyl-3-phenyl-N-(3-phenylpropyl)propan-1-amine
CH$COMPOUND_CLASS: N/A; Environmental Standard
CH$FORMULA: C20H27N
CH$EXACT_MASS: 281.214349864
CH$SMILES: CCN(CCCC1=CC=CC=C1)CCCC2=CC=CC=C2
CH$IUPAC: InChI=1S/C20H27N/c1-2-21(17-9-15-19-11-5-3-6-12-19)18-10-16-20-13-7-4-8-14-20/h3-8,11-14H,2,9-10,15-18H2,1H3
CH$LINK: CHEBI CHEBI:518413
CH$LINK: PUBCHEM CID:3678
CH$LINK: INCHIKEY ZPFXAOWNKLFJDN-UHFFFAOYSA-N
CH$LINK: CHEMSPIDER 3550
AC$INSTRUMENT: Exploris 240 Orbitrap Thermo Scientific
AC$INSTRUMENT_TYPE: LC-ESI-QFT
AC$MASS_SPECTROMETRY: MS_TYPE MS2
AC$MASS_SPECTROMETRY: ION_MODE POSITIVE
AC$MASS_SPECTROMETRY: IONIZATION ESI
AC$MASS_SPECTROMETRY: FRAGMENTATION_MODE HCD
AC$MASS_SPECTROMETRY: COLLISION_ENERGY 120 % (nominal)
AC$MASS_SPECTROMETRY: RESOLUTION 17500
AC$MASS_SPECTROMETRY: MASS_RANGE_M/Z 50-309
AC$CHROMATOGRAPHY: COLUMN_NAME XBridge C18 3.5um, 2.1x50mm, Waters
AC$CHROMATOGRAPHY: FLOW_GRADIENT 90/10 at 0 min, 50/50 at 4 min, 5/95 at 17 min, 5/95 at 25 min, 90/10 at 25.1 min, 90/10 at 30 min
AC$CHROMATOGRAPHY: FLOW_RATE 200 uL/min
AC$CHROMATOGRAPHY: RETENTION_TIME 7.913 min
MS$FOCUSED_ION: BASE_PEAK 282.2213
MS$FOCUSED_ION: PRECURSOR_M/Z 282.2216
MS$FOCUSED_ION: PRECURSOR_TYPE [M+H]+
MS$DATA_PROCESSING: RECALIBRATE loess on assigned fragments and MS1
MS$DATA_PROCESSING: REANALYZE Peaks with additional N2/O included
MS$DATA_PROCESSING: WHOLE RMassBank 3.11.2
PK$SPLASH: splash10-0006-9000000000-7547abb09a57e8ebcf60
PK$ANNOTATION: m/z tentative_formula formula_count mass error(ppm)
  58.0651 C3H8N+ 1 58.0651 -0.51
  63.0228 C5H3+ 1 63.0229 -2.06
  65.0385 C5H5+ 1 65.0386 -0.44
  79.0543 C6H7+ 1 79.0542 1.18
  91.0542 C7H7+ 1 91.0542 -0.18
PK$NUM_PEAK: 5
PK$PEAK: m/z int. rel.int.
  58.0651 5708174.5 11
  63.0228 2293490.5 4
  65.0385 79010400 153
  79.0543 1798903.1 3
  91.0542 515744864 999
//
