ACCESSION: MSBNK-Eawag-EQ01122908
RECORD_TITLE: Diclobutrazol; LC-ESI-QFT; MS2; CE: 150%; R=17500; [M+H]+
DATE: 2023.04.27
AUTHORS: B. Beck [dtc,com], J. Hollender [dtc]
LICENSE: CC BY-SA
COPYRIGHT: Copyright (C) Eawag 2023
COMMENT: CONFIDENCE standard compound
COMMENT: UCHEM_ID 11229
CH$NAME: Diclobutrazol
CH$NAME: 1-(2,4-dichlorophenyl)-4,4-dimethyl-2-(1,2,4-triazol-1-yl)pentan-3-ol
CH$COMPOUND_CLASS: N/A; Environmental Standard
CH$FORMULA: C15H19Cl2N3O
CH$EXACT_MASS: 327.0905
CH$SMILES: CC(C)(C)C(C(CC1=C(C=C(C=C1)Cl)Cl)N2C=NC=N2)O
CH$IUPAC: InChI=1S/C15H19Cl2N3O/c1-15(2,3)14(21)13(20-9-18-8-19-20)6-10-4-5-11(16)7-12(10)17/h4-5,7-9,13-14,21H,6H2,1-3H3
CH$LINK: CAS 84709-81-9
CH$LINK: CHEBI CHEBI:4506
CH$LINK: KEGG C11235
CH$LINK: PUBCHEM CID:53309
CH$LINK: INCHIKEY URDNHJIVMYZFRT-UHFFFAOYSA-N
CH$LINK: CHEMSPIDER 48148
AC$INSTRUMENT: Exploris 240 Orbitrap Thermo Scientific
AC$INSTRUMENT_TYPE: LC-ESI-QFT
AC$MASS_SPECTROMETRY: MS_TYPE MS2
AC$MASS_SPECTROMETRY: ION_MODE POSITIVE
AC$MASS_SPECTROMETRY: IONIZATION ESI
AC$MASS_SPECTROMETRY: FRAGMENTATION_MODE HCD
AC$MASS_SPECTROMETRY: COLLISION_ENERGY 150 % (nominal)
AC$MASS_SPECTROMETRY: RESOLUTION 17500
AC$MASS_SPECTROMETRY: MASS_RANGE_M/Z 50-356
AC$CHROMATOGRAPHY: COLUMN_NAME XBridge C18 3.5um, 2.1x50mm, Waters
AC$CHROMATOGRAPHY: FLOW_GRADIENT 90/10 at 0 min, 50/50 at 4 min, 5/95 at 17 min, 5/95 at 25 min, 90/10 at 25.1 min, 90/10 at 30 min
AC$CHROMATOGRAPHY: FLOW_RATE 200 uL/min
AC$CHROMATOGRAPHY: RETENTION_TIME 10.847 min
MS$FOCUSED_ION: BASE_PEAK 328.0979
MS$FOCUSED_ION: PRECURSOR_M/Z 328.0978
MS$FOCUSED_ION: PRECURSOR_TYPE [M+H]+
MS$DATA_PROCESSING: RECALIBRATE loess on assigned fragments and MS1
MS$DATA_PROCESSING: REANALYZE Peaks with additional N2/O included
MS$DATA_PROCESSING: WHOLE RMassBank 3.11.0.1
PK$SPLASH: splash10-00di-9000000000-3b5c22d6a283aab2884d
PK$ANNOTATION: m/z tentative_formula formula_count mass error(ppm)
  59.049 C3H7O+ 1 59.0491 -1.88
  70.04 C2H4N3+ 1 70.04 0.51
  72.9838 C3H2Cl+ 1 72.984 -1.52
  75.0229 C6H3+ 1 75.0229 -0.87
  88.0308 C7H4+ 1 88.0308 0.3
  89.0386 C7H5+ 1 89.0386 0.16
  96.984 C5H2Cl+ 1 96.984 0.13
  98.9996 C5H4Cl+ 1 98.9996 0.08
  102.0466 C8H6+ 1 102.0464 1.46
  122.9997 C7H4Cl+ 1 122.9996 1.01
  124.0077 C7H5Cl+ 1 124.0074 2.44
  128.0622 C10H8+ 1 128.0621 1.42
  132.9607 C5H3Cl2+ 1 132.9606 0.27
  158.9767 C7H5Cl2+ 1 158.9763 2.63
PK$NUM_PEAK: 14
PK$PEAK: m/z int. rel.int.
  59.049 2335655.8 13
  70.04 176409920 999
  72.9838 6353613.5 35
  75.0229 5649940.5 31
  88.0308 1392627 7
  89.0386 21340464 120
  96.984 1745556.1 9
  98.9996 5792852 32
  102.0466 4043811.8 22
  122.9997 9997934 56
  124.0077 2522926.8 14
  128.0622 2299727.5 13
  132.9607 2156839.5 12
  158.9767 3043871.2 17
//
