ACCESSION: MSBNK-Eawag-EQ302101
RECORD_TITLE: Flufenamic acid; LC-ESI-QFT; MS2; CE: 15; R=35000; [M+H]+
DATE: 2015.08.25
AUTHORS: Beck B, Stravs M, Schymanski E, Singer H, Department of Environmental Chemistry, Eawag
LICENSE: CC BY
COPYRIGHT: Copyright (C) 2015 Eawag, Duebendorf, Switzerland
COMMENT: CONFIDENCE standard compound
COMMENT: EAWAG_UCHEM_ID 3021
CH$NAME: Flufenamic acid
CH$NAME: Arlef
CH$NAME: 2-[3-(trifluoromethyl)anilino]benzoic acid
CH$COMPOUND_CLASS: N/A; Environmental Standard
CH$FORMULA: C14H10F3NO2
CH$EXACT_MASS: 281.06636
CH$SMILES: C1=CC=C(C(=C1)C(=O)O)NC2=CC=CC(=C2)C(F)(F)F
CH$IUPAC: InChI=1S/C14H10F3NO2/c15-14(16,17)9-4-3-5-10(8-9)18-12-7-2-1-6-11(12)13(19)20/h1-8,18H,(H,19,20)
CH$LINK: CAS 530-78-9
CH$LINK: CHEBI CHEBI:42638
CH$LINK: KEGG C13038
CH$LINK: PUBCHEM CID:3371
CH$LINK: INCHIKEY LPEPZBJOKDYZAD-UHFFFAOYSA-N
CH$LINK: CHEMSPIDER 3254
CH$LINK: COMPTOX DTXSID7023063
AC$INSTRUMENT: Q Exactive Orbitrap Thermo Scientific
AC$INSTRUMENT_TYPE: LC-ESI-QFT
AC$MASS_SPECTROMETRY: MS_TYPE MS2
AC$MASS_SPECTROMETRY: ION_MODE POSITIVE
AC$MASS_SPECTROMETRY: IONIZATION ESI
AC$MASS_SPECTROMETRY: FRAGMENTATION_MODE HCD
AC$MASS_SPECTROMETRY: COLLISION_ENERGY 15 (nominal)
AC$MASS_SPECTROMETRY: RESOLUTION 35000
AC$CHROMATOGRAPHY: COLUMN_NAME XBridge C18 3.5um, 2.1x50mm, Waters
AC$CHROMATOGRAPHY: FLOW_GRADIENT 90/10 at 0 min, 50/50 at 4 min, 5/95 at 17 min, 5/95 at 25 min, 90/10 at 25.1 min, 90/10 at 30 min
AC$CHROMATOGRAPHY: FLOW_RATE 200 ul/min
AC$CHROMATOGRAPHY: RETENTION_TIME 14.6 min
AC$CHROMATOGRAPHY: SOLVENT A water with 0.1% formic acid
AC$CHROMATOGRAPHY: SOLVENT B methanol with 0.1% formic acid
MS$FOCUSED_ION: BASE_PEAK 282.0736
MS$FOCUSED_ION: PRECURSOR_M/Z 282.0736
MS$FOCUSED_ION: PRECURSOR_TYPE [M+H]+
MS$DATA_PROCESSING: DEPROFILE Spline
MS$DATA_PROCESSING: RECALIBRATE loess on assigned fragments and MS1
MS$DATA_PROCESSING: REANALYZE Peaks with additional N2/O included
MS$DATA_PROCESSING: WHOLE RMassBank 1.9.6
PK$SPLASH: splash10-03di-0090000000-c0fd815aa73e117dbaad
PK$ANNOTATION: m/z tentative_formula formula_count mass error(ppm)
  195.0676 C13H9NO+ 1 195.0679 -1.51
  244.0564 C14H8F2NO+ 1 244.0568 -1.79
  263.0562 C14H8F3NO+ 1 263.0552 3.61
  264.063 C14H9F3NO+ 1 264.0631 -0.47
  282.0734 C14H11F3NO2+ 1 282.0736 -0.71
PK$NUM_PEAK: 5
PK$PEAK: m/z int. rel.int.
  195.0676 382597.9 1
  244.0564 620427.1 1
  263.0562 466544.9 1
  264.063 382065423.4 999
  282.0734 75305570.1 196
//
