ACCESSION: MSBNK-Eawag-EQ01134402
RECORD_TITLE: Dichlofenthion; LC-ESI-QFT; MS2; CE: 30%; R=17500; [M+H]+
DATE: 2023.04.27
AUTHORS: B. Beck [dtc,com], J. Hollender [dtc]
LICENSE: CC BY-SA
COPYRIGHT: Copyright (C) Eawag 2023
COMMENT: CONFIDENCE standard compound
COMMENT: UCHEM_ID 11344
CH$NAME: Dichlofenthion
CH$NAME: (2,4-dichlorophenoxy)-diethoxy-sulfanylidene-lambda5-phosphane
CH$COMPOUND_CLASS: N/A; Environmental Standard
CH$FORMULA: C10H13Cl2O3PS
CH$EXACT_MASS: 313.9700
CH$SMILES: CCOP(=S)(OCC)OC1=C(C=C(C=C1)Cl)Cl
CH$IUPAC: InChI=1S/C10H13Cl2O3PS/c1-3-13-16(17,14-4-2)15-10-6-5-8(11)7-9(10)12/h5-7H,3-4H2,1-2H3
CH$LINK: CAS 97-17-6
CH$LINK: CHEBI CHEBI:81730
CH$LINK: KEGG C18398
CH$LINK: PUBCHEM CID:7328
CH$LINK: INCHIKEY WGOWCPGHOCIHBW-UHFFFAOYSA-N
CH$LINK: CHEMSPIDER 7051
AC$INSTRUMENT: Exploris 240 Orbitrap Thermo Scientific
AC$INSTRUMENT_TYPE: LC-ESI-QFT
AC$MASS_SPECTROMETRY: MS_TYPE MS2
AC$MASS_SPECTROMETRY: ION_MODE POSITIVE
AC$MASS_SPECTROMETRY: IONIZATION ESI
AC$MASS_SPECTROMETRY: FRAGMENTATION_MODE HCD
AC$MASS_SPECTROMETRY: COLLISION_ENERGY 30 % (nominal)
AC$MASS_SPECTROMETRY: RESOLUTION 17500
AC$MASS_SPECTROMETRY: MASS_RANGE_M/Z 50-342
AC$CHROMATOGRAPHY: COLUMN_NAME XBridge C18 3.5um, 2.1x50mm, Waters
AC$CHROMATOGRAPHY: FLOW_GRADIENT 90/10 at 0 min, 50/50 at 4 min, 5/95 at 17 min, 5/95 at 25 min, 90/10 at 25.1 min, 90/10 at 30 min
AC$CHROMATOGRAPHY: FLOW_RATE 200 uL/min
AC$CHROMATOGRAPHY: RETENTION_TIME 13.510 min
MS$FOCUSED_ION: BASE_PEAK 314.9773
MS$FOCUSED_ION: PRECURSOR_M/Z 314.9773
MS$FOCUSED_ION: PRECURSOR_TYPE [M+H]+
MS$DATA_PROCESSING: RECALIBRATE loess on assigned fragments and MS1
MS$DATA_PROCESSING: REANALYZE Peaks with additional N2/O included
MS$DATA_PROCESSING: WHOLE RMassBank 3.11.0.1
PK$SPLASH: splash10-0a4i-0090000000-1d1912328571ddf828d9
PK$ANNOTATION: m/z tentative_formula formula_count mass error(ppm)
  114.9614 H4O3PS+ 2 114.9613 0.21
  176.9333 C6H3Cl2S+ 2 176.9327 3.35
  222.9383 C7H5Cl2O2S+ 2 222.9382 0.57
  240.9039 C6H4Cl2O2PS+ 1 240.9041 -1.09
  258.9146 C6H6Cl2O3PS+ 1 258.9147 -0.34
  286.9461 C8H10Cl2O3PS+ 1 286.946 0.44
  314.9761 C10H14Cl2O3PS+ 1 314.9773 -3.76
PK$NUM_PEAK: 7
PK$PEAK: m/z int. rel.int.
  114.9614 86440.6 21
  176.9333 18956.3 4
  222.9383 123896.4 30
  240.9039 30749.6 7
  258.9146 4109386.8 999
  286.9461 327676 79
  314.9761 33343.1 8
//
