ACCESSION: MSBNK-Eawag-EQ329955
RECORD_TITLE: Dopamine; LC-ESI-QFT; MS2; CE: 75; R=35000; [M-H]-
DATE: 2015.08.25
AUTHORS: Otto J, Stravs M, Schymanski E, Singer H, Department of Environmental Chemistry, Eawag
LICENSE: CC BY
COPYRIGHT: Copyright (C) 2015 Eawag, Duebendorf, Switzerland
COMMENT: CONFIDENCE standard compound
COMMENT: EAWAG_UCHEM_ID 3299
CH$NAME: Dopamine
CH$NAME: 4-(2-aminoethyl)benzene-1,2-diol
CH$COMPOUND_CLASS: N/A; Environmental Standard
CH$FORMULA: C8H11NO2
CH$EXACT_MASS: 153.07898
CH$SMILES: C1=CC(=C(C=C1CCN)O)O
CH$IUPAC: InChI=1S/C8H11NO2/c9-4-3-6-1-2-7(10)8(11)5-6/h1-2,5,10-11H,3-4,9H2
CH$LINK: CAS 51-61-6
CH$LINK: KEGG C03758
CH$LINK: PUBCHEM CID:681
CH$LINK: INCHIKEY VYFYYTLLBUKUHU-UHFFFAOYSA-N
CH$LINK: CHEMSPIDER 661
CH$LINK: COMPTOX DTXSID6022420
AC$INSTRUMENT: Q Exactive Orbitrap Thermo Scientific
AC$INSTRUMENT_TYPE: LC-ESI-QFT
AC$MASS_SPECTROMETRY: MS_TYPE MS2
AC$MASS_SPECTROMETRY: ION_MODE NEGATIVE
AC$MASS_SPECTROMETRY: IONIZATION ESI
AC$MASS_SPECTROMETRY: FRAGMENTATION_MODE HCD
AC$MASS_SPECTROMETRY: COLLISION_ENERGY 75 (nominal)
AC$MASS_SPECTROMETRY: RESOLUTION 35000
AC$CHROMATOGRAPHY: COLUMN_NAME XBridge C18 3.5um, 2.1x50mm, Waters
AC$CHROMATOGRAPHY: FLOW_GRADIENT 90/10 at 0 min, 50/50 at 4 min, 5/95 at 17 min, 5/95 at 25 min, 90/10 at 25.1 min, 90/10 at 30 min
AC$CHROMATOGRAPHY: FLOW_RATE 200 ul/min
AC$CHROMATOGRAPHY: RETENTION_TIME 0.9 min
AC$CHROMATOGRAPHY: SOLVENT A water with 0.1% formic acid
AC$CHROMATOGRAPHY: SOLVENT B methanol with 0.1% formic acid
MS$FOCUSED_ION: BASE_PEAK 152.0718
MS$FOCUSED_ION: PRECURSOR_M/Z 152.0717
MS$FOCUSED_ION: PRECURSOR_TYPE [M-H]-
MS$DATA_PROCESSING: DEPROFILE vendor picking in Proteowizard
MS$DATA_PROCESSING: RECALIBRATE loess on assigned fragments and MS1
MS$DATA_PROCESSING: REANALYZE Peaks with additional N2/O included
MS$DATA_PROCESSING: WHOLE RMassBank 1.9.6
PK$SPLASH: splash10-00di-0900000000-92056f2762508fb506f1
PK$ANNOTATION: m/z tentative_formula formula_count mass error(ppm)
  93.0346 C6H5O- 1 93.0346 0.66
  95.0503 C6H7O- 1 95.0502 0.44
  108.0217 C6H4O2- 1 108.0217 0.02
  121.0296 C7H5O2- 1 121.0295 0.47
  122.0374 C7H6O2- 1 122.0373 0.34
  123.0452 C7H7O2- 1 123.0452 0.06
  124.0165 C6H4O3- 1 124.0166 -0.83
  135.0452 C8H7O2- 1 135.0452 0.2
  136.0166 C7H4O3- 1 136.0166 -0.24
  137.0244 C7H5O3- 1 137.0244 -0.35
  152.0717 C8H10NO2- 1 152.0717 -0.34
PK$NUM_PEAK: 11
PK$PEAK: m/z int. rel.int.
  93.0346 14214.3 4
  95.0503 17659.8 6
  108.0217 22019.4 7
  121.0296 33299.1 11
  122.0374 2853279.8 999
  123.0452 178012.9 62
  124.0165 84994.6 29
  135.0452 15709.3 5
  136.0166 27132.9 9
  137.0244 166181.5 58
  152.0717 330465.3 115
//
