ACCESSION: MSBNK-Eawag-EA298812
RECORD_TITLE: Triclocarban; LC-ESI-ITFT; MS2; CE: 75%; R=15000; [M+H]+
DATE: 2014.01.14
AUTHORS: Stravs M, Schymanski E, Singer H, Department of Environmental Chemistry, Eawag
LICENSE: CC BY
COPYRIGHT: Copyright (C) 2012 Eawag, Duebendorf, Switzerland
COMMENT: CONFIDENCE standard compound
COMMENT: EAWAG_UCHEM_ID 2988
CH$NAME: Triclocarban
CH$NAME: 1-(4-chlorophenyl)-3-(3,4-dichlorophenyl)urea
CH$COMPOUND_CLASS: N/A; Environmental Standard
CH$FORMULA: C13H9Cl3N2O
CH$EXACT_MASS: 313.9780
CH$SMILES: Clc2ccc(NC(=O)Nc1ccc(Cl)cc1)cc2Cl
CH$IUPAC: InChI=1S/C13H9Cl3N2O/c14-8-1-3-9(4-2-8)17-13(19)18-10-5-6-11(15)12(16)7-10/h1-7H,(H2,17,18,19)
CH$LINK: CAS 101-20-2
CH$LINK: KEGG D06223
CH$LINK: PUBCHEM CID:7547
CH$LINK: INCHIKEY ICUTUKXCWQYESQ-UHFFFAOYSA-N
CH$LINK: CHEMSPIDER 7266
CH$LINK: COMPTOX DTXSID4026214
AC$INSTRUMENT: LTQ Orbitrap XL Thermo Scientific
AC$INSTRUMENT_TYPE: LC-ESI-ITFT
AC$MASS_SPECTROMETRY: MS_TYPE MS2
AC$MASS_SPECTROMETRY: ION_MODE POSITIVE
AC$MASS_SPECTROMETRY: IONIZATION ESI
AC$MASS_SPECTROMETRY: FRAGMENTATION_MODE HCD
AC$MASS_SPECTROMETRY: COLLISION_ENERGY 75 % (nominal)
AC$MASS_SPECTROMETRY: RESOLUTION 15000
AC$CHROMATOGRAPHY: COLUMN_NAME XBridge C18 3.5um, 2.1x50mm, Waters
AC$CHROMATOGRAPHY: FLOW_GRADIENT 90/10 at 0 min, 50/50 at 4 min, 5/95 at 17 min, 5/95 at 25 min, 90/10 at 25.1 min, 90/10 at 30 min
AC$CHROMATOGRAPHY: FLOW_RATE 200 ul/min
AC$CHROMATOGRAPHY: RETENTION_TIME 14.8 min
AC$CHROMATOGRAPHY: SOLVENT A water with 0.1% formic acid
AC$CHROMATOGRAPHY: SOLVENT B methanol with 0.1% formic acid
MS$FOCUSED_ION: BASE_PEAK 314.9854
MS$FOCUSED_ION: PRECURSOR_M/Z 314.9853
MS$FOCUSED_ION: PRECURSOR_TYPE [M+H]+
MS$DATA_PROCESSING: DEPROFILE Spline
MS$DATA_PROCESSING: RECALIBRATE loess on assigned fragments and MS1
MS$DATA_PROCESSING: REANALYZE Peaks with additional N2/O included
MS$DATA_PROCESSING: WHOLE RMassBank 1.3.1
PK$SPLASH: splash10-004i-2900000000-72f4dd6f6e2d0e14c234
PK$ANNOTATION: m/z tentative_formula formula_count mass error(ppm)
  90.0337 C6H4N+ 1 90.0338 -0.95
  92.0494 C6H6N+ 1 92.0495 -0.93
  93.0572 C6H7N+ 1 93.0573 -0.87
  98.9996 C5H4Cl+ 1 98.9996 -0.35
  123.9941 C9O+ 1 123.9944 -1.98
  126.0104 C6H5ClN+ 2 126.0105 -0.66
  127.0182 C6H6ClN+ 2 127.0183 -0.85
  128.0261 C6H7ClN+ 2 128.0262 -0.57
  132.9606 C5H3Cl2+ 1 132.9606 -0.54
  139.0057 C6H4ClN2+ 2 139.0058 -0.59
  159.9714 C6H4Cl2N+ 2 159.9715 -0.76
  161.987 C6H6Cl2N+ 2 161.9872 -1.43
  172.9666 C9ClNO+ 2 172.9663 1.72
PK$NUM_PEAK: 13
PK$PEAK: m/z int. rel.int.
  90.0337 2975 4
  92.0494 3184.2 4
  93.0572 276445.5 425
  98.9996 12072 18
  123.9941 2258.1 3
  126.0104 90856.3 139
  127.0182 648691.2 999
  128.0261 46548.1 71
  132.9606 11356.1 17
  139.0057 8042.1 12
  159.9714 51979.4 80
  161.987 30335.6 46
  172.9666 4623.8 7
//
