ACCESSION: MSBNK-Eawag-EQ01137702
RECORD_TITLE: Isofenphos-Methyl; LC-ESI-QFT; MS2; CE: 30%; R=17500; [M+H]+
DATE: 2023.04.27
AUTHORS: B. Beck [dtc,com], J. Hollender [dtc]
LICENSE: CC BY-SA
COPYRIGHT: Copyright (C) Eawag 2023
COMMENT: CONFIDENCE standard compound
COMMENT: UCHEM_ID 11377
CH$NAME: Isofenphos-Methyl
CH$NAME: propan-2-yl 2-[methoxy-(propan-2-ylamino)phosphinothioyl]oxybenzoate
CH$COMPOUND_CLASS: N/A; Environmental Standard
CH$FORMULA: C14H22NO4PS
CH$EXACT_MASS: 331.1007
CH$SMILES: CC(C)NP(=S)(OC)OC1=CC=CC=C1C(=O)OC(C)C
CH$IUPAC: InChI=1S/C14H22NO4PS/c1-10(2)15-20(21,17-5)19-13-9-7-6-8-12(13)14(16)18-11(3)4/h6-11H,1-5H3,(H,15,21)
CH$LINK: CAS 6378-11-6
CH$LINK: PUBCHEM CID:127394
CH$LINK: INCHIKEY IXTOWLKEARFCCP-UHFFFAOYSA-N
CH$LINK: CHEMSPIDER 113043
AC$INSTRUMENT: Exploris 240 Orbitrap Thermo Scientific
AC$INSTRUMENT_TYPE: LC-ESI-QFT
AC$MASS_SPECTROMETRY: MS_TYPE MS2
AC$MASS_SPECTROMETRY: ION_MODE POSITIVE
AC$MASS_SPECTROMETRY: IONIZATION ESI
AC$MASS_SPECTROMETRY: FRAGMENTATION_MODE HCD
AC$MASS_SPECTROMETRY: COLLISION_ENERGY 30 % (nominal)
AC$MASS_SPECTROMETRY: RESOLUTION 17500
AC$MASS_SPECTROMETRY: MASS_RANGE_M/Z 50-360
AC$CHROMATOGRAPHY: COLUMN_NAME XBridge C18 3.5um, 2.1x50mm, Waters
AC$CHROMATOGRAPHY: FLOW_GRADIENT 90/10 at 0 min, 50/50 at 4 min, 5/95 at 17 min, 5/95 at 25 min, 90/10 at 25.1 min, 90/10 at 30 min
AC$CHROMATOGRAPHY: FLOW_RATE 200 uL/min
AC$CHROMATOGRAPHY: RETENTION_TIME 10.780 min
MS$FOCUSED_ION: BASE_PEAK 230.9875
MS$FOCUSED_ION: PRECURSOR_M/Z 332.108
MS$FOCUSED_ION: PRECURSOR_TYPE [M+H]+
MS$DATA_PROCESSING: RECALIBRATE loess on assigned fragments and MS1
MS$DATA_PROCESSING: REANALYZE Peaks with additional N2/O included
MS$DATA_PROCESSING: WHOLE RMassBank 3.11.0.1
PK$SPLASH: splash10-001i-0090000000-e909d5d4d09b491f238b
PK$ANNOTATION: m/z tentative_formula formula_count mass error(ppm)
  152.0292 C4H11NOPS+ 2 152.0293 -0.68
  230.9877 C8H8O4PS+ 2 230.9875 0.86
PK$NUM_PEAK: 2
PK$PEAK: m/z int. rel.int.
  152.0292 92649.5 8
  230.9877 11543775 999
//
