ACCESSION: MSBNK-Eawag-EA012952
RECORD_TITLE: Nicosulfuron; LC-ESI-ITFT; MS2; CE: 15%; R=7500; [M-H]-
DATE: 2014.01.14
AUTHORS: Stravs M, Schymanski E, Singer H, Department of Environmental Chemistry, Eawag
LICENSE: CC BY
COPYRIGHT: Copyright (C) 2012 Eawag, Duebendorf, Switzerland
COMMENT: CONFIDENCE standard compound
COMMENT: EAWAG_UCHEM_ID 129
CH$NAME: Nicosulfuron
CH$NAME: 2-[(4,6-dimethoxypyrimidin-2-yl)carbamoylsulfamoyl]-N,N-dimethyl-nicotinamide
CH$COMPOUND_CLASS: N/A; Environmental Standard
CH$FORMULA: C15H18N6O6S
CH$EXACT_MASS: 410.1009
CH$SMILES: O=C(Nc1nc(cc(OC)n1)OC)NS(=O)(=O)c2ncccc2C(=O)N(C)C
CH$IUPAC: InChI=1S/C15H18N6O6S/c1-21(2)13(22)9-6-5-7-16-12(9)28(24,25)20-15(23)19-14-17-10(26-3)8-11(18-14)27-4/h5-8H,1-4H3,(H2,17,18,19,20,23)
CH$LINK: CAS 111991-09-4
CH$LINK: KEGG C10949
CH$LINK: PUBCHEM CID:73281
CH$LINK: INCHIKEY RTCOGUMHFFWOJV-UHFFFAOYSA-N
CH$LINK: CHEMSPIDER 66024
CH$LINK: COMPTOX DTXSID6034764
AC$INSTRUMENT: LTQ Orbitrap XL Thermo Scientific
AC$INSTRUMENT_TYPE: LC-ESI-ITFT
AC$MASS_SPECTROMETRY: MS_TYPE MS2
AC$MASS_SPECTROMETRY: ION_MODE NEGATIVE
AC$MASS_SPECTROMETRY: IONIZATION ESI
AC$MASS_SPECTROMETRY: FRAGMENTATION_MODE HCD
AC$MASS_SPECTROMETRY: COLLISION_ENERGY 15 % (nominal)
AC$MASS_SPECTROMETRY: RESOLUTION 7500
AC$CHROMATOGRAPHY: COLUMN_NAME XBridge C18 3.5um, 2.1x50mm, Waters
AC$CHROMATOGRAPHY: FLOW_GRADIENT 90/10 at 0 min, 50/50 at 4 min, 5/95 at 17 min, 5/95 at 25 min, 90/10 at 25.1 min, 90/10 at 30 min
AC$CHROMATOGRAPHY: FLOW_RATE 200 ul/min
AC$CHROMATOGRAPHY: RETENTION_TIME 7.0 min
AC$CHROMATOGRAPHY: SOLVENT A water with 0.1% formic acid
AC$CHROMATOGRAPHY: SOLVENT B methanol with 0.1% formic acid
MS$FOCUSED_ION: BASE_PEAK 409.093
MS$FOCUSED_ION: PRECURSOR_M/Z 409.0936
MS$FOCUSED_ION: PRECURSOR_TYPE [M-H]-
MS$DATA_PROCESSING: DEPROFILE Spline
MS$DATA_PROCESSING: RECALIBRATE loess on assigned fragments and MS1
MS$DATA_PROCESSING: REANALYZE Peaks with additional N2/O included
MS$DATA_PROCESSING: WHOLE RMassBank 1.3.1
PK$SPLASH: splash10-0zfr-0950800000-131882277eba0d193d4d
PK$ANNOTATION: m/z tentative_formula formula_count mass error(ppm)
  65.0143 C3HN2- 1 65.0145 -3.72
  122.0378 C7H6O2- 2 122.0373 3.62
  154.0625 C6H8N3O2- 1 154.0622 2.14
  210.0347 C8H8N3O2S- 3 210.0343 2.09
  228.0451 C8H10N3O3S- 3 228.0448 1.29
  254.0245 C9H8N3O4S- 3 254.0241 1.49
  409.0943 C15H17N6O6S- 1 409.0936 1.69
PK$NUM_PEAK: 7
PK$PEAK: m/z int. rel.int.
  65.0143 4007.4 10
  122.0378 3467.3 8
  154.0625 386856.3 999
  210.0347 7417 19
  228.0451 139264.5 359
  254.0245 90546.2 233
  409.0943 348685.4 900
//
