ACCESSION: MSBNK-Eawag-EA020504
RECORD_TITLE: Ketoprofen; LC-ESI-ITFT; MS2; CE: 45%; R=7500; [M+H]+
DATE: 2014.01.14
AUTHORS: Stravs M, Schymanski E, Singer H, Department of Environmental Chemistry, Eawag
LICENSE: CC BY
COPYRIGHT: Copyright (C) 2012 Eawag, Duebendorf, Switzerland
COMMENT: CONFIDENCE standard compound
COMMENT: EAWAG_UCHEM_ID 205
CH$NAME: Ketoprofen
CH$NAME: 2-(3-benzoylphenyl)propanoic acid
CH$COMPOUND_CLASS: N/A; Environmental Standard
CH$FORMULA: C16H14O3
CH$EXACT_MASS: 254.0943
CH$SMILES: CC(C1=CC=CC(=C1)C(=O)C2=CC=CC=C2)C(=O)O
CH$IUPAC: InChI=1S/C16H14O3/c1-11(16(18)19)13-8-5-9-14(10-13)15(17)12-6-3-2-4-7-12/h2-11H,1H3,(H,18,19)
CH$LINK: CAS 22071-15-4
CH$LINK: CHEBI CHEBI:6128
CH$LINK: KEGG C01716
CH$LINK: PUBCHEM CID:3825
CH$LINK: INCHIKEY DKYWVDODHFEZIM-UHFFFAOYSA-N
CH$LINK: CHEMSPIDER 3693
CH$LINK: COMPTOX DTXSID6020771
AC$INSTRUMENT: LTQ Orbitrap XL Thermo Scientific
AC$INSTRUMENT_TYPE: LC-ESI-ITFT
AC$MASS_SPECTROMETRY: MS_TYPE MS2
AC$MASS_SPECTROMETRY: ION_MODE POSITIVE
AC$MASS_SPECTROMETRY: IONIZATION ESI
AC$MASS_SPECTROMETRY: FRAGMENTATION_MODE HCD
AC$MASS_SPECTROMETRY: COLLISION_ENERGY 45 % (nominal)
AC$MASS_SPECTROMETRY: RESOLUTION 7500
AC$CHROMATOGRAPHY: COLUMN_NAME XBridge C18 3.5um, 2.1x50mm, Waters
AC$CHROMATOGRAPHY: FLOW_GRADIENT 90/10 at 0 min, 50/50 at 4 min, 5/95 at 17 min, 5/95 at 25 min, 90/10 at 25.1 min, 90/10 at 30 min
AC$CHROMATOGRAPHY: FLOW_RATE 200 ul/min
AC$CHROMATOGRAPHY: RETENTION_TIME 9.6 min
AC$CHROMATOGRAPHY: SOLVENT A water with 0.1% formic acid
AC$CHROMATOGRAPHY: SOLVENT B methanol with 0.1% formic acid
MS$FOCUSED_ION: BASE_PEAK 277.0843
MS$FOCUSED_ION: PRECURSOR_M/Z 255.1016
MS$FOCUSED_ION: PRECURSOR_TYPE [M+H]+
MS$DATA_PROCESSING: DEPROFILE Spline
MS$DATA_PROCESSING: RECALIBRATE loess on assigned fragments and MS1
MS$DATA_PROCESSING: REANALYZE Peaks with additional N2/O included
MS$DATA_PROCESSING: WHOLE RMassBank 1.3.1
PK$SPLASH: splash10-0a4i-0960000000-ea2a1b4ccfd466afd1d7
PK$ANNOTATION: m/z tentative_formula formula_count mass error(ppm)
  53.0388 C4H5+ 1 53.0386 4.78
  77.0384 C6H5+ 1 77.0386 -1.9
  103.0541 C8H7+ 1 103.0542 -1.23
  105.0335 C7H5O+ 1 105.0335 -0.39
  131.0489 C9H7O+ 1 131.0491 -1.46
  177.0547 C10H9O3+ 1 177.0546 0.34
  181.1013 C14H13+ 1 181.1012 0.74
  194.0725 C14H10O+ 1 194.0726 -0.7
  209.096 C15H13O+ 1 209.0961 -0.29
PK$NUM_PEAK: 9
PK$PEAK: m/z int. rel.int.
  53.0388 2701.5 4
  77.0384 20515 31
  103.0541 7750.3 11
  105.0335 656871.2 999
  131.0489 28955.6 44
  177.0547 168212.9 255
  181.1013 6969.5 10
  194.0725 62270.1 94
  209.096 624144.9 949
//
