ACCESSION: MSBNK-Eawag-EA066414
RECORD_TITLE: Flufenacet OXA; LC-ESI-ITFT; MS2; CE: 35%; R=30000; [M+H]+
DATE: 2014.01.14
AUTHORS: Stravs M, Schymanski E, Singer H, Department of Environmental Chemistry, Eawag
LICENSE: CC BY
COPYRIGHT: Copyright (C) 2012 Eawag, Duebendorf, Switzerland
COMMENT: CONFIDENCE standard compound
COMMENT: EAWAG_UCHEM_ID 664
CH$NAME: Flufenacet OXA
CH$NAME: [(4-Fluorophenyl)(isopropyl)amino](oxo)acetic acid
CH$COMPOUND_CLASS: N/A; Environmental Standard
CH$FORMULA: C11H12FNO3
CH$EXACT_MASS: 225.0801
CH$SMILES: Fc1ccc(cc1)N(C(C)C)C(=O)C(O)=O
CH$IUPAC: InChI=1S/C11H12FNO3/c1-7(2)13(10(14)11(15)16)9-5-3-8(12)4-6-9/h3-7H,1-2H3,(H,15,16)
CH$LINK: CAS 201668-31-7
CH$LINK: PUBCHEM CID:16212222
CH$LINK: INCHIKEY FFKNXXCOXIZLJD-UHFFFAOYSA-N
CH$LINK: CHEMSPIDER 17340100
CH$LINK: COMPTOX DTXSID2037552
AC$INSTRUMENT: LTQ Orbitrap XL Thermo Scientific
AC$INSTRUMENT_TYPE: LC-ESI-ITFT
AC$MASS_SPECTROMETRY: MS_TYPE MS2
AC$MASS_SPECTROMETRY: ION_MODE POSITIVE
AC$MASS_SPECTROMETRY: IONIZATION ESI
AC$MASS_SPECTROMETRY: FRAGMENTATION_MODE CID
AC$MASS_SPECTROMETRY: COLLISION_ENERGY 35 % (nominal)
AC$MASS_SPECTROMETRY: RESOLUTION 30000
AC$CHROMATOGRAPHY: COLUMN_NAME XBridge C18 3.5um, 2.1x50mm, Waters
AC$CHROMATOGRAPHY: FLOW_GRADIENT 90/10 at 0 min, 50/50 at 4 min, 5/95 at 17 min, 5/95 at 25 min, 90/10 at 25.1 min, 90/10 at 30 min
AC$CHROMATOGRAPHY: FLOW_RATE 200 ul/min
AC$CHROMATOGRAPHY: RETENTION_TIME 6.2 min
AC$CHROMATOGRAPHY: SOLVENT A water with 0.1% formic acid
AC$CHROMATOGRAPHY: SOLVENT B methanol with 0.1% formic acid
MS$FOCUSED_ION: BASE_PEAK 226.0871
MS$FOCUSED_ION: PRECURSOR_M/Z 226.0874
MS$FOCUSED_ION: PRECURSOR_TYPE [M+H]+
MS$DATA_PROCESSING: DEPROFILE Spline
MS$DATA_PROCESSING: RECALIBRATE loess on assigned fragments and MS1
MS$DATA_PROCESSING: REANALYZE Peaks with additional N2/O included
MS$DATA_PROCESSING: WHOLE RMassBank 1.3.1
PK$SPLASH: splash10-001i-0900000000-704fe7fb693dfe855872
PK$ANNOTATION: m/z tentative_formula formula_count mass error(ppm)
  110.0403 C6H5FN+ 1 110.0401 1.78
  138.0351 C7H5FNO+ 1 138.035 1.24
  180.0822 C10H11FNO+ 1 180.0819 1.51
  184.0405 C8H7FNO3+ 1 184.0404 0.45
PK$NUM_PEAK: 4
PK$PEAK: m/z int. rel.int.
  110.0403 108226.8 4
  138.0351 6731297.9 261
  180.0822 25740384.7 999
  184.0405 19132624.8 742
//
