ACCESSION: MSBNK-Eawag-EA271451
RECORD_TITLE: Perfluoropentanoic acid; LC-ESI-ITFT; MS2; CE: 35%; R=7500; [M-H]-
DATE: 2014.01.14
AUTHORS: Stravs M, Schymanski E, Singer H, Department of Environmental Chemistry, Eawag
LICENSE: CC BY
COPYRIGHT: Copyright (C) 2012 Eawag, Duebendorf, Switzerland
COMMENT: CONFIDENCE standard compound
COMMENT: EAWAG_UCHEM_ID 2714
CH$NAME: Perfluoropentanoic acid
CH$NAME: Pentanoic acid, nonafluoro-
CH$NAME: 2,2,3,3,4,4,5,5,5-nonafluoropentanoic acid
CH$COMPOUND_CLASS: N/A; Environmental Standard
CH$FORMULA: C5HF9O2
CH$EXACT_MASS: 263.9833
CH$SMILES: O=C(O)C(F)(F)C(F)(F)C(F)(F)C(F)(F)F
CH$IUPAC: InChI=1S/C5HF9O2/c6-2(7,1(15)16)3(8,9)4(10,11)5(12,13)14/h(H,15,16)
CH$LINK: CAS 2706-90-3
CH$LINK: PUBCHEM CID:75921
CH$LINK: INCHIKEY CXZGQIAOTKWCDB-UHFFFAOYSA-N
CH$LINK: CHEMSPIDER 68426
CH$LINK: COMPTOX DTXSID6062599
AC$INSTRUMENT: LTQ Orbitrap XL Thermo Scientific
AC$INSTRUMENT_TYPE: LC-ESI-ITFT
AC$MASS_SPECTROMETRY: MS_TYPE MS2
AC$MASS_SPECTROMETRY: ION_MODE NEGATIVE
AC$MASS_SPECTROMETRY: IONIZATION ESI
AC$MASS_SPECTROMETRY: FRAGMENTATION_MODE CID
AC$MASS_SPECTROMETRY: COLLISION_ENERGY 35 % (nominal)
AC$MASS_SPECTROMETRY: RESOLUTION 7500
AC$CHROMATOGRAPHY: COLUMN_NAME XBridge C18 3.5um, 2.1x50mm, Waters
AC$CHROMATOGRAPHY: FLOW_GRADIENT 90/10 at 0 min, 50/50 at 4 min, 5/95 at 17 min, 5/95 at 25 min, 90/10 at 25.1 min, 90/10 at 30 min
AC$CHROMATOGRAPHY: FLOW_RATE 200 ul/min
AC$CHROMATOGRAPHY: RETENTION_TIME 7.3 min
AC$CHROMATOGRAPHY: SOLVENT A water with 0.1% formic acid
AC$CHROMATOGRAPHY: SOLVENT B methanol with 0.1% formic acid
MS$FOCUSED_ION: BASE_PEAK 262.9763
MS$FOCUSED_ION: PRECURSOR_M/Z 262.976
MS$FOCUSED_ION: PRECURSOR_TYPE [M-H]-
MS$DATA_PROCESSING: DEPROFILE Spline
MS$DATA_PROCESSING: RECALIBRATE loess on assigned fragments and MS1
MS$DATA_PROCESSING: REANALYZE Peaks with additional N2/O included
MS$DATA_PROCESSING: WHOLE RMassBank 1.3.1
PK$SPLASH: splash10-014i-0090000000-ddb2ebb405b81caf068e
PK$ANNOTATION: m/z tentative_formula formula_count mass error(ppm)
  196.9834 C4F7O- 1 196.9843 -4.75
  218.9862 C4F9- 1 218.9862 0.24
PK$NUM_PEAK: 2
PK$PEAK: m/z int. rel.int.
  196.9834 13509 1
  218.9862 7941451.7 999
//
