ACCESSION: MSBNK-Eawag-EQ01129209
RECORD_TITLE: Phenthoate; LC-ESI-QFT; MS2; CE: 180%; R=17500; [M+H]+
DATE: 2023.04.27
AUTHORS: B. Beck [dtc,com], J. Hollender [dtc]
LICENSE: CC BY-SA
COPYRIGHT: Copyright (C) Eawag 2023
COMMENT: CONFIDENCE standard compound
COMMENT: UCHEM_ID 11292
CH$NAME: Phenthoate
CH$NAME: ethyl 2-dimethoxyphosphinothioylsulfanyl-2-phenylacetate
CH$COMPOUND_CLASS: N/A; Environmental Standard
CH$FORMULA: C12H17O4PS2
CH$EXACT_MASS: 320.0306
CH$SMILES: CCOC(=O)C(C1=CC=CC=C1)SP(=S)(OC)OC
CH$IUPAC: InChI=1S/C12H17O4PS2/c1-4-16-12(13)11(10-8-6-5-7-9-10)19-17(18,14-2)15-3/h5-9,11H,4H2,1-3H3
CH$LINK: CAS 123-30-8
CH$LINK: CHEBI CHEBI:34917
CH$LINK: KEGG C14429
CH$LINK: PUBCHEM CID:17435
CH$LINK: INCHIKEY XAMUDJHXFNRLCY-UHFFFAOYSA-N
CH$LINK: CHEMSPIDER 16492
AC$INSTRUMENT: Exploris 240 Orbitrap Thermo Scientific
AC$INSTRUMENT_TYPE: LC-ESI-QFT
AC$MASS_SPECTROMETRY: MS_TYPE MS2
AC$MASS_SPECTROMETRY: ION_MODE POSITIVE
AC$MASS_SPECTROMETRY: IONIZATION ESI
AC$MASS_SPECTROMETRY: FRAGMENTATION_MODE HCD
AC$MASS_SPECTROMETRY: COLLISION_ENERGY 180 % (nominal)
AC$MASS_SPECTROMETRY: RESOLUTION 17500
AC$MASS_SPECTROMETRY: MASS_RANGE_M/Z 50-348
AC$CHROMATOGRAPHY: COLUMN_NAME XBridge C18 3.5um, 2.1x50mm, Waters
AC$CHROMATOGRAPHY: FLOW_GRADIENT 90/10 at 0 min, 50/50 at 4 min, 5/95 at 17 min, 5/95 at 25 min, 90/10 at 25.1 min, 90/10 at 30 min
AC$CHROMATOGRAPHY: FLOW_RATE 200 uL/min
AC$CHROMATOGRAPHY: RETENTION_TIME 10.719 min
MS$FOCUSED_ION: BASE_PEAK 275.0712
MS$FOCUSED_ION: PRECURSOR_M/Z 321.0379
MS$FOCUSED_ION: PRECURSOR_TYPE [M+H]+
MS$DATA_PROCESSING: RECALIBRATE loess on assigned fragments and MS1
MS$DATA_PROCESSING: REANALYZE Peaks with additional N2/O included
MS$DATA_PROCESSING: WHOLE RMassBank 3.11.0.1
PK$SPLASH: splash10-0ufr-9000000000-a547b81a3956793406a6
PK$ANNOTATION: m/z tentative_formula formula_count mass error(ppm)
  50.0151 C4H2+ 1 50.0151 -1.03
  51.0229 C4H3+ 1 51.0229 -0.42
  53.0386 C4H5+ 1 53.0386 -0.49
  63.0229 C5H3+ 1 63.0229 -0.46
  65.0385 C5H5+ 1 65.0386 -0.73
  77.0385 C6H5+ 1 77.0386 -0.4
  79.0542 C6H7+ 1 79.0542 -0.63
  91.0541 C7H7+ 1 91.0542 -1.13
  94.0411 C6H6O+ 1 94.0413 -2.1
  95.0491 C6H7O+ 1 95.0491 -0.52
PK$NUM_PEAK: 10
PK$PEAK: m/z int. rel.int.
  50.0151 1976616.9 206
  51.0229 7879418.5 823
  53.0386 3172987.5 331
  63.0229 557596.6 58
  65.0385 2644404 276
  77.0385 9557107 999
  79.0542 3257873.8 340
  91.0541 1402409.5 146
  94.0411 660373.8 69
  95.0491 3598780.2 376
//
