ACCESSION: MSBNK-Eawag-EQ306202
RECORD_TITLE: Mepanipyrim; LC-ESI-QFT; MS2; CE: 30; R=35000; [M+H]+
DATE: 2015.08.25
AUTHORS: Beck B, Stravs M, Schymanski E, Singer H, Department of Environmental Chemistry, Eawag
LICENSE: CC BY
COPYRIGHT: Copyright (C) 2015 Eawag, Duebendorf, Switzerland
COMMENT: CONFIDENCE standard compound
COMMENT: EAWAG_UCHEM_ID 3062
CH$NAME: Mepanipyrim
CH$NAME: (4-methyl-6-prop-1-ynyl-pyrimidin-2-yl)-phenyl-amine
CH$COMPOUND_CLASS: N/A; Environmental Standard
CH$FORMULA: C14H13N3
CH$EXACT_MASS: 223.11095
CH$SMILES: n1c(C#CC)cc(nc1Nc2ccccc2)C
CH$IUPAC: InChI=1S/C14H13N3/c1-3-7-13-10-11(2)15-14(17-13)16-12-8-5-4-6-9-12/h4-6,8-10H,1-2H3,(H,15,16,17)
CH$LINK: CAS 110235-47-7
CH$LINK: KEGG C10919
CH$LINK: PUBCHEM CID:86296
CH$LINK: INCHIKEY CIFWZNRJIBNXRE-UHFFFAOYSA-N
CH$LINK: CHEMSPIDER 77839
CH$LINK: COMPTOX DTXSID4042121
AC$INSTRUMENT: Q Exactive Orbitrap Thermo Scientific
AC$INSTRUMENT_TYPE: LC-ESI-QFT
AC$MASS_SPECTROMETRY: MS_TYPE MS2
AC$MASS_SPECTROMETRY: ION_MODE POSITIVE
AC$MASS_SPECTROMETRY: IONIZATION ESI
AC$MASS_SPECTROMETRY: FRAGMENTATION_MODE HCD
AC$MASS_SPECTROMETRY: COLLISION_ENERGY 30 (nominal)
AC$MASS_SPECTROMETRY: RESOLUTION 35000
AC$CHROMATOGRAPHY: COLUMN_NAME XBridge C18 3.5um, 2.1x50mm, Waters
AC$CHROMATOGRAPHY: FLOW_GRADIENT 90/10 at 0 min, 50/50 at 4 min, 5/95 at 17 min, 5/95 at 25 min, 90/10 at 25.1 min, 90/10 at 30 min
AC$CHROMATOGRAPHY: FLOW_RATE 200 ul/min
AC$CHROMATOGRAPHY: RETENTION_TIME 11.1 min
AC$CHROMATOGRAPHY: SOLVENT A water with 0.1% formic acid
AC$CHROMATOGRAPHY: SOLVENT B methanol with 0.1% formic acid
MS$FOCUSED_ION: BASE_PEAK 224.1188
MS$FOCUSED_ION: PRECURSOR_M/Z 224.1182
MS$FOCUSED_ION: PRECURSOR_TYPE [M+H]+
MS$DATA_PROCESSING: DEPROFILE Spline
MS$DATA_PROCESSING: RECALIBRATE loess on assigned fragments and MS1
MS$DATA_PROCESSING: REANALYZE Peaks with additional N2/O included
MS$DATA_PROCESSING: WHOLE RMassBank 1.9.6
PK$SPLASH: splash10-00di-0090000000-e133294690b6b2100066
PK$ANNOTATION: m/z tentative_formula formula_count mass error(ppm)
  106.0653 C7H8N+ 1 106.0651 2.02
  131.0608 C8H7N2+ 1 131.0604 2.94
  160.076 C10H10NO+ 1 160.0757 2.06
  183.0921 C12H11N2+ 1 183.0917 2.16
  184.0874 C11H10N3+ 1 184.0869 2.37
  207.0924 C14H11N2+ 1 207.0917 3.55
  208.0869 C13H10N3+ 1 208.0869 -0.21
  209.0952 C13H11N3+ 1 209.0947 2.16
  223.1098 C14H13N3+ 1 223.1104 -2.68
  224.1187 C14H14N3+ 1 224.1182 2.12
PK$NUM_PEAK: 10
PK$PEAK: m/z int. rel.int.
  106.0653 5258106.6 4
  131.0608 3387035.5 2
  160.076 2673341.3 2
  183.0921 4013768.7 3
  184.0874 1532284 1
  207.0924 2250387 1
  208.0869 1856570.2 1
  209.0952 4540704.2 3
  223.1098 2074847.5 1
  224.1187 1297434182.3 999
//
