ACCESSION: MSBNK-Eawag-EQ027804
RECORD_TITLE: Carbendazim; LC-ESI-QFT; MS2; CE: 60; R=35000; [M+H]+
DATE: 2015.08.25
AUTHORS: Beck B, Stravs M, Schymanski E, Singer H, Department of Environmental Chemistry, Eawag
LICENSE: CC BY
COPYRIGHT: Copyright (C) 2015 Eawag, Duebendorf, Switzerland
COMMENT: CONFIDENCE standard compound
COMMENT: EAWAG_UCHEM_ID 278
CH$NAME: Carbendazim
CH$NAME: N-(1H-benzimidazol-2-yl)carbamic acid methyl ester
CH$COMPOUND_CLASS: N/A; Environmental Standard
CH$FORMULA: C9H9N3O2
CH$EXACT_MASS: 191.06948
CH$SMILES: c12c(cccc1)N=C(NC(OC)=O)N2
CH$IUPAC: InChI=1S/C9H9N3O2/c1-14-9(13)12-8-10-6-4-2-3-5-7(6)11-8/h2-5H,1H3,(H2,10,11,12,13)
CH$LINK: CAS 10605-21-7
CH$LINK: KEGG C10897
CH$LINK: PUBCHEM CID:25429
CH$LINK: INCHIKEY TWFZGCMQGLPBSX-UHFFFAOYSA-N
CH$LINK: CHEMSPIDER 23741
CH$LINK: COMPTOX DTXSID4024729
AC$INSTRUMENT: Q Exactive Plus Orbitrap Thermo Scientific
AC$INSTRUMENT_TYPE: LC-ESI-QFT
AC$MASS_SPECTROMETRY: MS_TYPE MS2
AC$MASS_SPECTROMETRY: ION_MODE POSITIVE
AC$MASS_SPECTROMETRY: IONIZATION ESI
AC$MASS_SPECTROMETRY: FRAGMENTATION_MODE HCD
AC$MASS_SPECTROMETRY: COLLISION_ENERGY 60 (nominal)
AC$MASS_SPECTROMETRY: RESOLUTION 35000
AC$CHROMATOGRAPHY: COLUMN_NAME XBridge C18 3.5um, 2.1x50mm, Waters
AC$CHROMATOGRAPHY: FLOW_GRADIENT 90/10 at 0 min, 50/50 at 4 min, 5/95 at 17 min, 5/95 at 25 min, 90/10 at 25.1 min, 90/10 at 30 min
AC$CHROMATOGRAPHY: FLOW_RATE 200 ul/min
AC$CHROMATOGRAPHY: RETENTION_TIME 3.2 min
AC$CHROMATOGRAPHY: SOLVENT A water with 0.1% formic acid
AC$CHROMATOGRAPHY: SOLVENT B methanol with 0.1% formic acid
MS$FOCUSED_ION: BASE_PEAK 192.0767
MS$FOCUSED_ION: PRECURSOR_M/Z 192.0768
MS$FOCUSED_ION: PRECURSOR_TYPE [M+H]+
MS$DATA_PROCESSING: RECALIBRATE loess on assigned fragments and MS1
MS$DATA_PROCESSING: REANALYZE Peaks with additional N2/O included
MS$DATA_PROCESSING: WHOLE RMassBank 1.9.6
PK$SPLASH: splash10-03di-0900000000-6ab35560f7e1a5a65449
PK$ANNOTATION: m/z tentative_formula formula_count mass error(ppm)
  65.0383 C5H5+ 1 65.0386 -3.79
  92.0495 C6H6N+ 1 92.0495 -0.17
  105.0447 C6H5N2+ 1 105.0447 -0.04
  132.0557 C7H6N3+ 1 132.0556 0.35
  133.0634 C7H7N3+ 1 133.0634 0.01
  135.0553 C7H7N2O+ 1 135.0553 0.23
  160.0505 C8H6N3O+ 1 160.0505 -0.11
  192.0768 C9H10N3O2+ 1 192.0768 0.24
PK$NUM_PEAK: 8
PK$PEAK: m/z int. rel.int.
  65.0383 1030303.1 1
  92.0495 2525045.2 2
  105.0447 1677595.9 1
  132.0557 30009698 31
  133.0634 6325398 6
  135.0553 3745782.5 3
  160.0505 937605376 999
  192.0768 8262388 8
//
