ACCESSION: MSBNK-Eawag-EQ396507
RECORD_TITLE: p-Toluenesulfonic acid; LC-ESI-QFT; MS2; CE: 120%; R=15000; [M+H]+
DATE: 2021.03.16
AUTHORS: K. Kiefer [dtc], J. Hollender [dtc], H. Singer [dtc], B. Lauper [com]
LICENSE: CC BY-SA
COPYRIGHT: Copyright (C) Eawag 2019
PUBLICATION: Kiefer, K., Du, L., Singer, H., Hollender, J.. Identification of LC-HRMS Nontarget Signals in Groundwater After Source Related Prioritization. Water Research 2021, 196. DOI: https://doi.org/10.1016/j.watres.2021.116994
COMMENT: CONFIDENCE standard compound
COMMENT: UCHEM_ID 3965
CH$NAME: p-Toluenesulfonic acid
CH$NAME: 4-methylbenzenesulfonic acid
CH$COMPOUND_CLASS: N/A; Environmental Standard
CH$FORMULA: C7H8O3S
CH$EXACT_MASS: 172.0194
CH$SMILES: CC1=CC=C(C=C1)S(=O)(=O)O
CH$IUPAC: InChI=1S/C7H8O3S/c1-6-2-4-7(5-3-6)11(8,9)10/h2-5H,1H3,(H,8,9,10)
CH$LINK: CAS 104-15-4
CH$LINK: CHEBI CHEBI:27849
CH$LINK: KEGG C06677
CH$LINK: PUBCHEM CID:6101
CH$LINK: INCHIKEY JOXIMZWYDAKGHI-UHFFFAOYSA-N
CH$LINK: CHEMSPIDER 5876
CH$LINK: COMPTOX DTXSID0026701
AC$INSTRUMENT: Orbitrap Exploris 240 Thermo Scientific
AC$INSTRUMENT_TYPE: LC-ESI-QFT
AC$MASS_SPECTROMETRY: MS_TYPE MS2
AC$MASS_SPECTROMETRY: ION_MODE POSITIVE
AC$MASS_SPECTROMETRY: IONIZATION ESI
AC$MASS_SPECTROMETRY: FRAGMENTATION_MODE HCD
AC$MASS_SPECTROMETRY: COLLISION_ENERGY 120 % (nominal)
AC$MASS_SPECTROMETRY: RESOLUTION 15000
AC$MASS_SPECTROMETRY: MASS_RANGE_M/Z NA-NA
AC$CHROMATOGRAPHY: COLUMN_NAME Atlantis C18 3um, 3.0x150mm, Waters
AC$CHROMATOGRAPHY: FLOW_GRADIENT 100/0 at 0 min, 100/0 at 1.5 min, 5/95 at 18.5 min, 5/95 at 28.5 min, 100/0 at 29 min, 100/0 at 33 min
AC$CHROMATOGRAPHY: FLOW_RATE 300 uL/min
AC$CHROMATOGRAPHY: RETENTION_TIME 13.497 min
MS$FOCUSED_ION: BASE_PEAK 132.9582
MS$FOCUSED_ION: PRECURSOR_M/Z 173.0267
MS$FOCUSED_ION: PRECURSOR_TYPE [M+H]+
MS$FOCUSED_ION: PRECURSOR_INTENSITY 12440807
MS$DATA_PROCESSING: RECALIBRATE loess on assigned fragments and MS1
MS$DATA_PROCESSING: REANALYZE Peaks with additional N2/O included
MS$DATA_PROCESSING: WHOLE RMassBank 2.99.4
PK$SPLASH: splash10-014l-9000000000-eab97445d6f999a4e3e1
PK$ANNOTATION: m/z tentative_formula formula_count mass error(ppm)
  41.0386 C3H5+ 1 41.0386 0.5
  51.0229 C4H3+ 1 51.0229 0.39
  63.023 C5H3+ 1 63.0229 1.14
  65.0386 C5H5+ 1 65.0386 0.2
  79.0542 C6H7+ 1 79.0542 0.2
  91.0542 C7H7+ 1 91.0542 0.19
  92.0624 C7H8+ 1 92.0621 3.4
  94.0418 C6H6O+ 1 94.0413 4.67
  107.0491 C7H7O+ 1 107.0491 -0.56
PK$NUM_PEAK: 10
PK$PEAK: m/z int. rel.int.
  41.0386 16639.6 19
  51.0229 21582.5 24
  63.023 37420.1 43
  65.0386 863911.2 999
  79.0542 25610.2 29
  91.0542 699510.2 808
  92.0624 35600.3 41
  94.0418 15259.6 17
  105.0449 14762.2 17
  107.0491 34023.9 39
//
