ACCESSION: MSBNK-Eawag-EQ01152551
RECORD_TITLE: Paracetamol sulfate; LC-ESI-QFT; MS2; CE: 15%; R=17500; [M-H]-
DATE: 2024.05.08
AUTHORS: C. Meyer [dtc], B. Beck [dtc,com], J. Hollender [dtc]
LICENSE: CC BY-SA
COPYRIGHT: Copyright (C) Eawag 2023
PUBLICATION: Meyer, C., Stravs, M., Hollender, J.. How Wastewater Reflects Human Metabolism - Suspect Screening of Pharmaceutical Metabolites in Wastewater Influent. doi:10.1021/acs.est.4c00968
COMMENT: CONFIDENCE standard compound
COMMENT: UCHEM_ID 11525
CH$NAME: Paracetamol sulfate
CH$NAME: Acetaminophen sulfate
CH$NAME: (4-acetamidophenyl) hydrogen sulfate
CH$COMPOUND_CLASS: N/A; Environmental Standard
CH$FORMULA: C8H9NO5S
CH$EXACT_MASS: 231.0201434
CH$SMILES: CC(=O)NC1=CC=C(C=C1)OS(=O)(=O)O
CH$IUPAC: InChI=1S/C8H9NO5S/c1-6(10)9-7-2-4-8(5-3-7)14-15(11,12)13/h2-5H,1H3,(H,9,10)(H,11,12,13)
CH$LINK: CHEBI CHEBI:32635
CH$LINK: PUBCHEM CID:83939
CH$LINK: INCHIKEY IGTYILLPRJOVFY-UHFFFAOYSA-N
CH$LINK: CHEMSPIDER 75741
AC$INSTRUMENT: Exploris 240 Orbitrap Thermo Scientific
AC$INSTRUMENT_TYPE: LC-ESI-QFT
AC$MASS_SPECTROMETRY: MS_TYPE MS2
AC$MASS_SPECTROMETRY: ION_MODE NEGATIVE
AC$MASS_SPECTROMETRY: IONIZATION ESI
AC$MASS_SPECTROMETRY: FRAGMENTATION_MODE HCD
AC$MASS_SPECTROMETRY: COLLISION_ENERGY 15 % (nominal)
AC$MASS_SPECTROMETRY: RESOLUTION 17500
AC$MASS_SPECTROMETRY: MASS_RANGE_M/Z 50-256
AC$CHROMATOGRAPHY: COLUMN_NAME XBridge C18 3.5um, 2.1x50mm, Waters
AC$CHROMATOGRAPHY: FLOW_GRADIENT 90/10 at 0 min, 50/50 at 4 min, 5/95 at 17 min, 5/95 at 25 min, 90/10 at 25.1 min, 90/10 at 30 min
AC$CHROMATOGRAPHY: FLOW_RATE 200 uL/min
AC$CHROMATOGRAPHY: RETENTION_TIME 1.614 min
MS$FOCUSED_ION: BASE_PEAK 230.0127
MS$FOCUSED_ION: PRECURSOR_M/Z 230.0129
MS$FOCUSED_ION: PRECURSOR_TYPE [M-H]-
MS$DATA_PROCESSING: RECALIBRATE loess on assigned fragments and MS1
MS$DATA_PROCESSING: REANALYZE Peaks with additional N2/O included
MS$DATA_PROCESSING: WHOLE RMassBank 3.15.1
PK$SPLASH: splash10-001i-0090000000-18bc88745e037c6e28ec
PK$ANNOTATION: m/z tentative_formula formula_count mass error(ppm)
  150.056 C8H8NO2- 1 150.0561 -0.53
  230.0128 C8H8NO5S- 1 230.0129 -0.19
PK$NUM_PEAK: 2
PK$PEAK: m/z int. rel.int.
  150.056 3483275.8 74
  230.0128 46469684 999
//
