ACCESSION: MSBNK-Eawag-EA285253
RECORD_TITLE: Amisulpride; LC-ESI-ITFT; MS2; CE: 30%; R=7500; [M-H]-
DATE: 2014.01.14
AUTHORS: Stravs M, Schymanski E, Singer H, Department of Environmental Chemistry, Eawag
LICENSE: CC BY
COPYRIGHT: Copyright (C) 2012 Eawag, Duebendorf, Switzerland
COMMENT: CONFIDENCE standard compound
COMMENT: EAWAG_UCHEM_ID 2852
CH$NAME: Amisulpride
CH$NAME: 4-amino-5-esyl-N-[(1-ethylpyrrolidin-2-yl)methyl]-2-methoxy-benzamide
CH$COMPOUND_CLASS: N/A; Environmental Standard
CH$FORMULA: C17H27N3O4S
CH$EXACT_MASS: 369.1722
CH$SMILES: CCN1CCCC1CNC(=O)C2=CC(=C(C=C2OC)N)S(=O)(=O)CC
CH$IUPAC: InChI=1S/C17H27N3O4S/c1-4-20-8-6-7-12(20)11-19-17(21)13-9-16(25(22,23)5-2)14(18)10-15(13)24-3/h9-10,12H,4-8,11,18H2,1-3H3,(H,19,21)
CH$LINK: CAS 71675-85-9
CH$LINK: KEGG D07310
CH$LINK: PUBCHEM CID:2159
CH$LINK: INCHIKEY NTJOBXMMWNYJFB-UHFFFAOYSA-N
CH$LINK: CHEMSPIDER 2074
CH$LINK: COMPTOX DTXSID5042613
AC$INSTRUMENT: LTQ Orbitrap XL Thermo Scientific
AC$INSTRUMENT_TYPE: LC-ESI-ITFT
AC$MASS_SPECTROMETRY: MS_TYPE MS2
AC$MASS_SPECTROMETRY: ION_MODE NEGATIVE
AC$MASS_SPECTROMETRY: IONIZATION ESI
AC$MASS_SPECTROMETRY: FRAGMENTATION_MODE HCD
AC$MASS_SPECTROMETRY: COLLISION_ENERGY 30 % (nominal)
AC$MASS_SPECTROMETRY: RESOLUTION 7500
AC$CHROMATOGRAPHY: COLUMN_NAME XBridge C18 3.5um, 2.1x50mm, Waters
AC$CHROMATOGRAPHY: FLOW_GRADIENT 90/10 at 0 min, 50/50 at 4 min, 5/95 at 17 min, 5/95 at 25 min, 90/10 at 25.1 min, 90/10 at 30 min
AC$CHROMATOGRAPHY: FLOW_RATE 200 ul/min
AC$CHROMATOGRAPHY: RETENTION_TIME 3.8 min
AC$CHROMATOGRAPHY: SOLVENT A water with 0.1% formic acid
AC$CHROMATOGRAPHY: SOLVENT B methanol with 0.1% formic acid
MS$FOCUSED_ION: BASE_PEAK 414.1692
MS$FOCUSED_ION: PRECURSOR_M/Z 368.165
MS$FOCUSED_ION: PRECURSOR_TYPE [M-H]-
MS$DATA_PROCESSING: DEPROFILE Spline
MS$DATA_PROCESSING: RECALIBRATE loess on assigned fragments and MS1
MS$DATA_PROCESSING: REANALYZE Peaks with additional N2/O included
MS$DATA_PROCESSING: WHOLE RMassBank 1.3.1
PK$SPLASH: splash10-014i-0409000000-4e053b8ec1d55ced8499
PK$ANNOTATION: m/z tentative_formula formula_count mass error(ppm)
  156.0123 C6H6NO2S- 1 156.0125 -1.11
  184.0432 C8H10NO2S- 1 184.0438 -3.06
  368.1658 C17H26N3O4S- 1 368.165 2.41
PK$NUM_PEAK: 3
PK$PEAK: m/z int. rel.int.
  156.0123 5011.3 234
  184.0432 6250.6 292
  368.1658 21325.4 999
//
