ACCESSION: MSBNK-Eawag-EQ01108202
RECORD_TITLE: 2-Benzyl-2-(dimethylamino)-1-[4-(morpholin-4-yl)phenyl]butan-1-one; LC-ESI-QFT; MS2; CE: 30%; R=15000; [M+H]+
DATE: 2024.06.14
AUTHORS: F. Jud [dtc], K. Arturi [dtc], J. Hollender [dtc], A. Dax [com]
LICENSE: CC BY-SA
COPYRIGHT: Copyright (C) Eawag 2024
COMMENT: CONFIDENCE standard compound
COMMENT: UCHEM_ID 11082
CH$NAME: 2-Benzyl-2-(dimethylamino)-1-[4-(morpholin-4-yl)phenyl]butan-1-one
CH$NAME: 2-Benzyl-2-dimethylamino-1-(4-morpholinophenyl)-1-butanone
CH$NAME: 2-benzyl-2-(dimethylamino)-1-(4-morpholin-4-ylphenyl)butan-1-one
CH$COMPOUND_CLASS: N/A
CH$FORMULA: C23H30N2O2
CH$EXACT_MASS: 366.2307282
CH$SMILES: CCC(CC1=CC=CC=C1)(N(C)C)C(=O)C1=CC=C(C=C1)N1CCOCC1
CH$IUPAC: InChI=1S/C23H30N2O2/c1-4-23(24(2)3,18-19-8-6-5-7-9-19)22(26)20-10-12-21(13-11-20)25-14-16-27-17-15-25/h5-13H,4,14-18H2,1-3H3
CH$LINK: CAS 136797-29-0
CH$LINK: PUBCHEM CID:86171
CH$LINK: INCHIKEY UHFFVFAKEGKNAQ-UHFFFAOYSA-N
CH$LINK: CHEMSPIDER 77729
AC$INSTRUMENT: Exploris 240 Thermo Scientific
AC$INSTRUMENT_TYPE: LC-ESI-QFT
AC$MASS_SPECTROMETRY: MS_TYPE MS2
AC$MASS_SPECTROMETRY: ION_MODE POSITIVE
AC$MASS_SPECTROMETRY: IONIZATION ESI
AC$MASS_SPECTROMETRY: FRAGMENTATION_MODE HCD
AC$MASS_SPECTROMETRY: COLLISION_ENERGY 30 % (nominal)
AC$MASS_SPECTROMETRY: RESOLUTION 15000
AC$MASS_SPECTROMETRY: MASS_RANGE_M/Z 50-396
AC$CHROMATOGRAPHY: COLUMN_NAME XBridge C18 3.5um, 2.1x50mm, Waters
AC$CHROMATOGRAPHY: FLOW_GRADIENT 90/10 at 0 min, 50/50 at 4 min, 5/95 at 17 min, 5/95 at 25 min, 90/10 at 25.1 min, 90/10 at 30 min
AC$CHROMATOGRAPHY: FLOW_RATE 200 uL/min
AC$CHROMATOGRAPHY: RETENTION_TIME 5.169 min
MS$FOCUSED_ION: BASE_PEAK 367.2376
MS$FOCUSED_ION: PRECURSOR_M/Z 367.238
MS$FOCUSED_ION: PRECURSOR_TYPE [M+H]+
MS$DATA_PROCESSING: RECALIBRATE loess on assigned fragments and MS1
MS$DATA_PROCESSING: REANALYZE Peaks with additional N2/O included
MS$DATA_PROCESSING: WHOLE RMassBank 3.15.1.1
PK$SPLASH: splash10-002f-0942000000-72c666eaad3263ea6050
PK$ANNOTATION: m/z tentative_formula formula_count mass error(ppm)
  176.1432 C12H18N+ 1 176.1434 -0.89
  190.0861 C11H12NO2+ 1 190.0863 -0.95
  202.0776 C16H10+ 1 202.0777 -0.47
  276.1834 C16H24N2O2+ 1 276.1832 0.63
  294.1851 C20H24NO+ 1 294.1852 -0.6
  322.18 C21H24NO2+ 1 322.1802 -0.56
  367.2377 C23H31N2O2+ 1 367.238 -0.85
PK$NUM_PEAK: 7
PK$PEAK: m/z int. rel.int.
  176.1432 15271831 999
  190.0861 10907930 713
  202.0776 2438084.8 159
  276.1834 611261.9 39
  294.1851 9226548 603
  322.18 4607416 301
  367.2377 3285732.2 214
//
