ACCESSION: MSBNK-Eawag-EQ00416359
RECORD_TITLE: Sulfamic acid; LC-ESI-QFT; MS2; CE: 180%; R=15000; [M-H]-
DATE: 2024.06.14
AUTHORS: F. Jud [dtc], K. Arturi [dtc], J. Hollender [dtc], A. Dax [com]
LICENSE: CC BY-SA
COPYRIGHT: Copyright (C) Eawag 2024
COMMENT: CONFIDENCE standard compound
COMMENT: UCHEM_ID 4163
CH$NAME: Sulfamic acid
CH$COMPOUND_CLASS: N/A
CH$FORMULA: H3NO3S
CH$EXACT_MASS: 96.98336396
CH$SMILES: NS(=O)(=O)O
CH$IUPAC: InChI=1S/H3NO3S/c1-5(2,3)4/h(H3,1,2,3,4)
CH$LINK: CAS 5329-14-6
CH$LINK: CHEBI CHEBI:9330
CH$LINK: PUBCHEM CID:5987
CH$LINK: INCHIKEY IIACRCGMVDHOTQ-UHFFFAOYSA-N
CH$LINK: CHEMSPIDER 5767
AC$INSTRUMENT: Exploris 240 Thermo Scientific
AC$INSTRUMENT_TYPE: LC-ESI-QFT
AC$MASS_SPECTROMETRY: MS_TYPE MS2
AC$MASS_SPECTROMETRY: ION_MODE NEGATIVE
AC$MASS_SPECTROMETRY: IONIZATION ESI
AC$MASS_SPECTROMETRY: FRAGMENTATION_MODE HCD
AC$MASS_SPECTROMETRY: COLLISION_ENERGY 180 % (nominal)
AC$MASS_SPECTROMETRY: RESOLUTION 15000
AC$MASS_SPECTROMETRY: MASS_RANGE_M/Z 40-119
AC$CHROMATOGRAPHY: COLUMN_NAME XBridge C18 3.5um, 2.1x50mm, Waters
AC$CHROMATOGRAPHY: FLOW_GRADIENT 90/10 at 0 min, 50/50 at 4 min, 5/95 at 17 min, 5/95 at 25 min, 90/10 at 25.1 min, 90/10 at 30 min
AC$CHROMATOGRAPHY: FLOW_RATE 200 uL/min
AC$CHROMATOGRAPHY: RETENTION_TIME 0.792 min
MS$FOCUSED_ION: BASE_PEAK 95.9761
MS$FOCUSED_ION: PRECURSOR_M/Z 95.9761
MS$FOCUSED_ION: PRECURSOR_TYPE [M-H]-
MS$DATA_PROCESSING: RECALIBRATE loess on assigned fragments and MS1
MS$DATA_PROCESSING: REANALYZE Peaks with additional N2/O included
MS$DATA_PROCESSING: WHOLE RMassBank 3.15.1.1
PK$SPLASH: splash10-004i-9000000000-90b42fb3704ceaac3faf
PK$ANNOTATION: m/z tentative_formula formula_count mass error(ppm)
  79.9574 O3S- 1 79.9574 0.5
  95.9762 H2NO3S- 1 95.9761 0.83
PK$NUM_PEAK: 2
PK$PEAK: m/z int. rel.int.
  79.9574 18532612 999
  95.9762 302029.7 16
//
