ACCESSION: MSBNK-Eawag-EQ01132304
RECORD_TITLE: Vamidothion; LC-ESI-QFT; MS2; CE: 60%; R=17500; [M+H]+
DATE: 2023.04.27
AUTHORS: B. Beck [dtc,com], J. Hollender [dtc]
LICENSE: CC BY-SA
COPYRIGHT: Copyright (C) Eawag 2023
COMMENT: CONFIDENCE standard compound
COMMENT: UCHEM_ID 11323
CH$NAME: Vamidothion
CH$NAME: 2-(2-dimethoxyphosphorylsulfanylethylsulfanyl)-N-methylpropanamide
CH$COMPOUND_CLASS: N/A; Environmental Standard
CH$FORMULA: C8H18NO4PS2
CH$EXACT_MASS: 287.0415
CH$SMILES: CC(C(=O)NC)SCCSP(=O)(OC)OC
CH$IUPAC: InChI=1S/C8H18NO4PS2/c1-7(8(10)9-2)15-5-6-16-14(11,12-3)13-4/h7H,5-6H2,1-4H3,(H,9,10)
CH$LINK: CAS 637-23-0
CH$LINK: CHEBI CHEBI:38990
CH$LINK: KEGG C18666
CH$LINK: PUBCHEM CID:560193
CH$LINK: INCHIKEY LESVOLZBIFDZGS-UHFFFAOYSA-N
CH$LINK: CHEMSPIDER 486975
AC$INSTRUMENT: Exploris 240 Orbitrap Thermo Scientific
AC$INSTRUMENT_TYPE: LC-ESI-QFT
AC$MASS_SPECTROMETRY: MS_TYPE MS2
AC$MASS_SPECTROMETRY: ION_MODE POSITIVE
AC$MASS_SPECTROMETRY: IONIZATION ESI
AC$MASS_SPECTROMETRY: FRAGMENTATION_MODE HCD
AC$MASS_SPECTROMETRY: COLLISION_ENERGY 60 % (nominal)
AC$MASS_SPECTROMETRY: RESOLUTION 17500
AC$MASS_SPECTROMETRY: MASS_RANGE_M/Z 50-315
AC$CHROMATOGRAPHY: COLUMN_NAME XBridge C18 3.5um, 2.1x50mm, Waters
AC$CHROMATOGRAPHY: FLOW_GRADIENT 90/10 at 0 min, 50/50 at 4 min, 5/95 at 17 min, 5/95 at 25 min, 90/10 at 25.1 min, 90/10 at 30 min
AC$CHROMATOGRAPHY: FLOW_RATE 200 uL/min
AC$CHROMATOGRAPHY: RETENTION_TIME 3.999 min
MS$FOCUSED_ION: BASE_PEAK 288.0485
MS$FOCUSED_ION: PRECURSOR_M/Z 288.0488
MS$FOCUSED_ION: PRECURSOR_TYPE [M+H]+
MS$DATA_PROCESSING: RECALIBRATE loess on assigned fragments and MS1
MS$DATA_PROCESSING: REANALYZE Peaks with additional N2/O included
MS$DATA_PROCESSING: WHOLE RMassBank 3.11.0.1
PK$SPLASH: splash10-0aor-9600000000-5c33b87d8db78cd0b755
PK$ANNOTATION: m/z tentative_formula formula_count mass error(ppm)
  55.0179 C3H3O+ 1 55.0178 0.92
  57.0575 C3H7N+ 1 57.0573 3.09
  58.0287 C2H4NO+ 1 58.0287 -0.09
  58.0651 C3H8N+ 1 58.0651 -0.36
  61.0106 C2H5S+ 1 61.0106 -0.86
  86.06 C4H8NO+ 1 86.06 -0.38
  87.0263 C4H7S+ 2 87.0263 -0.4
  89.0055 C3H5OS+ 1 89.0056 -0.33
  90.0371 C3H8NS+ 1 90.0372 -0.87
  118.0321 C4H8NOS+ 1 118.0321 -0.22
  146.0634 C6H12NOS+ 1 146.0634 -0.34
PK$NUM_PEAK: 11
PK$PEAK: m/z int. rel.int.
  55.0179 5308328 48
  57.0575 771063.9 7
  58.0287 62189640 568
  58.0651 52364676 478
  61.0106 8294882 75
  86.06 24791628 226
  87.0263 4519313 41
  89.0055 1164773.4 10
  90.0371 11260839 102
  118.0321 109345896 999
  146.0634 21889180 199
//
