ACCESSION: MSBNK-Eawag-EQ357156
RECORD_TITLE: 8phiC8SPC; LC-ESI-QFT; MS2; CE: 90; R=35000; [M-H]-
DATE: 2015.08.26
AUTHORS: Beck B, Stravs M, Schymanski E, Singer H, Department of Environmental Chemistry, Eawag
LICENSE: CC BY
COPYRIGHT: Copyright (C) 2015 Eawag, Duebendorf, Switzerland
COMMENT: CONFIDENCE standard compound
COMMENT: EAWAG_UCHEM_ID 3571
CH$NAME: 8phiC8SPC
CH$NAME: Octacarboxy sulfophenyl carboxylic acid
CH$NAME: 8-(4-sulfophenyl)octanoic acid
CH$COMPOUND_CLASS: N/A; Environmental Standard
CH$FORMULA: C14H20O5S
CH$EXACT_MASS: 300.10314
CH$SMILES: OS(=O)(=O)c1ccc(CCCCCCCC(=O)O)cc1
CH$IUPAC: InChI=1S/C14H20O5S/c15-14(16)7-5-3-1-2-4-6-12-8-10-13(11-9-12)20(17,18)19/h8-11H,1-7H2,(H,15,16)(H,17,18,19)
CH$LINK: PUBCHEM CID:53987276
CH$LINK: INCHIKEY KCKCVKAROJRVBA-UHFFFAOYSA-N
CH$LINK: COMPTOX DTXSID00891334
AC$INSTRUMENT: Q Exactive Plus Orbitrap Thermo Scientific
AC$INSTRUMENT_TYPE: LC-ESI-QFT
AC$MASS_SPECTROMETRY: MS_TYPE MS2
AC$MASS_SPECTROMETRY: ION_MODE NEGATIVE
AC$MASS_SPECTROMETRY: IONIZATION ESI
AC$MASS_SPECTROMETRY: FRAGMENTATION_MODE HCD
AC$MASS_SPECTROMETRY: COLLISION_ENERGY 90 (nominal)
AC$MASS_SPECTROMETRY: RESOLUTION 35000
AC$CHROMATOGRAPHY: COLUMN_NAME XBridge C18 3.5um, 2.1x50mm, Waters
AC$CHROMATOGRAPHY: FLOW_GRADIENT 90/10 at 0 min, 50/50 at 4 min, 5/95 at 17 min, 5/95 at 25 min, 90/10 at 25.1 min, 90/10 at 30 min
AC$CHROMATOGRAPHY: FLOW_RATE 200 ul/min
AC$CHROMATOGRAPHY: RETENTION_TIME 8.0 min
AC$CHROMATOGRAPHY: SOLVENT A water with 0.1% formic acid
AC$CHROMATOGRAPHY: SOLVENT B methanol with 0.1% formic acid
MS$FOCUSED_ION: BASE_PEAK 299.0956
MS$FOCUSED_ION: PRECURSOR_M/Z 299.0959
MS$FOCUSED_ION: PRECURSOR_TYPE [M-H]-
MS$DATA_PROCESSING: RECALIBRATE loess on assigned fragments and MS1
MS$DATA_PROCESSING: REANALYZE Peaks with additional N2/O included
MS$DATA_PROCESSING: WHOLE RMassBank 1.9.6
PK$SPLASH: splash10-00fr-4900000000-71044ae9f45f4131597f
PK$ANNOTATION: m/z tentative_formula formula_count mass error(ppm)
  63.9625 O2S- 1 63.9624 0.64
  79.9574 O3S- 1 79.9574 0.71
  80.9652 HO3S- 1 80.9652 -0.23
  95.0138 C5H3O2- 1 95.0139 -0.66
  106.0424 C7H6O- 1 106.0424 -0.13
  119.0503 C8H7O- 1 119.0502 0.18
  133.0659 C9H9O- 1 133.0659 0.46
  155.9888 C6H4O3S- 1 155.9887 1
  158.976 C5H3O4S- 1 158.9758 1.74
  170.0044 C7H6O3S- 1 170.0043 0.51
  183.0122 C8H7O3S- 1 183.0121 0.12
  184.0198 C8H8O3S- 1 184.02 -1.05
  197.0278 C9H9O3S- 1 197.0278 0.11
  201.9942 C7H6O5S- 1 201.9941 0.53
  211.0435 C10H11O3S- 1 211.0434 0.48
  281.0854 C14H17O4S- 1 281.0853 0.41
  299.0959 C14H19O5S- 1 299.0959 0.21
PK$NUM_PEAK: 17
PK$PEAK: m/z int. rel.int.
  63.9625 9745277 99
  79.9574 52456208 535
  80.9652 3132931 31
  95.0138 381464 3
  106.0424 877662.3 8
  119.0503 5488347 55
  133.0659 371383 3
  155.9888 2563538 26
  158.976 308095.8 3
  170.0044 97909392 999
  183.0122 23594616 240
  184.0198 141628.3 1
  197.0278 1664387.8 16
  201.9942 2274774.2 23
  211.0435 620740.3 6
  281.0854 147424.7 1
  299.0959 137944.9 1
//
