ACCESSION: MSBNK-Eawag-EA298807
RECORD_TITLE: Triclocarban; LC-ESI-ITFT; MS2; CE: 90%; R=7500; [M+H]+
DATE: 2014.01.14
AUTHORS: Stravs M, Schymanski E, Singer H, Department of Environmental Chemistry, Eawag
LICENSE: CC BY
COPYRIGHT: Copyright (C) 2012 Eawag, Duebendorf, Switzerland
COMMENT: CONFIDENCE standard compound
COMMENT: EAWAG_UCHEM_ID 2988
CH$NAME: Triclocarban
CH$NAME: 1-(4-chlorophenyl)-3-(3,4-dichlorophenyl)urea
CH$COMPOUND_CLASS: N/A; Environmental Standard
CH$FORMULA: C13H9Cl3N2O
CH$EXACT_MASS: 313.9780
CH$SMILES: Clc2ccc(NC(=O)Nc1ccc(Cl)cc1)cc2Cl
CH$IUPAC: InChI=1S/C13H9Cl3N2O/c14-8-1-3-9(4-2-8)17-13(19)18-10-5-6-11(15)12(16)7-10/h1-7H,(H2,17,18,19)
CH$LINK: CAS 101-20-2
CH$LINK: KEGG D06223
CH$LINK: PUBCHEM CID:7547
CH$LINK: INCHIKEY ICUTUKXCWQYESQ-UHFFFAOYSA-N
CH$LINK: CHEMSPIDER 7266
CH$LINK: COMPTOX DTXSID4026214
AC$INSTRUMENT: LTQ Orbitrap XL Thermo Scientific
AC$INSTRUMENT_TYPE: LC-ESI-ITFT
AC$MASS_SPECTROMETRY: MS_TYPE MS2
AC$MASS_SPECTROMETRY: ION_MODE POSITIVE
AC$MASS_SPECTROMETRY: IONIZATION ESI
AC$MASS_SPECTROMETRY: FRAGMENTATION_MODE HCD
AC$MASS_SPECTROMETRY: COLLISION_ENERGY 90 % (nominal)
AC$MASS_SPECTROMETRY: RESOLUTION 7500
AC$CHROMATOGRAPHY: COLUMN_NAME XBridge C18 3.5um, 2.1x50mm, Waters
AC$CHROMATOGRAPHY: FLOW_GRADIENT 90/10 at 0 min, 50/50 at 4 min, 5/95 at 17 min, 5/95 at 25 min, 90/10 at 25.1 min, 90/10 at 30 min
AC$CHROMATOGRAPHY: FLOW_RATE 200 ul/min
AC$CHROMATOGRAPHY: RETENTION_TIME 14.8 min
AC$CHROMATOGRAPHY: SOLVENT A water with 0.1% formic acid
AC$CHROMATOGRAPHY: SOLVENT B methanol with 0.1% formic acid
MS$FOCUSED_ION: BASE_PEAK 314.9854
MS$FOCUSED_ION: PRECURSOR_M/Z 314.9853
MS$FOCUSED_ION: PRECURSOR_TYPE [M+H]+
MS$DATA_PROCESSING: DEPROFILE Spline
MS$DATA_PROCESSING: RECALIBRATE loess on assigned fragments and MS1
MS$DATA_PROCESSING: REANALYZE Peaks with additional N2/O included
MS$DATA_PROCESSING: WHOLE RMassBank 1.3.1
PK$SPLASH: splash10-004i-3900000000-6076de3ccc95186d3083
PK$ANNOTATION: m/z tentative_formula formula_count mass error(ppm)
  65.0384 C5H5+ 1 65.0386 -2.25
  86.9996 C4H4Cl+ 1 86.9996 -0.51
  90.0338 C6H4N+ 1 90.0338 -0.51
  91.0417 C6H5N+ 1 91.0417 0.76
  92.0494 C6H6N+ 1 92.0495 -0.82
  93.0572 C6H7N+ 1 93.0573 -0.76
  98.9995 C5H4Cl+ 1 98.9996 -0.95
  100.0074 C5H5Cl+ 1 100.0074 -0.39
  123.9946 C9O+ 2 123.9944 1.64
  125.0026 C6H4ClN+ 2 125.0027 -0.95
  126.0104 C6H5ClN+ 2 126.0105 -0.9
  127.0182 C6H6ClN+ 2 127.0183 -0.7
  128.0261 C6H7ClN+ 2 128.0262 -0.57
  132.9605 C5H3Cl2+ 1 132.9606 -0.77
  139.0056 C6H4ClN2+ 2 139.0058 -0.95
  159.9715 C6H4Cl2N+ 2 159.9715 -0.38
  161.9875 C6H6Cl2N+ 2 161.9872 1.91
  172.9668 C9ClNO+ 2 172.9663 2.82
PK$NUM_PEAK: 18
PK$PEAK: m/z int. rel.int.
  65.0384 7140.8 6
  86.9996 3471.6 3
  90.0338 5842.7 5
  91.0417 5364.8 4
  92.0494 18144.3 16
  93.0572 513039.2 457
  98.9995 67452.1 60
  100.0074 14307.7 12
  123.9946 4377.1 3
  125.0026 20945.9 18
  126.0104 142395.7 126
  127.0182 1121150.3 999
  128.0261 26888.2 23
  132.9605 58640.1 52
  139.0056 24200.1 21
  159.9715 59950.4 53
  161.9875 12738.5 11
  172.9668 12917.4 11
//
