ACCESSION: MSBNK-Eawag-EQ01151705
RECORD_TITLE: 2-Acetylpyrazine; LC-ESI-QFT; MS2; CE: 75%; R=17500; [M+H]+
DATE: 2024.05.08
AUTHORS: C. Meyer [dtc], B. Beck [dtc,com], J. Hollender [dtc]
LICENSE: CC BY-SA
COPYRIGHT: Copyright (C) Eawag 2023
PUBLICATION: Meyer, C., Stravs, M., Hollender, J.. How Wastewater Reflects Human Metabolism - Suspect Screening of Pharmaceutical Metabolites in Wastewater Influent. doi:10.1021/acs.est.4c00968
COMMENT: CONFIDENCE standard compound
COMMENT: UCHEM_ID 11517
CH$NAME: 2-Acetylpyrazine
CH$NAME: Acetylpyrazine
CH$NAME: 1-pyrazin-2-ylethanone
CH$COMPOUND_CLASS: N/A; Environmental Standard
CH$FORMULA: C6H6N2O
CH$EXACT_MASS: 122.0480128
CH$SMILES: CC(=O)C1=NC=CN=C1
CH$IUPAC: InChI=1S/C6H6N2O/c1-5(9)6-4-7-2-3-8-6/h2-4H,1H3
CH$LINK: CHEBI CHEBI:145236
CH$LINK: PUBCHEM CID:30914
CH$LINK: INCHIKEY DBZAKQWXICEWNW-UHFFFAOYSA-N
CH$LINK: CHEMSPIDER 28682
AC$INSTRUMENT: Exploris 240 Orbitrap Thermo Scientific
AC$INSTRUMENT_TYPE: LC-ESI-QFT
AC$MASS_SPECTROMETRY: MS_TYPE MS2
AC$MASS_SPECTROMETRY: ION_MODE POSITIVE
AC$MASS_SPECTROMETRY: IONIZATION ESI
AC$MASS_SPECTROMETRY: FRAGMENTATION_MODE HCD
AC$MASS_SPECTROMETRY: COLLISION_ENERGY 75 % (nominal)
AC$MASS_SPECTROMETRY: RESOLUTION 17500
AC$MASS_SPECTROMETRY: MASS_RANGE_M/Z 40-147
AC$CHROMATOGRAPHY: COLUMN_NAME XBridge C18 3.5um, 2.1x50mm, Waters
AC$CHROMATOGRAPHY: FLOW_GRADIENT 90/10 at 0 min, 50/50 at 4 min, 5/95 at 17 min, 5/95 at 25 min, 90/10 at 25.1 min, 90/10 at 30 min
AC$CHROMATOGRAPHY: FLOW_RATE 200 uL/min
AC$CHROMATOGRAPHY: RETENTION_TIME 2.489 min
MS$FOCUSED_ION: BASE_PEAK 132.9582
MS$FOCUSED_ION: PRECURSOR_M/Z 123.0553
MS$FOCUSED_ION: PRECURSOR_TYPE [M+H]+
MS$DATA_PROCESSING: RECALIBRATE loess on assigned fragments and MS1
MS$DATA_PROCESSING: REANALYZE Peaks with additional N2/O included
MS$DATA_PROCESSING: WHOLE RMassBank 3.15.1
PK$SPLASH: splash10-001i-9400000000-18fe65edda52e376a8fd
PK$ANNOTATION: m/z tentative_formula formula_count mass error(ppm)
  43.0178 C2H3O+ 1 43.0178 -1.66
  54.0338 C3H4N+ 1 54.0338 -0.73
  68.0496 C4H6N+ 1 68.0495 1.95
  78.034 C5H4N+ 1 78.0338 2.51
  79.0291 C4H3N2+ 1 79.0291 0.53
  80.037 C4H4N2+ 1 80.0369 1.34
  81.0447 C4H5N2+ 1 81.0447 -0.52
  95.0603 C5H7N2+ 1 95.0604 -0.4
  97.0397 C4H5N2O+ 1 97.0396 0.68
  105.0447 C6H5N2+ 1 105.0447 -0.25
  123.0552 C6H7N2O+ 1 123.0553 -0.65
PK$NUM_PEAK: 11
PK$PEAK: m/z int. rel.int.
  43.0178 240302.5 23
  54.0338 455889.9 43
  68.0496 63461.8 6
  78.034 92050.6 8
  79.0291 74153.1 7
  80.037 39697 3
  81.0447 10410833 999
  95.0603 1046169.8 100
  97.0397 83202.3 7
  105.0447 1197060.5 114
  123.0552 4638370.5 445
//
