ACCESSION: MSBNK-Eawag-EQ01130101
RECORD_TITLE: Pyraclofos; LC-ESI-QFT; MS2; CE: 15%; R=17500; [M+H]+
DATE: 2023.04.27
AUTHORS: B. Beck [dtc,com], J. Hollender [dtc]
LICENSE: CC BY-SA
COPYRIGHT: Copyright (C) Eawag 2023
COMMENT: CONFIDENCE standard compound
COMMENT: UCHEM_ID 11301
CH$NAME: Pyraclofos
CH$NAME: 1-(4-chlorophenyl)-4-[ethoxy(propylsulfanyl)phosphoryl]oxypyrazole
CH$COMPOUND_CLASS: N/A; Environmental Standard
CH$FORMULA: C14H18ClN2O3PS
CH$EXACT_MASS: 360.0464
CH$SMILES: CCCSP(=O)(OCC)OC1=CN(N=C1)C2=CC=C(C=C2)Cl
CH$IUPAC: InChI=1S/C14H18ClN2O3PS/c1-3-9-22-21(18,19-4-2)20-14-10-16-17(11-14)13-7-5-12(15)6-8-13/h5-8,10-11H,3-4,9H2,1-2H3
CH$LINK: CAS 95465-99-9
CH$LINK: CHEBI CHEBI:38876
CH$LINK: KEGG C18406
CH$LINK: PUBCHEM CID:93460
CH$LINK: INCHIKEY QHGVXILFMXYDRS-UHFFFAOYSA-N
CH$LINK: CHEMSPIDER 84364
AC$INSTRUMENT: Exploris 240 Orbitrap Thermo Scientific
AC$INSTRUMENT_TYPE: LC-ESI-QFT
AC$MASS_SPECTROMETRY: MS_TYPE MS2
AC$MASS_SPECTROMETRY: ION_MODE POSITIVE
AC$MASS_SPECTROMETRY: IONIZATION ESI
AC$MASS_SPECTROMETRY: FRAGMENTATION_MODE HCD
AC$MASS_SPECTROMETRY: COLLISION_ENERGY 15 % (nominal)
AC$MASS_SPECTROMETRY: RESOLUTION 17500
AC$MASS_SPECTROMETRY: MASS_RANGE_M/Z 50-389
AC$CHROMATOGRAPHY: COLUMN_NAME XBridge C18 3.5um, 2.1x50mm, Waters
AC$CHROMATOGRAPHY: FLOW_GRADIENT 90/10 at 0 min, 50/50 at 4 min, 5/95 at 17 min, 5/95 at 25 min, 90/10 at 25.1 min, 90/10 at 30 min
AC$CHROMATOGRAPHY: FLOW_RATE 200 uL/min
AC$CHROMATOGRAPHY: RETENTION_TIME 11.576 min
MS$FOCUSED_ION: BASE_PEAK 361.0538
MS$FOCUSED_ION: PRECURSOR_M/Z 361.0537
MS$FOCUSED_ION: PRECURSOR_TYPE [M+H]+
MS$DATA_PROCESSING: RECALIBRATE loess on assigned fragments and MS1
MS$DATA_PROCESSING: REANALYZE Peaks with additional N2/O included
MS$DATA_PROCESSING: WHOLE RMassBank 3.11.0.1
PK$SPLASH: splash10-03di-0009000000-497a3a37cd0ea52fdd43
PK$ANNOTATION: m/z tentative_formula formula_count mass error(ppm)
  319.0058 C11H13ClN2O3PS+ 1 319.0068 -2.89
  333.0223 C12H15ClN2O3PS+ 1 333.0224 -0.43
  361.0538 C14H19ClN2O3PS+ 1 361.0537 0.22
PK$NUM_PEAK: 3
PK$PEAK: m/z int. rel.int.
  319.0058 689860.8 3
  333.0223 1639140.1 8
  361.0538 184602528 999
//
