ACCESSION: MSBNK-Eawag-EA066410
RECORD_TITLE: Flufenacet OXA; LC-ESI-ITFT; MS2; CE: 45%; R=15000; [M+H]+
DATE: 2014.01.14
AUTHORS: Stravs M, Schymanski E, Singer H, Department of Environmental Chemistry, Eawag
LICENSE: CC BY
COPYRIGHT: Copyright (C) 2012 Eawag, Duebendorf, Switzerland
COMMENT: CONFIDENCE standard compound
COMMENT: EAWAG_UCHEM_ID 664
CH$NAME: Flufenacet OXA
CH$NAME: [(4-Fluorophenyl)(isopropyl)amino](oxo)acetic acid
CH$COMPOUND_CLASS: N/A; Environmental Standard
CH$FORMULA: C11H12FNO3
CH$EXACT_MASS: 225.0801
CH$SMILES: Fc1ccc(cc1)N(C(C)C)C(=O)C(O)=O
CH$IUPAC: InChI=1S/C11H12FNO3/c1-7(2)13(10(14)11(15)16)9-5-3-8(12)4-6-9/h3-7H,1-2H3,(H,15,16)
CH$LINK: CAS 201668-31-7
CH$LINK: PUBCHEM CID:16212222
CH$LINK: INCHIKEY FFKNXXCOXIZLJD-UHFFFAOYSA-N
CH$LINK: CHEMSPIDER 17340100
CH$LINK: COMPTOX DTXSID2037552
AC$INSTRUMENT: LTQ Orbitrap XL Thermo Scientific
AC$INSTRUMENT_TYPE: LC-ESI-ITFT
AC$MASS_SPECTROMETRY: MS_TYPE MS2
AC$MASS_SPECTROMETRY: ION_MODE POSITIVE
AC$MASS_SPECTROMETRY: IONIZATION ESI
AC$MASS_SPECTROMETRY: FRAGMENTATION_MODE HCD
AC$MASS_SPECTROMETRY: COLLISION_ENERGY 45 % (nominal)
AC$MASS_SPECTROMETRY: RESOLUTION 15000
AC$CHROMATOGRAPHY: COLUMN_NAME XBridge C18 3.5um, 2.1x50mm, Waters
AC$CHROMATOGRAPHY: FLOW_GRADIENT 90/10 at 0 min, 50/50 at 4 min, 5/95 at 17 min, 5/95 at 25 min, 90/10 at 25.1 min, 90/10 at 30 min
AC$CHROMATOGRAPHY: FLOW_RATE 200 ul/min
AC$CHROMATOGRAPHY: RETENTION_TIME 6.2 min
AC$CHROMATOGRAPHY: SOLVENT A water with 0.1% formic acid
AC$CHROMATOGRAPHY: SOLVENT B methanol with 0.1% formic acid
MS$FOCUSED_ION: BASE_PEAK 226.0871
MS$FOCUSED_ION: PRECURSOR_M/Z 226.0874
MS$FOCUSED_ION: PRECURSOR_TYPE [M+H]+
MS$DATA_PROCESSING: DEPROFILE Spline
MS$DATA_PROCESSING: RECALIBRATE loess on assigned fragments and MS1
MS$DATA_PROCESSING: REANALYZE Peaks with additional N2/O included
MS$DATA_PROCESSING: WHOLE RMassBank 1.3.1
PK$SPLASH: splash10-01p9-0900000000-4d57eed84a10c5bf42e5
PK$ANNOTATION: m/z tentative_formula formula_count mass error(ppm)
  83.0291 C5H4F+ 1 83.0292 -0.3
  95.0287 C6H4F+ 1 95.0292 -4.36
  110.0401 C6H5FN+ 1 110.0401 0.24
  122.0401 C7H5FN+ 1 122.0401 0.62
  123.0357 C6H4FN2+ 1 123.0353 3.55
  138.035 C7H5FNO+ 1 138.035 0.16
  152.0872 C9H11FN+ 1 152.087 1.03
  156.0455 C7H7FNO2+ 1 156.0455 -0.15
  180.0818 C10H11FNO+ 1 180.0819 -0.44
  184.0405 C8H7FNO3+ 1 184.0404 0.28
PK$NUM_PEAK: 10
PK$PEAK: m/z int. rel.int.
  83.0291 41668.7 3
  95.0287 16804.7 1
  110.0401 8901244.9 735
  122.0401 148720.4 12
  123.0357 13330.2 1
  138.035 12094934.4 999
  152.0872 16891.1 1
  156.0455 17939.5 1
  180.0818 162517.7 13
  184.0405 292702 24
//
