ACCESSION: MSBNK-Eawag-EQ00370903
RECORD_TITLE: Fluometuron; LC-ESI-QFT; MS2; CE: 45%; R=15000; [M+H]+
DATE: 2024.06.14
AUTHORS: F. Jud [dtc], K. Arturi [dtc], J. Hollender [dtc], A. Dax [com]
LICENSE: CC BY-SA
COPYRIGHT: Copyright (C) Eawag 2024
COMMENT: CONFIDENCE standard compound
COMMENT: UCHEM_ID 3709
CH$NAME: Fluometuron
CH$NAME: 1,1-dimethyl-3-[3-(trifluoromethyl)phenyl]urea
CH$COMPOUND_CLASS: N/A
CH$FORMULA: C10H11F3N2O
CH$EXACT_MASS: 232.0823476
CH$SMILES: CN(C)C(=O)NC1=CC=CC(=C1)C(F)(F)F
CH$IUPAC: InChI=1S/C10H11F3N2O/c1-15(2)9(16)14-8-5-3-4-7(6-8)10(11,12)13/h3-6H,1-2H3,(H,14,16)
CH$LINK: CAS 2164-17-2
CH$LINK: CHEBI CHEBI:82012
CH$LINK: KEGG C18853
CH$LINK: PUBCHEM CID:16562
CH$LINK: INCHIKEY RZILCCPWPBTYDO-UHFFFAOYSA-N
CH$LINK: CHEMSPIDER 15702
AC$INSTRUMENT: Q Exactive Plus
AC$INSTRUMENT_TYPE: LC-ESI-QFT
AC$MASS_SPECTROMETRY: MS_TYPE MS2
AC$MASS_SPECTROMETRY: ION_MODE POSITIVE
AC$MASS_SPECTROMETRY: IONIZATION ESI
AC$MASS_SPECTROMETRY: FRAGMENTATION_MODE HCD
AC$MASS_SPECTROMETRY: COLLISION_ENERGY 45 % (nominal)
AC$MASS_SPECTROMETRY: RESOLUTION 15000
AC$MASS_SPECTROMETRY: MASS_RANGE_M/Z 50-255
AC$CHROMATOGRAPHY: COLUMN_NAME XBridge C18 3.5um, 2.1x50mm, Waters
AC$CHROMATOGRAPHY: FLOW_GRADIENT 90/10 at 0 min, 50/50 at 4 min, 5/95 at 17 min, 5/95 at 25 min, 90/10 at 25.1 min, 90/10 at 30 min
AC$CHROMATOGRAPHY: FLOW_RATE 200 uL/min
AC$CHROMATOGRAPHY: RETENTION_TIME 7.101 min
MS$FOCUSED_ION: BASE_PEAK 233.0896
MS$FOCUSED_ION: PRECURSOR_M/Z 233.0896
MS$FOCUSED_ION: PRECURSOR_TYPE [M+H]+
MS$FOCUSED_ION: PRECURSOR_INTENSITY 1062988004.97
MS$DATA_PROCESSING: RECALIBRATE loess on assigned fragments and MS1
MS$DATA_PROCESSING: REANALYZE Peaks with additional N2/O included
MS$DATA_PROCESSING: WHOLE RMassBank 3.15.1.1
PK$SPLASH: splash10-00di-9000000000-45c3002a71d55b21c952
PK$ANNOTATION: m/z tentative_formula formula_count mass error(ppm)
  72.0444 C3H6NO+ 1 72.0444 -0.08
  160.0372 C7H5F3N+ 1 160.0369 2.24
  168.0253 C8H4F2NO+ 1 168.0255 -1.28
  188.0319 C8H5F3NO+ 1 188.0318 0.49
  233.0895 C10H12F3N2O+ 1 233.0896 -0.69
PK$NUM_PEAK: 5
PK$PEAK: m/z int. rel.int.
  72.0444 275236928 999
  160.0372 3807395.8 13
  168.0253 3657615.8 13
  188.0319 5622858.5 20
  233.0895 10445994 37
//
