ACCESSION: MSBNK-Eawag-EA273714
RECORD_TITLE: Ranitidine-S-oxide; LC-ESI-ITFT; MS2; CE: 35%; R=30000; [M+H]+
DATE: 2014.01.14
AUTHORS: Stravs M, Schymanski E, Singer H, Department of Environmental Chemistry, Eawag
LICENSE: CC BY
COPYRIGHT: Copyright (C) 2012 Eawag, Duebendorf, Switzerland
COMMENT: CONFIDENCE standard compound
COMMENT: EAWAG_UCHEM_ID 2737
CH$NAME: Ranitidine-S-oxide
CH$NAME: 1,1-Ethenediamine, N-(2-(((5-((dimethylamino)methyl)-2-furanyl)methyl)sulfinyl)ethyl)-N'-methyl-2-nitro-
CH$COMPOUND_CLASS: N/A; Environmental Standard
CH$FORMULA: C13H22N4O4S
CH$EXACT_MASS: 330.1362
CH$SMILES: [O-][N+](=O)\C=C(/NC)NCCS(=O)Cc1oc(cc1)CN(C)C
CH$IUPAC: InChI=1S/C13H22N4O4S/c1-14-13(9-17(18)19)15-6-7-22(20)10-12-5-4-11(21-12)8-16(2)3/h4-5,9,14-15H,6-8,10H2,1-3H3/b13-9+
CH$LINK: CAS 73851-70-4
CH$LINK: PUBCHEM CID:3033889
CH$LINK: INCHIKEY SKHXRNHSZTXSLP-UKTHLTGXSA-N
CH$LINK: CHEMSPIDER 2298464
AC$INSTRUMENT: LTQ Orbitrap XL Thermo Scientific
AC$INSTRUMENT_TYPE: LC-ESI-ITFT
AC$MASS_SPECTROMETRY: MS_TYPE MS2
AC$MASS_SPECTROMETRY: ION_MODE POSITIVE
AC$MASS_SPECTROMETRY: IONIZATION ESI
AC$MASS_SPECTROMETRY: FRAGMENTATION_MODE CID
AC$MASS_SPECTROMETRY: COLLISION_ENERGY 35 % (nominal)
AC$MASS_SPECTROMETRY: RESOLUTION 30000
AC$CHROMATOGRAPHY: COLUMN_NAME XBridge C18 3.5um, 2.1x50mm, Waters
AC$CHROMATOGRAPHY: FLOW_GRADIENT 90/10 at 0 min, 50/50 at 4 min, 5/95 at 17 min, 5/95 at 25 min, 90/10 at 25.1 min, 90/10 at 30 min
AC$CHROMATOGRAPHY: FLOW_RATE 200 ul/min
AC$CHROMATOGRAPHY: RETENTION_TIME 0.8 min
AC$CHROMATOGRAPHY: SOLVENT A water with 0.1% formic acid
AC$CHROMATOGRAPHY: SOLVENT B methanol with 0.1% formic acid
MS$FOCUSED_ION: BASE_PEAK 331.1445
MS$FOCUSED_ION: PRECURSOR_M/Z 331.1435
MS$FOCUSED_ION: PRECURSOR_TYPE [M+H]+
MS$DATA_PROCESSING: DEPROFILE Spline
MS$DATA_PROCESSING: RECALIBRATE loess on assigned fragments and MS1
MS$DATA_PROCESSING: REANALYZE Peaks with additional N2/O included
MS$DATA_PROCESSING: WHOLE RMassBank 1.3.1
PK$SPLASH: splash10-000i-0900000000-4fc18a16e4e3c793f719
PK$ANNOTATION: m/z tentative_formula formula_count mass error(ppm)
  94.0414 C6H6O+ 1 94.0413 1.1
  95.0492 C6H7O+ 1 95.0491 0.3
  102.0372 C4H8NS+ 1 102.0372 0.33
  108.0808 C7H10N+ 1 108.0808 0.04
  110.0965 C7H12N+ 1 110.0964 0.58
  125.0056 C6H5OS+ 1 125.0056 0.3
  130.0559 C5H10N2S+ 1 130.0559 0.15
  138.0914 C8H12NO+ 1 138.0913 0.72
  139.0991 C8H13NO+ 1 139.0992 -0.83
  140.1069 C8H14NO+ 1 140.107 -0.65
  143.0162 C6H7O2S+ 1 143.0161 0.3
  144.0766 C5H10N3O2+ 1 144.0768 -1.06
  146.051 C5H10N2OS+ 1 146.0508 1.33
  156.102 C8H14NO2+ 1 156.1019 0.48
  170.0634 C8H12NOS+ 1 170.0634 0.05
  176.0488 C13H6N+ 2 176.0495 -3.61
  188.0742 C8H14NO2S+ 1 188.074 0.92
  192.0437 C11H4N4+ 3 192.043 3.35
  222.0822 C11H14N2OS+ 1 222.0821 0.07
  231.1162 C10H19N2O2S+ 1 231.1162 -0.07
  267.1395 C13H21N3OS+ 1 267.14 -1.63
  268.075 C11H14N3O3S+ 1 268.075 -0.26
  286.0856 C11H16N3O4S+ 1 286.0856 -0.08
  313.1329 C13H21N4O3S+ 1 313.1329 -0.09
PK$NUM_PEAK: 24
PK$PEAK: m/z int. rel.int.
  94.0414 2382.5 5
  95.0492 5745.5 12
  102.0372 5584.7 12
  108.0808 9001.6 20
  110.0965 100761.8 226
  125.0056 14166.5 31
  130.0559 42839.7 96
  138.0914 443495 999
  139.0991 2241.3 5
  140.1069 9944.3 22
  143.0162 141114.4 317
  144.0766 2165.2 4
  146.051 2006.8 4
  156.102 160479.9 361
  170.0634 3242.2 7
  176.0488 120066.1 270
  188.0742 407180.4 917
  192.0437 7108.5 16
  222.0822 20741.9 46
  231.1162 7641.3 17
  267.1395 2541.5 5
  268.075 34668.3 78
  286.0856 31914.5 71
  313.1329 14685.2 33
//
