ACCESSION: MSBNK-Eawag-EA026914
RECORD_TITLE: Metazachlor; LC-ESI-ITFT; MS2; CE: 35%; R=30000; [M+H]+
DATE: 2014.01.14
AUTHORS: Stravs M, Schymanski E, Singer H, Department of Environmental Chemistry, Eawag
LICENSE: CC BY
COPYRIGHT: Copyright (C) 2012 Eawag, Duebendorf, Switzerland
COMMENT: CONFIDENCE standard compound
COMMENT: EAWAG_UCHEM_ID 269
CH$NAME: Metazachlor
CH$NAME: 2-chloranyl-N-(2,6-dimethylphenyl)-N-(pyrazol-1-ylmethyl)ethanamide
CH$COMPOUND_CLASS: N/A; Environmental Standard
CH$FORMULA: C14H16ClN3O
CH$EXACT_MASS: 277.0976
CH$SMILES: N(c1c(cccc1C)C)(Cn1cccn1)C(CCl)=O
CH$IUPAC: InChI=1S/C14H16ClN3O/c1-11-5-3-6-12(2)14(11)18(13(19)9-15)10-17-8-4-7-16-17/h3-8H,9-10H2,1-2H3
CH$LINK: CAS 67129-08-2
CH$LINK: KEGG C10948
CH$LINK: PUBCHEM CID:49384
CH$LINK: INCHIKEY STEPQTYSZVCJPV-UHFFFAOYSA-N
CH$LINK: CHEMSPIDER 44885
CH$LINK: COMPTOX DTXSID4058156
AC$INSTRUMENT: LTQ Orbitrap XL Thermo Scientific
AC$INSTRUMENT_TYPE: LC-ESI-ITFT
AC$MASS_SPECTROMETRY: MS_TYPE MS2
AC$MASS_SPECTROMETRY: ION_MODE POSITIVE
AC$MASS_SPECTROMETRY: IONIZATION ESI
AC$MASS_SPECTROMETRY: FRAGMENTATION_MODE CID
AC$MASS_SPECTROMETRY: COLLISION_ENERGY 35 % (nominal)
AC$MASS_SPECTROMETRY: RESOLUTION 30000
AC$CHROMATOGRAPHY: COLUMN_NAME XBridge C18 3.5um, 2.1x50mm, Waters
AC$CHROMATOGRAPHY: FLOW_GRADIENT 90/10 at 0 min, 50/50 at 4 min, 5/95 at 17 min, 5/95 at 25 min, 90/10 at 25.1 min, 90/10 at 30 min
AC$CHROMATOGRAPHY: FLOW_RATE 200 ul/min
AC$CHROMATOGRAPHY: RETENTION_TIME 8.5 min
AC$CHROMATOGRAPHY: SOLVENT A water with 0.1% formic acid
AC$CHROMATOGRAPHY: SOLVENT B methanol with 0.1% formic acid
MS$FOCUSED_ION: BASE_PEAK 278.106
MS$FOCUSED_ION: PRECURSOR_M/Z 278.1055
MS$FOCUSED_ION: PRECURSOR_TYPE [M+H]+
MS$DATA_PROCESSING: DEPROFILE Spline
MS$DATA_PROCESSING: RECALIBRATE loess on assigned fragments and MS1
MS$DATA_PROCESSING: REANALYZE Peaks with additional N2/O included
MS$DATA_PROCESSING: WHOLE RMassBank 1.3.1
PK$SPLASH: splash10-03di-0090000000-4f35477b464b3955325f
PK$ANNOTATION: m/z tentative_formula formula_count mass error(ppm)
  134.0964 C9H12N+ 1 134.0964 -0.19
  210.0681 C11H13ClNO+ 1 210.068 0.25
PK$NUM_PEAK: 2
PK$PEAK: m/z int. rel.int.
  134.0964 119930.6 95
  210.0681 1253606.7 999
//
