ACCESSION: MSBNK-Eawag-EA260301
RECORD_TITLE: Gemcitabine; LC-ESI-ITFT; MS2; CE: 35%; R=7500; [M+H]+
DATE: 2014.01.14
AUTHORS: Stravs M, Schymanski E, Singer H, Department of Environmental Chemistry, Eawag
LICENSE: CC BY
COPYRIGHT: Copyright (C) 2012 Eawag, Duebendorf, Switzerland
COMMENT: CONFIDENCE standard compound
COMMENT: EAWAG_UCHEM_ID 2603
CH$NAME: Gemcitabine
CH$NAME: 2'-deoxy-2',2'-difluorocytidine
CH$NAME: 4-amino-1-[(2R,4R,5R)-3,3-difluoro-4-hydroxy-5-(hydroxymethyl)-2-oxolanyl]-2-pyrimidinone
CH$COMPOUND_CLASS: N/A; Environmental Standard
CH$FORMULA: C9H11F2N3O4
CH$EXACT_MASS: 263.0718
CH$SMILES: NC1=NC(=O)N(C=C1)[C@@H]2O[C@H](CO)[C@@H](O)C2(F)F
CH$IUPAC: InChI=1S/C9H11F2N3O4/c10-9(11)6(16)4(3-15)18-7(9)14-2-1-5(12)13-8(14)17/h1-2,4,6-7,15-16H,3H2,(H2,12,13,17)/t4-,6-,7-/m1/s1
CH$LINK: CAS 95058-81-4
CH$LINK: CHEBI CHEBI:175901
CH$LINK: KEGG C07650
CH$LINK: PUBCHEM CID:60750
CH$LINK: INCHIKEY SDUQYLNIPVEERB-QPPQHZFASA-N
CH$LINK: CHEMSPIDER 54753
CH$LINK: COMPTOX DTXSID3040487
AC$INSTRUMENT: LTQ Orbitrap XL Thermo Scientific
AC$INSTRUMENT_TYPE: LC-ESI-ITFT
AC$MASS_SPECTROMETRY: MS_TYPE MS2
AC$MASS_SPECTROMETRY: ION_MODE POSITIVE
AC$MASS_SPECTROMETRY: IONIZATION ESI
AC$MASS_SPECTROMETRY: FRAGMENTATION_MODE CID
AC$MASS_SPECTROMETRY: COLLISION_ENERGY 35 % (nominal)
AC$MASS_SPECTROMETRY: RESOLUTION 7500
AC$CHROMATOGRAPHY: COLUMN_NAME XBridge C18 3.5um, 2.1x50mm, Waters
AC$CHROMATOGRAPHY: FLOW_GRADIENT 90/10 at 0 min, 50/50 at 4 min, 5/95 at 17 min, 5/95 at 25 min, 90/10 at 25.1 min, 90/10 at 30 min
AC$CHROMATOGRAPHY: FLOW_RATE 200 ul/min
AC$CHROMATOGRAPHY: RETENTION_TIME 1.0 min
AC$CHROMATOGRAPHY: SOLVENT A water with 0.1% formic acid
AC$CHROMATOGRAPHY: SOLVENT B methanol with 0.1% formic acid
MS$FOCUSED_ION: BASE_PEAK 264.0797
MS$FOCUSED_ION: PRECURSOR_M/Z 264.079
MS$FOCUSED_ION: PRECURSOR_TYPE [M+H]+
MS$DATA_PROCESSING: DEPROFILE Spline
MS$DATA_PROCESSING: RECALIBRATE loess on assigned fragments and MS1
MS$DATA_PROCESSING: REANALYZE Peaks with additional N2/O included
MS$DATA_PROCESSING: WHOLE RMassBank 1.3.1
PK$SPLASH: splash10-03di-0900000000-95712722811cd50ab160
PK$ANNOTATION: m/z tentative_formula formula_count mass error(ppm)
  94.0396 C4H4N3+ 1 94.04 -4.4
  95.0239 C4H3N2O+ 1 95.024 -0.41
  112.0506 C4H6N3O+ 1 112.0505 0.55
PK$NUM_PEAK: 3
PK$PEAK: m/z int. rel.int.
  94.0396 5893.4 2
  95.0239 26556.8 13
  112.0506 1969581.7 999
//
