ACCESSION: MSBNK-Eawag-EQ01076603
RECORD_TITLE: Pilocarpine; LC-ESI-QFT; MS2; CE: 25%; R=15000; [M+H]+
DATE: 2024.06.14
AUTHORS: B. Beck [dtc], J. Bosshard [dtc], H. Singer [dtc], A. Dax [com]
LICENSE: CC BY-SA
COPYRIGHT: Copyright (C) Eawag 2024
COMMENT: CONFIDENCE standard compound
COMMENT: UCHEM_ID 10766
CH$NAME: Pilocarpine
CH$NAME: (3S,4R)-3-ethyl-4-[(3-methylimidazol-4-yl)methyl]oxolan-2-one
CH$NAME: 3-ethyl-4-[(3-methylimidazol-4-yl)methyl]oxolan-2-one
CH$COMPOUND_CLASS: N/A
CH$FORMULA: C11H16N2O2
CH$EXACT_MASS: 208.1211778
CH$SMILES: CCC1C(COC1=O)CC2=CN=CN2C
CH$IUPAC: InChI=1S/C11H16N2O2/c1-3-10-8(6-15-11(10)14)4-9-5-12-7-13(9)2/h5,7-8,10H,3-4,6H2,1-2H3
CH$LINK: CAS 54-71-7
CH$LINK: CHEBI CHEBI:39460
CH$LINK: PUBCHEM CID:5910
CH$LINK: INCHIKEY QCHFTSOMWOSFHM-UHFFFAOYSA-N
CH$LINK: CHEMSPIDER 4653
AC$INSTRUMENT: Exploris 240 Thermo Scientific
AC$INSTRUMENT_TYPE: LC-ESI-QFT
AC$MASS_SPECTROMETRY: MS_TYPE MS2
AC$MASS_SPECTROMETRY: ION_MODE POSITIVE
AC$MASS_SPECTROMETRY: IONIZATION ESI
AC$MASS_SPECTROMETRY: FRAGMENTATION_MODE HCD
AC$MASS_SPECTROMETRY: COLLISION_ENERGY 25 % (nominal)
AC$MASS_SPECTROMETRY: RESOLUTION 15000
AC$MASS_SPECTROMETRY: MASS_RANGE_M/Z 46-234
AC$CHROMATOGRAPHY: COLUMN_NAME XBridge C18 3.5um, 2.1x50mm, Waters
AC$CHROMATOGRAPHY: FLOW_GRADIENT 90/10 at 0 min, 50/50 at 4 min, 5/95 at 17 min, 5/95 at 25 min, 90/10 at 25.1 min, 90/10 at 30 min
AC$CHROMATOGRAPHY: FLOW_RATE 200 uL/min
AC$CHROMATOGRAPHY: RETENTION_TIME 1.369 min
MS$FOCUSED_ION: BASE_PEAK 209.128
MS$FOCUSED_ION: PRECURSOR_M/Z 209.1285
MS$FOCUSED_ION: PRECURSOR_TYPE [M+H]+
MS$DATA_PROCESSING: RECALIBRATE loess on assigned fragments and MS1
MS$DATA_PROCESSING: REANALYZE Peaks with additional N2/O included
MS$DATA_PROCESSING: WHOLE RMassBank 3.15.1.1
PK$SPLASH: splash10-0a4i-0090000000-17e4a020aee1390d9f53
PK$ANNOTATION: m/z tentative_formula formula_count mass error(ppm)
  95.0603 C5H7N2+ 1 95.0604 -1.08
  96.0682 C5H8N2+ 1 96.0682 -0.41
  121.0757 C7H9N2+ 1 121.076 -2.76
  163.1229 C10H15N2+ 1 163.123 -0.7
  209.1282 C11H17N2O2+ 1 209.1285 -1.36
PK$NUM_PEAK: 5
PK$PEAK: m/z int. rel.int.
  95.0603 18972744 56
  96.0682 7599987 22
  121.0757 4417952 13
  163.1229 23855112 70
  209.1282 336241056 999
//
