ACCESSION: MSBNK-Eawag-EQ00358506
RECORD_TITLE: Letrozole; LC-ESI-QFT; MS2; CE: 50%; R=15000; [M+H]+
DATE: 2024.06.14
AUTHORS: B. Beck [dtc], J. Bosshard [dtc], H. Singer [dtc], A. Dax [com]
LICENSE: CC BY-SA
COPYRIGHT: Copyright (C) Eawag 2024
COMMENT: CONFIDENCE standard compound
COMMENT: UCHEM_ID 3585
CH$NAME: Letrozole
CH$NAME: 4-[(4-cyanophenyl)-(1,2,4-triazol-1-yl)methyl]benzonitrile
CH$COMPOUND_CLASS: N/A
CH$FORMULA: C17H11N5
CH$EXACT_MASS: 285.1014454
CH$SMILES: C1=CC(=CC=C1C#N)C(C2=CC=C(C=C2)C#N)N3C=NC=N3
CH$IUPAC: InChI=1S/C17H11N5/c18-9-13-1-5-15(6-2-13)17(22-12-20-11-21-22)16-7-3-14(10-19)4-8-16/h1-8,11-12,17H
CH$LINK: CAS 112809-51-5
CH$LINK: CHEBI CHEBI:6413
CH$LINK: KEGG D00964
CH$LINK: PUBCHEM CID:3902
CH$LINK: INCHIKEY HPJKCIUCZWXJDR-UHFFFAOYSA-N
CH$LINK: CHEMSPIDER 3765
AC$INSTRUMENT: Exploris 240 Thermo Scientific
AC$INSTRUMENT_TYPE: LC-ESI-QFT
AC$MASS_SPECTROMETRY: MS_TYPE MS2
AC$MASS_SPECTROMETRY: ION_MODE POSITIVE
AC$MASS_SPECTROMETRY: IONIZATION ESI
AC$MASS_SPECTROMETRY: FRAGMENTATION_MODE HCD
AC$MASS_SPECTROMETRY: COLLISION_ENERGY 50 % (nominal)
AC$MASS_SPECTROMETRY: RESOLUTION 15000
AC$MASS_SPECTROMETRY: MASS_RANGE_M/Z 50-313
AC$CHROMATOGRAPHY: COLUMN_NAME XBridge C18 3.5um, 2.1x50mm, Waters
AC$CHROMATOGRAPHY: FLOW_GRADIENT 90/10 at 0 min, 50/50 at 4 min, 5/95 at 17 min, 5/95 at 25 min, 90/10 at 25.1 min, 90/10 at 30 min
AC$CHROMATOGRAPHY: FLOW_RATE 200 uL/min
AC$CHROMATOGRAPHY: RETENTION_TIME 5.301 min
MS$FOCUSED_ION: BASE_PEAK 286.1083
MS$FOCUSED_ION: PRECURSOR_M/Z 286.1087
MS$FOCUSED_ION: PRECURSOR_TYPE [M+H]+
MS$DATA_PROCESSING: RECALIBRATE loess on assigned fragments and MS1
MS$DATA_PROCESSING: REANALYZE Peaks with additional N2/O included
MS$DATA_PROCESSING: WHOLE RMassBank 3.15.1.1
PK$SPLASH: splash10-0006-0930000000-92932193f85b7b2dfa15
PK$ANNOTATION: m/z tentative_formula formula_count mass error(ppm)
  163.0544 C13H7+ 1 163.0542 0.93
  164.0489 C12H6N+ 1 164.0495 -3.69
  177.0572 C13H7N+ 1 177.0573 -0.38
  188.0497 C14H6N+ 1 188.0495 1.29
  189.0573 C14H7N+ 1 189.0573 -0.08
  190.065 C14H8N+ 1 190.0651 -0.8
  202.0773 C16H10+ 1 202.0777 -1.89
  215.0603 C15H7N2+ 1 215.0604 -0.52
  216.0682 C15H8N2+ 1 216.0682 -0.02
PK$NUM_PEAK: 9
PK$PEAK: m/z int. rel.int.
  163.0544 11344997 53
  164.0489 3332201 15
  177.0572 16887958 79
  188.0497 3028262.5 14
  189.0573 8870153 41
  190.065 212381088 999
  202.0773 21001218 98
  215.0603 57882404 272
  216.0682 11934645 56
//
