ACCESSION: MSBNK-Eawag-EQ362903
RECORD_TITLE: delta9-Tetrahydrocannabinol; LC-ESI-QFT; MS2; CE: 45; R=35000; [M+H]+
DATE: 2015.08.25
AUTHORS: Stravs M, Schymanski E, Singer H, Department of Environmental Chemistry, Eawag and Thomaidis N, University of Athens
LICENSE: CC BY
COPYRIGHT: Copyright (C) 2015 Eawag, Duebendorf, Switzerland
COMMENT: CONFIDENCE standard compound
COMMENT: EAWAG_UCHEM_ID 3629
CH$NAME: delta9-Tetrahydrocannabinol
CH$NAME: delta9-THC
CH$NAME: 6,6,9-trimethyl-3-pentyl-6a,7,8,10a-tetrahydrobenzo[c]chromen-1-ol
CH$COMPOUND_CLASS: N/A; Environmental Standard
CH$FORMULA: C21H30O2
CH$EXACT_MASS: 314.22458
CH$SMILES: CCCCCC1=CC2=C(C3C=C(CCC3C(O2)(C)C)C)C(=C1)O
CH$IUPAC: InChI=1S/C21H30O2/c1-5-6-7-8-15-12-18(22)20-16-11-14(2)9-10-17(16)21(3,4)23-19(20)13-15/h11-13,16-17,22H,5-10H2,1-4H3
CH$LINK: CAS 76-03-9
CH$LINK: PUBCHEM CID:2978
CH$LINK: INCHIKEY CYQFCXCEBYINGO-UHFFFAOYSA-N
CH$LINK: CHEMSPIDER 2872
AC$INSTRUMENT: Q Exactive Plus Orbitrap Thermo Scientific
AC$INSTRUMENT_TYPE: LC-ESI-QFT
AC$MASS_SPECTROMETRY: MS_TYPE MS2
AC$MASS_SPECTROMETRY: ION_MODE POSITIVE
AC$MASS_SPECTROMETRY: IONIZATION ESI
AC$MASS_SPECTROMETRY: FRAGMENTATION_MODE HCD
AC$MASS_SPECTROMETRY: COLLISION_ENERGY 45 (nominal)
AC$MASS_SPECTROMETRY: RESOLUTION 35000
AC$CHROMATOGRAPHY: COLUMN_NAME XBridge C18 3.5um, 2.1x50mm, Waters
AC$CHROMATOGRAPHY: FLOW_GRADIENT 90/10 at 0 min, 50/50 at 4 min, 5/95 at 17 min, 5/95 at 25 min, 90/10 at 25.1 min, 90/10 at 30 min
AC$CHROMATOGRAPHY: FLOW_RATE 200 ul/min
AC$CHROMATOGRAPHY: RETENTION_TIME 17.8 min
AC$CHROMATOGRAPHY: SOLVENT A water with 0.1% formic acid
AC$CHROMATOGRAPHY: SOLVENT B methanol with 0.1% formic acid
MS$FOCUSED_ION: BASE_PEAK 391.2837
MS$FOCUSED_ION: PRECURSOR_M/Z 315.2319
MS$FOCUSED_ION: PRECURSOR_TYPE [M+H]+
MS$DATA_PROCESSING: RECALIBRATE loess on assigned fragments and MS1
MS$DATA_PROCESSING: REANALYZE Peaks with additional N2/O included
MS$DATA_PROCESSING: WHOLE RMassBank 1.9.6
PK$SPLASH: splash10-0006-3930000000-b10f6363972e3e2211b0
PK$ANNOTATION: m/z tentative_formula formula_count mass error(ppm)
  53.0022 C3HO+ 1 53.0022 0.73
  53.0385 C4H5+ 1 53.0386 -0.69
  55.0179 C3H3O+ 1 55.0178 1.07
  55.0543 C4H7+ 1 55.0542 0.42
  57.0335 C3H5O+ 1 57.0335 0.86
  57.0699 C4H9+ 1 57.0699 0.58
  59.0492 C3H7O+ 1 59.0491 0.99
  65.0385 C5H5+ 1 65.0386 -1.18
  67.0543 C5H7+ 1 67.0542 0.5
  69.0699 C5H9+ 1 69.0699 0.48
  71.0855 C5H11+ 1 71.0855 0.33
  77.0383 C6H5+ 1 77.0386 -2.94
  79.0543 C6H7+ 1 79.0542 0.42
  81.0699 C6H9+ 1 81.0699 0.66
  83.0492 C5H7O+ 1 83.0491 0.23
  83.0855 C6H11+ 1 83.0855 0.04
  85.0648 C5H9O+ 1 85.0648 0.34
  91.0543 C7H7+ 1 91.0542 0.92
  93.07 C7H9+ 1 93.0699 1.11
  95.0493 C6H7O+ 1 95.0491 1.35
  95.0856 C7H11+ 1 95.0855 0.45
  97.0285 C5H5O2+ 1 97.0284 0.46
  97.0649 C6H9O+ 1 97.0648 1.22
  97.1013 C7H13+ 1 97.1012 0.96
  99.0805 C6H11O+ 1 99.0804 0.69
  101.0599 C5H9O2+ 1 101.0597 1.52
  105.0447 C6H5N2+ 1 105.0447 -0.04
  105.07 C8H9+ 1 105.0699 0.7
  107.0492 C7H7O+ 1 107.0491 0.55
  107.0856 C8H11+ 1 107.0855 0.68
  109.0649 C7H9O+ 1 109.0648 0.72
  109.1013 C8H13+ 1 109.1012 1.04
  111.0441 C6H7O2+ 1 111.0441 0.49
  111.1169 C8H15+ 1 111.1168 0.84
  117.07 C9H9+ 1 117.0699 0.63
  119.0492 C8H7O+ 1 119.0491 0.83
  119.0606 C7H7N2+ 1 119.0604 2.14
  119.0857 C9H11+ 1 119.0855 1.03
  120.0935 C9H12+ 1 120.0934 1.32
  121.0649 C8H9O+ 1 121.0648 0.9
  121.1013 C9H13+ 1 121.1012 0.85
  123.0441 C7H7O2+ 1 123.0441 0.6
  123.1169 C9H15+ 1 123.1168 0.51
  124.0521 C7H8O2+ 1 124.0519 1.44
  125.0599 C7H9O2+ 1 125.0597 1.87
  125.0962 C8H13O+ 1 125.0961 1.03
  129.0547 C6H9O3+ 1 129.0546 0.93
  129.0701 C10H9+ 1 129.0699 1.58
  131.0856 C10H11+ 1 131.0855 0.79
  133.065 C9H9O+ 1 133.0648 1.27
  133.1012 C10H13+ 1 133.1012 0.55
  135.1169 C10H15+ 1 135.1168 0.62
  136.1249 C10H16+ 1 136.1247 1.53
  137.0598 C8H9O2+ 1 137.0597 0.91
  139.1118 C9H15O+ 1 139.1117 0.71
  143.0856 C11H11+ 1 143.0855 0.86
  145.0651 C10H9O+ 1 145.0648 1.92
  145.1012 C11H13+ 1 145.1012 0.16
  147.0442 C9H7O2+ 1 147.0441 0.78
  147.0806 C10H11O+ 1 147.0804 0.81
  147.0916 C9H11N2+ 1 147.0917 -0.24
  147.117 C11H15+ 1 147.1168 0.97
  149.0599 C9H9O2+ 1 149.0597 1.17
  149.0963 C10H13O+ 1 149.0961 1.26
  149.1325 C11H17+ 1 149.1325 -0.18
  151.0755 C9H11O2+ 1 151.0754 0.89
  157.1014 C12H13+ 1 157.1012 1.36
  157.1225 C9H17O2+ 1 157.1223 1.49
  159.0806 C11H11O+ 1 159.0804 1.06
  159.1173 C12H15+ 1 159.1168 2.97
  161.0599 C10H9O2+ 1 161.0597 1.08
  161.0963 C11H13O+ 1 161.0961 1.42
  161.1327 C12H17+ 1 161.1325 1.38
  163.0754 C10H11O2+ 1 163.0754 0.52
  163.1121 C11H15O+ 1 163.1117 1.95
  165.0912 C10H13O2+ 1 165.091 1.05
  167.1068 C10H15O2+ 1 167.1067 0.86
  171.0807 C12H11O+ 1 171.0804 1.45
  171.1167 C13H15+ 1 171.1168 -0.62
  173.0964 C12H13O+ 1 173.0961 1.67
  173.1326 C13H17+ 1 173.1325 0.6
  175.0755 C11H11O2+ 1 175.0754 0.65
  175.112 C12H15O+ 1 175.1117 1.65
  177.0912 C11H13O2+ 1 177.091 1.21
  177.1276 C12H17O+ 1 177.1274 1.01
  179.1069 C11H15O2+ 1 179.1067 1.19
  181.1224 C11H17O2+ 1 181.1223 0.68
  185.0965 C13H13O+ 1 185.0961 2.1
  185.1174 C10H17O3+ 1 185.1172 0.75
  187.1118 C13H15O+ 1 187.1117 0.26
  188.0834 C12H12O2+ 1 188.0832 1.32
  189.0912 C12H13O2+ 1 189.091 0.87
  189.1278 C13H17O+ 1 189.1274 2.11
  191.1066 C12H15O2+ 1 191.1067 -0.5
  191.1433 C13H19O+ 1 191.143 1.3
  193.1225 C12H17O2+ 1 193.1223 1.16
  199.1121 C14H15O+ 1 199.1117 1.55
  199.1481 C15H19+ 1 199.1481 -0.14
  201.0905 C13H13O2+ 1 201.091 -2.32
  203.1069 C13H15O2+ 1 203.1067 1
  203.1434 C14H19O+ 1 203.143 1.62
  205.1225 C13H17O2+ 1 205.1223 0.8
  205.159 C14H21O+ 1 205.1587 1.36
  207.1382 C13H19O2+ 1 207.138 1.13
  213.1638 C16H21+ 1 213.1638 0.06
  215.1433 C15H19O+ 1 215.143 1.06
  217.1226 C14H17O2+ 1 217.1223 1.17
  217.159 C15H21O+ 1 217.1587 1.19
  218.1301 C14H18O2+ 1 218.1301 0.09
  219.1381 C14H19O2+ 1 219.138 0.79
  219.1742 C15H23O+ 1 219.1743 -0.69
  221.1539 C14H21O2+ 1 221.1536 1.15
  225.127 C16H17O+ 1 225.1274 -1.83
  226.1357 C16H18O+ 1 226.1352 2
  227.1432 C16H19O+ 1 227.143 0.83
  229.1226 C15H17O2+ 1 229.1223 1.41
  229.159 C16H21O+ 1 229.1587 1.26
  231.1382 C15H19O2+ 1 231.138 1.1
  231.1746 C16H23O+ 1 231.1743 1.16
  233.1539 C15H21O2+ 1 233.1536 1.13
  235.1695 C15H23O2+ 1 235.1693 1.04
  241.1587 C17H21O+ 1 241.1587 0.16
  244.1455 C16H20O2+ 1 244.1458 -1.36
  245.1538 C16H21O2+ 1 245.1536 0.87
  245.1898 C17H25O+ 1 245.19 -0.66
  247.1695 C16H23O2+ 1 247.1693 0.86
  255.1748 C18H23O+ 1 255.1743 1.8
  259.1695 C17H23O2+ 1 259.1693 1.06
  269.2268 C20H29+ 1 269.2264 1.5
  272.1773 C18H24O2+ 1 272.1771 0.66
  273.1851 C18H25O2+ 1 273.1849 0.6
  287.237 C20H31O+ 1 287.2369 0.17
  297.2214 C21H29O+ 1 297.2213 0.4
  315.2321 C21H31O2+ 1 315.2319 0.68
PK$NUM_PEAK: 134
PK$PEAK: m/z int. rel.int.
  53.0022 33874.4 3
  53.0385 39818.2 4
  55.0179 32332.3 3
  55.0543 322577.3 35
  57.0335 12280.7 1
  57.0699 142626.6 15
  59.0492 9383.7 1
  65.0385 18511.2 2
  67.0543 430147.3 47
  69.0699 1581876.5 176
  71.0855 426990.2 47
  77.0383 37373.5 4
  79.0543 583614.2 64
  81.0699 2102687.5 234
  83.0492 215423.6 23
  83.0855 88647.4 9
  85.0648 20196.1 2
  91.0543 274693.2 30
  93.07 3629783.5 403
  95.0493 120791.8 13
  95.0856 369760 41
  97.0285 25529.6 2
  97.0649 166905.8 18
  97.1013 286205.4 31
  99.0805 11651.2 1
  101.0599 37944.5 4
  105.0447 37460.7 4
  105.07 123471.6 13
  107.0492 109936.4 12
  107.0856 1933001.1 215
  109.0649 184263.2 20
  109.1013 1203277.4 133
  111.0441 398446.2 44
  111.1169 123243.4 13
  117.07 11816.1 1
  119.0492 11928.9 1
  119.0606 12072.5 1
  119.0857 220091.4 24
  120.0935 27400.1 3
  121.0649 305883.8 34
  121.1013 674227 75
  123.0441 2625666.2 292
  123.1169 661549.7 73
  124.0521 10252.5 1
  125.0599 45606.8 5
  125.0962 27047.9 3
  129.0547 10163.9 1
  129.0701 18108 2
  131.0856 115328 12
  133.065 39825.6 4
  133.1012 78722.8 8
  135.1169 2720000 302
  136.1249 79499 8
  137.0598 546628.3 60
  139.1118 556751.5 61
  143.0856 46316.5 5
  145.0651 50582 5
  145.1012 51044.6 5
  147.0442 59871.5 6
  147.0806 85406.9 9
  147.0916 9704.6 1
  147.117 52813.1 5
  149.0599 166836 18
  149.0963 124577.3 13
  149.1325 37782.6 4
  151.0755 376725.5 41
  157.1014 45485.3 5
  157.1225 11705 1
  159.0806 149729.8 16
  159.1173 35669 3
  161.0599 97669.2 10
  161.0963 118384.1 13
  161.1327 23908.7 2
  163.0754 306157.6 34
  163.1121 24237.7 2
  165.0912 659265.1 73
  167.1068 28650.1 3
  171.0807 134902.6 15
  171.1167 31133.4 3
  173.0964 19840.2 2
  173.1326 23534.5 2
  175.0755 72021.5 8
  175.112 82013.8 9
  177.0912 297060.5 33
  177.1276 408552.4 45
  179.1069 83973.2 9
  181.1224 571152.7 63
  185.0965 57260.6 6
  185.1174 12202.7 1
  187.1118 25018 2
  188.0834 40685.7 4
  189.0912 254904.3 28
  189.1278 50535.7 5
  191.1066 25269.1 2
  191.1433 68872.6 7
  193.1225 8976725 999
  199.1121 19799.2 2
  199.1481 41745.7 4
  201.0905 11658.2 1
  203.1069 81812.7 9
  203.1434 37708.8 4
  205.1225 125420.9 13
  205.159 76756.4 8
  207.1382 843803.1 93
  213.1638 32998.8 3
  215.1433 41389.9 4
  217.1226 657786.8 73
  217.159 53386.2 5
  218.1301 30607.6 3
  219.1381 190806.2 21
  219.1742 38185.2 4
  221.1539 704221.7 78
  225.127 11193 1
  226.1357 50005.5 5
  227.1432 127671.5 14
  229.1226 27919.2 3
  229.159 75177 8
  231.1382 1071427.5 119
  231.1746 125616.5 13
  233.1539 1078754.2 120
  235.1695 1018001.8 113
  241.1587 164439.2 18
  244.1455 34944.5 3
  245.1538 288421.8 32
  245.1898 41079 4
  247.1695 782147.3 87
  255.1748 68249.7 7
  259.1695 2609539 290
  269.2268 20114.8 2
  272.1773 37205.6 4
  273.1851 210099.7 23
  287.237 24493.4 2
  297.2214 113671.8 12
  315.2321 700735.2 77
//
