ACCESSION: MSBNK-Eawag-EA294008
RECORD_TITLE: Fenoxycarb; LC-ESI-ITFT; MS2; CE: 15%; R=15000; [M+H]+
DATE: 2014.01.14
AUTHORS: Stravs M, Schymanski E, Singer H, Department of Environmental Chemistry, Eawag
LICENSE: CC BY
COPYRIGHT: Copyright (C) 2012 Eawag, Duebendorf, Switzerland
COMMENT: CONFIDENCE standard compound
COMMENT: EAWAG_UCHEM_ID 2940
CH$NAME: Fenoxycarb
CH$NAME: N-[2-(4-phenoxyphenoxy)ethyl]carbamic acid ethyl ester
CH$COMPOUND_CLASS: N/A; Environmental Standard
CH$FORMULA: C17H19NO4
CH$EXACT_MASS: 301.1314
CH$SMILES: O=C(OCC)NCCOc2ccc(Oc1ccccc1)cc2
CH$IUPAC: InChI=1S/C17H19NO4/c1-2-20-17(19)18-12-13-21-14-8-10-16(11-9-14)22-15-6-4-3-5-7-15/h3-11H,2,12-13H2,1H3,(H,18,19)
CH$LINK: CAS 72490-01-8
CH$LINK: CHEBI CHEBI:5009
CH$LINK: KEGG C11078
CH$LINK: PUBCHEM CID:51605
CH$LINK: INCHIKEY HJUFTIJOISQSKQ-UHFFFAOYSA-N
CH$LINK: CHEMSPIDER 46739
CH$LINK: COMPTOX DTXSID7032393
AC$INSTRUMENT: LTQ Orbitrap XL Thermo Scientific
AC$INSTRUMENT_TYPE: LC-ESI-ITFT
AC$MASS_SPECTROMETRY: MS_TYPE MS2
AC$MASS_SPECTROMETRY: ION_MODE POSITIVE
AC$MASS_SPECTROMETRY: IONIZATION ESI
AC$MASS_SPECTROMETRY: FRAGMENTATION_MODE HCD
AC$MASS_SPECTROMETRY: COLLISION_ENERGY 15 % (nominal)
AC$MASS_SPECTROMETRY: RESOLUTION 15000
AC$CHROMATOGRAPHY: COLUMN_NAME XBridge C18 3.5um, 2.1x50mm, Waters
AC$CHROMATOGRAPHY: FLOW_GRADIENT 90/10 at 0 min, 50/50 at 4 min, 5/95 at 17 min, 5/95 at 25 min, 90/10 at 25.1 min, 90/10 at 30 min
AC$CHROMATOGRAPHY: FLOW_RATE 200 ul/min
AC$CHROMATOGRAPHY: RETENTION_TIME 12.6 min
AC$CHROMATOGRAPHY: SOLVENT A water with 0.1% formic acid
AC$CHROMATOGRAPHY: SOLVENT B methanol with 0.1% formic acid
MS$FOCUSED_ION: BASE_PEAK 302.1394
MS$FOCUSED_ION: PRECURSOR_M/Z 302.1387
MS$FOCUSED_ION: PRECURSOR_TYPE [M+H]+
MS$DATA_PROCESSING: DEPROFILE Spline
MS$DATA_PROCESSING: RECALIBRATE loess on assigned fragments and MS1
MS$DATA_PROCESSING: REANALYZE Peaks with additional N2/O included
MS$DATA_PROCESSING: WHOLE RMassBank 1.3.1
PK$SPLASH: splash10-0gbi-5938000000-78e6afbd953aa215b85f
PK$ANNOTATION: m/z tentative_formula formula_count mass error(ppm)
  88.0394 C3H6NO2+ 1 88.0393 0.63
  116.0706 C5H10NO2+ 1 116.0706 0.04
  230.1176 C14H16NO2+ 1 230.1176 0.15
  256.097 C15H14NO3+ 1 256.0968 0.55
  258.149 C16H20NO2+ 1 258.1489 0.6
  302.1388 C17H20NO4+ 1 302.1387 0.22
PK$NUM_PEAK: 6
PK$PEAK: m/z int. rel.int.
  88.0394 6790763.4 579
  116.0706 11704397.9 999
  230.1176 72092.5 6
  256.097 3814234.9 325
  258.149 37227.1 3
  302.1388 10995844.6 938
//
