ACCESSION: MSBNK-Eawag-EA027402
RECORD_TITLE: Alachlor; LC-ESI-ITFT; MS2; CE: 15%; R=7500; [M+H]+
DATE: 2014.01.14
AUTHORS: Stravs M, Schymanski E, Singer H, Department of Environmental Chemistry, Eawag
LICENSE: CC BY
COPYRIGHT: Copyright (C) 2012 Eawag, Duebendorf, Switzerland
COMMENT: CONFIDENCE standard compound
COMMENT: EAWAG_UCHEM_ID 274
CH$NAME: Alachlor
CH$NAME: 2-chloranyl-N-(2,6-diethylphenyl)-N-(methoxymethyl)ethanamide
CH$COMPOUND_CLASS: N/A; Environmental Standard
CH$FORMULA: C14H20ClNO2
CH$EXACT_MASS: 269.1177
CH$SMILES: CCC1=CC=CC(CC)=C1N(COC)C(=O)CCl
CH$IUPAC: InChI=1S/C14H20ClNO2/c1-4-11-7-6-8-12(5-2)14(11)16(10-18-3)13(17)9-15/h6-8H,4-5,9-10H2,1-3H3
CH$LINK: CAS 15972-60-8
CH$LINK: CHEBI CHEBI:2533
CH$LINK: KEGG C10928
CH$LINK: PUBCHEM CID:2078
CH$LINK: INCHIKEY XCSGPAVHZFQHGE-UHFFFAOYSA-N
CH$LINK: CHEMSPIDER 1994
CH$LINK: COMPTOX DTXSID1022265
AC$INSTRUMENT: LTQ Orbitrap XL Thermo Scientific
AC$INSTRUMENT_TYPE: LC-ESI-ITFT
AC$MASS_SPECTROMETRY: MS_TYPE MS2
AC$MASS_SPECTROMETRY: ION_MODE POSITIVE
AC$MASS_SPECTROMETRY: IONIZATION ESI
AC$MASS_SPECTROMETRY: FRAGMENTATION_MODE HCD
AC$MASS_SPECTROMETRY: COLLISION_ENERGY 15 % (nominal)
AC$MASS_SPECTROMETRY: RESOLUTION 7500
AC$CHROMATOGRAPHY: COLUMN_NAME XBridge C18 3.5um, 2.1x50mm, Waters
AC$CHROMATOGRAPHY: FLOW_GRADIENT 90/10 at 0 min, 50/50 at 4 min, 5/95 at 17 min, 5/95 at 25 min, 90/10 at 25.1 min, 90/10 at 30 min
AC$CHROMATOGRAPHY: FLOW_RATE 200 ul/min
AC$CHROMATOGRAPHY: RETENTION_TIME 11.7 min
AC$CHROMATOGRAPHY: SOLVENT A water with 0.1% formic acid
AC$CHROMATOGRAPHY: SOLVENT B methanol with 0.1% formic acid
MS$FOCUSED_ION: BASE_PEAK 292.1079
MS$FOCUSED_ION: PRECURSOR_M/Z 270.1255
MS$FOCUSED_ION: PRECURSOR_TYPE [M+H]+
MS$DATA_PROCESSING: DEPROFILE Spline
MS$DATA_PROCESSING: RECALIBRATE loess on assigned fragments and MS1
MS$DATA_PROCESSING: REANALYZE Peaks with additional N2/O included
MS$DATA_PROCESSING: WHOLE RMassBank 1.3.1
PK$SPLASH: splash10-0079-0090000000-be0d02d4b380f4f063df
PK$ANNOTATION: m/z tentative_formula formula_count mass error(ppm)
  90.0107 C3H5ClN+ 1 90.0105 2.63
  162.1275 C11H16N+ 1 162.1277 -1.46
  208.0888 C12H15ClN+ 1 208.0888 0.08
  220.0883 C13H15ClN+ 1 220.0888 -2.06
  224.0835 C12H15ClNO+ 1 224.0837 -0.57
  238.0992 C13H17ClNO+ 1 238.0993 -0.54
  270.1254 C14H21ClNO2+ 1 270.1255 -0.46
PK$NUM_PEAK: 7
PK$PEAK: m/z int. rel.int.
  90.0107 2761.8 4
  162.1275 37038.4 64
  208.0888 13479.6 23
  220.0883 8722.8 15
  224.0835 17161.7 29
  238.0992 573509.3 999
  270.1254 545935.8 950
//
