ACCESSION: MSBNK-Eawag-EQ01167253
RECORD_TITLE: HFPO-TA; LC-ESI-QFT; MS2; CE: 45%; R=17500; [M-H]-
DATE: 2024.05.15
AUTHORS: B. Beck [dtc,com], J. Hollender [dtc]
LICENSE: CC BY-SA
COPYRIGHT: Copyright (C) Eawag 2023
COMMENT: CONFIDENCE standard compound
COMMENT: UCHEM_ID 11672
CH$NAME: HFPO-TA
CH$NAME: 2,3,3,3-Tetrafluoro-2-(1,1,2,3,3,3-hexafluoro-2-(perfluoropropoxy)propoxy)propanoic acid
CH$NAME: 2,3,3,3-tetrafluoro-2-[1,1,2,3,3,3-hexafluoro-2-(1,1,2,2,3,3,3-heptafluoropropoxy)propoxy]propanoic acid
CH$COMPOUND_CLASS: N/A; Environmental Standard
CH$FORMULA: C9HF17O4
CH$EXACT_MASS: 495.960338252
CH$SMILES: C(=O)(C(C(F)(F)F)(OC(C(C(F)(F)F)(OC(C(C(F)(F)F)(F)F)(F)F)F)(F)F)F)O
CH$IUPAC: InChI=1S/C9HF17O4/c10-2(1(27)28,5(14,15)16)29-9(25,26)4(13,7(20,21)22)30-8(23,24)3(11,12)6(17,18)19/h(H,27,28)
CH$LINK: PUBCHEM CID:93076
CH$LINK: INCHIKEY OIVQVBDAMYDDEM-UHFFFAOYSA-N
CH$LINK: CHEMSPIDER 84026
AC$INSTRUMENT: Exploris 240 Orbitrap Thermo Scientific
AC$INSTRUMENT_TYPE: LC-ESI-QFT
AC$MASS_SPECTROMETRY: MS_TYPE MS2
AC$MASS_SPECTROMETRY: ION_MODE NEGATIVE
AC$MASS_SPECTROMETRY: IONIZATION ESI
AC$MASS_SPECTROMETRY: FRAGMENTATION_MODE HCD
AC$MASS_SPECTROMETRY: COLLISION_ENERGY 45 % (nominal)
AC$MASS_SPECTROMETRY: RESOLUTION 17500
AC$MASS_SPECTROMETRY: MASS_RANGE_M/Z 52-526
AC$CHROMATOGRAPHY: COLUMN_NAME XBridge C18 3.5um, 2.1x50mm, Waters
AC$CHROMATOGRAPHY: FLOW_GRADIENT 90/10 at 0 min, 50/50 at 4 min, 5/95 at 17 min, 5/95 at 25 min, 90/10 at 25.1 min, 90/10 at 30 min
AC$CHROMATOGRAPHY: FLOW_RATE 200 uL/min
AC$CHROMATOGRAPHY: RETENTION_TIME 10.868 min
MS$FOCUSED_ION: BASE_PEAK 184.9842
MS$FOCUSED_ION: PRECURSOR_M/Z 494.9531
MS$FOCUSED_ION: PRECURSOR_TYPE [M-H]-
MS$DATA_PROCESSING: RECALIBRATE loess on assigned fragments and MS1
MS$DATA_PROCESSING: REANALYZE Peaks with additional N2/O included
MS$DATA_PROCESSING: WHOLE RMassBank 3.15.1.1
PK$SPLASH: splash10-0159-0900000000-8e1646584f4597b1674b
PK$ANNOTATION: m/z tentative_formula formula_count mass error(ppm)
  118.9928 C2F5- 1 118.9926 2.28
  184.9844 C3F7O- 1 184.9843 0.6
PK$NUM_PEAK: 2
PK$PEAK: m/z int. rel.int.
  118.9928 122831.5 999
  184.9844 110901.5 901
//
