ACCESSION: MSBNK-Eawag-EQ01130002
RECORD_TITLE: Pydiflumetofen; LC-ESI-QFT; MS2; CE: 30%; R=17500; [M+H]+
DATE: 2023.04.27
AUTHORS: B. Beck [dtc,com], J. Hollender [dtc]
LICENSE: CC BY-SA
COPYRIGHT: Copyright (C) Eawag 2023
COMMENT: CONFIDENCE standard compound
COMMENT: UCHEM_ID 11300
CH$NAME: Pydiflumetofen
CH$NAME: 3-(Difluoromethyl)-N-methoxy-1-methyl-N-(1-methyl-2-(2,4,6-trichlorophenyl)ethyl)-1H-pyrazole-4-carboxamide
CH$NAME: 3-(difluoromethyl)-N-methoxy-1-methyl-N-[1-(2,4,6-trichlorophenyl)propan-2-yl]pyrazole-4-carboxamide
CH$COMPOUND_CLASS: N/A; Environmental Standard
CH$FORMULA: C16H16Cl3F2N3O2
CH$EXACT_MASS: 425.0276
CH$SMILES: CC(CC1=C(C=C(C=C1Cl)Cl)Cl)N(C(=O)C2=CN(N=C2C(F)F)C)OC
CH$IUPAC: InChI=1S/C16H16Cl3F2N3O2/c1-8(4-10-12(18)5-9(17)6-13(10)19)24(26-3)16(25)11-7-23(2)22-14(11)15(20)21/h5-8,15H,4H2,1-3H3
CH$LINK: CAS 1228284-64-7
CH$LINK: CHEBI CHEBI:87576
CH$LINK: PUBCHEM CID:56933411
CH$LINK: INCHIKEY DGOAXBPOVUPPEB-UHFFFAOYSA-N
CH$LINK: CHEMSPIDER 34501423
AC$INSTRUMENT: Exploris 240 Orbitrap Thermo Scientific
AC$INSTRUMENT_TYPE: LC-ESI-QFT
AC$MASS_SPECTROMETRY: MS_TYPE MS2
AC$MASS_SPECTROMETRY: ION_MODE POSITIVE
AC$MASS_SPECTROMETRY: IONIZATION ESI
AC$MASS_SPECTROMETRY: FRAGMENTATION_MODE HCD
AC$MASS_SPECTROMETRY: COLLISION_ENERGY 30 % (nominal)
AC$MASS_SPECTROMETRY: RESOLUTION 17500
AC$MASS_SPECTROMETRY: MASS_RANGE_M/Z 50-456
AC$CHROMATOGRAPHY: COLUMN_NAME XBridge C18 3.5um, 2.1x50mm, Waters
AC$CHROMATOGRAPHY: FLOW_GRADIENT 90/10 at 0 min, 50/50 at 4 min, 5/95 at 17 min, 5/95 at 25 min, 90/10 at 25.1 min, 90/10 at 30 min
AC$CHROMATOGRAPHY: FLOW_RATE 200 uL/min
AC$CHROMATOGRAPHY: RETENTION_TIME 11.996 min
MS$FOCUSED_ION: BASE_PEAK 426.0351
MS$FOCUSED_ION: PRECURSOR_M/Z 426.0349
MS$FOCUSED_ION: PRECURSOR_TYPE [M+H]+
MS$DATA_PROCESSING: RECALIBRATE loess on assigned fragments and MS1
MS$DATA_PROCESSING: REANALYZE Peaks with additional N2/O included
MS$DATA_PROCESSING: WHOLE RMassBank 3.11.0.1
PK$SPLASH: splash10-0076-0910000000-fb7b3879e93fa773fed2
PK$ANNOTATION: m/z tentative_formula formula_count mass error(ppm)
  82.0286 C4H4NO+ 1 82.0287 -1.64
  123.0555 C6H7N2O+ 2 123.0553 1.5
  134.0346 C6H4N3O+ 1 134.0349 -1.78
  135.0552 C7H7N2O+ 2 135.0553 -0.65
  141.0454 C6H6FN2O+ 1 141.0459 -2.98
  159.0365 C6H5F2N2O+ 3 159.0364 0.12
  166.0612 C7H8N3O2+ 1 166.0611 0.79
  171.0565 C7H8FN2O2+ 4 171.0564 0.46
  186.0674 C12H10O2+ 3 186.0675 -0.45
  192.9374 C7H4Cl3+ 4 192.9373 0.7
  206.0737 C12H11FO2+ 4 206.0738 -0.38
  220.969 C4H5Cl2F2N2O2+ 5 220.9691 -0.1
  318.0205 C15H10Cl2N3O+ 3 318.0195 3.04
  406.0298 C16H16Cl3FN3O2+ 1 406.0287 2.85
PK$NUM_PEAK: 14
PK$PEAK: m/z int. rel.int.
  82.0286 389107.4 16
  123.0555 428456.8 18
  134.0346 182803.2 7
  135.0552 376978.3 16
  141.0454 320326.9 13
  159.0365 204658.1 8
  166.0612 8688272 375
  171.0565 11329451 489
  186.0674 13108164 565
  192.9374 23138912 999
  206.0737 4652997 200
  220.969 2910063 125
  318.0205 1316620.5 56
  406.0298 2226248.8 96
//
