ACCESSION: MSBNK-Eawag-EA032712
RECORD_TITLE: Tebuconazole; LC-ESI-ITFT; MS2; CE: 75%; R=15000; [M+H]+
DATE: 2014.01.14
AUTHORS: Stravs M, Schymanski E, Singer H, Department of Environmental Chemistry, Eawag
LICENSE: CC BY
COPYRIGHT: Copyright (C) 2012 Eawag, Duebendorf, Switzerland
COMMENT: CONFIDENCE standard compound
COMMENT: EAWAG_UCHEM_ID 327
CH$NAME: Tebuconazole
CH$NAME: 1-(4-chlorophenyl)-4,4-dimethyl-3-(1,2,4-triazol-1-ylmethyl)-3-pentanol
CH$COMPOUND_CLASS: N/A; Environmental Standard
CH$FORMULA: C16H22ClN3O
CH$EXACT_MASS: 307.1446
CH$SMILES: CC(C)(C)C(CCC1=CC=C(C=C1)Cl)(CN2C=NC=N2)O
CH$IUPAC: InChI=1S/C16H22ClN3O/c1-15(2,3)16(21,10-20-12-18-11-19-20)9-8-13-4-6-14(17)7-5-13/h4-7,11-12,21H,8-10H2,1-3H3
CH$LINK: CAS 107534-96-3
CH$LINK: PUBCHEM CID:86102
CH$LINK: INCHIKEY PXMNMQRDXWABCY-UHFFFAOYSA-N
CH$LINK: CHEMSPIDER 77680
CH$LINK: COMPTOX DTXSID9032113
AC$INSTRUMENT: LTQ Orbitrap XL Thermo Scientific
AC$INSTRUMENT_TYPE: LC-ESI-ITFT
AC$MASS_SPECTROMETRY: MS_TYPE MS2
AC$MASS_SPECTROMETRY: ION_MODE POSITIVE
AC$MASS_SPECTROMETRY: IONIZATION ESI
AC$MASS_SPECTROMETRY: FRAGMENTATION_MODE HCD
AC$MASS_SPECTROMETRY: COLLISION_ENERGY 75 % (nominal)
AC$MASS_SPECTROMETRY: RESOLUTION 15000
AC$CHROMATOGRAPHY: COLUMN_NAME XBridge C18 3.5um, 2.1x50mm, Waters
AC$CHROMATOGRAPHY: FLOW_GRADIENT 90/10 at 0 min, 50/50 at 4 min, 5/95 at 17 min, 5/95 at 25 min, 90/10 at 25.1 min, 90/10 at 30 min
AC$CHROMATOGRAPHY: FLOW_RATE 200 ul/min
AC$CHROMATOGRAPHY: RETENTION_TIME 12.8 min
AC$CHROMATOGRAPHY: SOLVENT A water with 0.1% formic acid
AC$CHROMATOGRAPHY: SOLVENT B methanol with 0.1% formic acid
MS$FOCUSED_ION: BASE_PEAK 308.1531
MS$FOCUSED_ION: PRECURSOR_M/Z 308.1524
MS$FOCUSED_ION: PRECURSOR_TYPE [M+H]+
MS$DATA_PROCESSING: DEPROFILE Spline
MS$DATA_PROCESSING: RECALIBRATE loess on assigned fragments and MS1
MS$DATA_PROCESSING: REANALYZE Peaks with additional N2/O included
MS$DATA_PROCESSING: WHOLE RMassBank 1.3.1
PK$SPLASH: splash10-00di-9300000000-d72b69f05ecd8e20f07f
PK$ANNOTATION: m/z tentative_formula formula_count mass error(ppm)
  55.0541 C4H7+ 1 55.0542 -2.12
  57.0699 C4H9+ 1 57.0699 -0.47
  59.0491 C3H7O+ 1 59.0491 -0.53
  70.04 C2H4N3+ 1 70.04 0.95
  83.0856 C6H11+ 1 83.0855 0.76
  103.0543 C8H7+ 1 103.0542 0.81
  115.0542 C9H7+ 1 115.0542 0.12
  116.0621 C9H8+ 1 116.0621 0.33
  125.0153 C7H6Cl+ 1 125.0153 0.53
  129.0699 C10H9+ 1 129.0699 -0.05
  130.0778 C10H10+ 1 130.0777 0.37
  139.0309 C8H8Cl+ 1 139.0309 0.11
  143.0602 C9H7N2+ 1 143.0604 -1.29
  151.031 C9H8Cl+ 1 151.0309 0.5
  165.0466 C10H10Cl+ 1 165.0466 0.09
PK$NUM_PEAK: 15
PK$PEAK: m/z int. rel.int.
  55.0541 3769.6 2
  57.0699 15090.8 11
  59.0491 37295.3 28
  70.04 1294032.5 999
  83.0856 11221 8
  103.0543 10884.8 8
  115.0542 34947.9 26
  116.0621 62356.4 48
  125.0153 332148.9 256
  129.0699 8921 6
  130.0778 17952.5 13
  139.0309 19606.5 15
  143.0602 8916.7 6
  151.031 61590.5 47
  165.0466 5908.5 4
//
