ACCESSION: MSBNK-Eawag-EA029612
RECORD_TITLE: N,N-Dimethyl-N'-phenylsulfamide; LC-ESI-ITFT; MS2; CE: 75%; R=15000; [M+H]+
DATE: 2014.01.14
AUTHORS: Stravs M, Schymanski E, Singer H, Department of Environmental Chemistry, Eawag
LICENSE: CC BY
COPYRIGHT: Copyright (C) 2012 Eawag, Duebendorf, Switzerland
COMMENT: CONFIDENCE standard compound
COMMENT: EAWAG_UCHEM_ID 296
CH$NAME: N,N-Dimethyl-N'-phenylsulfamide
CH$NAME: DMSA
CH$COMPOUND_CLASS: N/A; Environmental Standard
CH$FORMULA: C8H12N2O2S
CH$EXACT_MASS: 200.0619
CH$SMILES: S(Nc1ccccc1)(N(C)C)(=O)=O
CH$IUPAC: InChI=1S/C8H12N2O2S/c1-10(2)13(11,12)9-8-6-4-3-5-7-8/h3-7,9H,1-2H3
CH$LINK: CAS 4710-17-2
CH$LINK: PUBCHEM CID:78441
CH$LINK: INCHIKEY QCDQDISRALTLNQ-UHFFFAOYSA-N
CH$LINK: CHEMSPIDER 70809
CH$LINK: COMPTOX DTXSID60197041
AC$INSTRUMENT: LTQ Orbitrap XL Thermo Scientific
AC$INSTRUMENT_TYPE: LC-ESI-ITFT
AC$MASS_SPECTROMETRY: MS_TYPE MS2
AC$MASS_SPECTROMETRY: ION_MODE POSITIVE
AC$MASS_SPECTROMETRY: IONIZATION ESI
AC$MASS_SPECTROMETRY: FRAGMENTATION_MODE HCD
AC$MASS_SPECTROMETRY: COLLISION_ENERGY 75 % (nominal)
AC$MASS_SPECTROMETRY: RESOLUTION 15000
AC$CHROMATOGRAPHY: COLUMN_NAME XBridge C18 3.5um, 2.1x50mm, Waters
AC$CHROMATOGRAPHY: FLOW_GRADIENT 90/10 at 0 min, 50/50 at 4 min, 5/95 at 17 min, 5/95 at 25 min, 90/10 at 25.1 min, 90/10 at 30 min
AC$CHROMATOGRAPHY: FLOW_RATE 200 ul/min
AC$CHROMATOGRAPHY: RETENTION_TIME 6.3 min
AC$CHROMATOGRAPHY: SOLVENT A water with 0.1% formic acid
AC$CHROMATOGRAPHY: SOLVENT B methanol with 0.1% formic acid
MS$FOCUSED_ION: BASE_PEAK 223.0517
MS$FOCUSED_ION: PRECURSOR_M/Z 201.0692
MS$FOCUSED_ION: PRECURSOR_TYPE [M+H]+
MS$DATA_PROCESSING: DEPROFILE Spline
MS$DATA_PROCESSING: RECALIBRATE loess on assigned fragments and MS1
MS$DATA_PROCESSING: REANALYZE Peaks with additional N2/O included
MS$DATA_PROCESSING: WHOLE RMassBank 1.3.1
PK$SPLASH: splash10-0006-9000000000-56dee9d7326d49df1f88
PK$ANNOTATION: m/z tentative_formula formula_count mass error(ppm)
  64.031 C5H4+ 1 64.0308 3.72
  65.0386 C5H5+ 1 65.0386 0.36
  77.0388 C6H5+ 1 77.0386 2.38
  79.0543 C6H7+ 1 79.0542 1.05
  92.0495 C6H6N+ 1 92.0495 0.7
  93.0573 C6H7N+ 1 93.0573 0.1
  94.0651 C6H8N+ 1 94.0651 0.15
  107.0602 C6H7N2+ 1 107.0604 -1.82
  108.0809 C7H10N+ 1 108.0808 1.24
  120.0809 C8H10N+ 1 120.0808 1.03
  121.0761 C7H9N2+ 1 121.076 0.7
  121.0886 C8H11N+ 1 121.0886 0.08
  122.0838 C7H10N2+ 1 122.0838 -0.24
  135.0921 C8H11N2+ 1 135.0917 3.07
  136.0998 C8H12N2+ 1 136.0995 2.21
  137.1067 C8H13N2+ 1 137.1073 -4.34
PK$NUM_PEAK: 16
PK$PEAK: m/z int. rel.int.
  64.031 5568.8 1
  65.0386 1137951.5 319
  77.0388 9822 2
  79.0543 7751.3 2
  92.0495 3556501.1 999
  93.0573 903977.6 253
  94.0651 132604.7 37
  107.0602 11566.7 3
  108.0809 21433.9 6
  120.0809 25833 7
  121.0761 11334.4 3
  121.0886 22475.8 6
  122.0838 75177.6 21
  135.0921 9664.8 2
  136.0998 9163 2
  137.1067 16217.6 4
//
