ACCESSION: MSBNK-Eawag-EQ01110304
RECORD_TITLE: 4-(Methylthio)benzaldehyde; LC-ESI-QFT; MS2; CE: 60%; R=15000; [M+H]+
DATE: 2024.06.14
AUTHORS: F. Jud [dtc], K. Arturi [dtc], J. Hollender [dtc], A. Dax [com]
LICENSE: CC BY-SA
COPYRIGHT: Copyright (C) Eawag 2024
COMMENT: CONFIDENCE standard compound
COMMENT: UCHEM_ID 11103
CH$NAME: 4-(Methylthio)benzaldehyde
CH$NAME: 4-methylsulfanylbenzaldehyde
CH$COMPOUND_CLASS: N/A
CH$FORMULA: C8H8OS
CH$EXACT_MASS: 152.0295859
CH$SMILES: CSC1=CC=C(C=O)C=C1
CH$IUPAC: InChI=1S/C8H8OS/c1-10-8-4-2-7(6-9)3-5-8/h2-6H,1H3
CH$LINK: CAS 70-78-0
CH$LINK: PUBCHEM CID:76985
CH$LINK: INCHIKEY QRVYABWJVXXOTN-UHFFFAOYSA-N
CH$LINK: CHEMSPIDER 69432
AC$INSTRUMENT: Exploris 240 Thermo Scientific
AC$INSTRUMENT_TYPE: LC-ESI-QFT
AC$MASS_SPECTROMETRY: MS_TYPE MS2
AC$MASS_SPECTROMETRY: ION_MODE POSITIVE
AC$MASS_SPECTROMETRY: IONIZATION ESI
AC$MASS_SPECTROMETRY: FRAGMENTATION_MODE HCD
AC$MASS_SPECTROMETRY: COLLISION_ENERGY 60 % (nominal)
AC$MASS_SPECTROMETRY: RESOLUTION 15000
AC$MASS_SPECTROMETRY: MASS_RANGE_M/Z 40-177
AC$CHROMATOGRAPHY: COLUMN_NAME XBridge C18 3.5um, 2.1x50mm, Waters
AC$CHROMATOGRAPHY: FLOW_GRADIENT 90/10 at 0 min, 50/50 at 4 min, 5/95 at 17 min, 5/95 at 25 min, 90/10 at 25.1 min, 90/10 at 30 min
AC$CHROMATOGRAPHY: FLOW_RATE 200 uL/min
AC$CHROMATOGRAPHY: RETENTION_TIME 6.327 min
MS$FOCUSED_ION: BASE_PEAK 132.9581
MS$FOCUSED_ION: PRECURSOR_M/Z 153.0369
MS$FOCUSED_ION: PRECURSOR_TYPE [M+H]+
MS$DATA_PROCESSING: RECALIBRATE loess on assigned fragments and MS1
MS$DATA_PROCESSING: REANALYZE Peaks with additional N2/O included
MS$DATA_PROCESSING: WHOLE RMassBank 3.15.1.1
PK$SPLASH: splash10-0a4i-0900000000-0367b84e0dd9307b57d8
PK$ANNOTATION: m/z tentative_formula formula_count mass error(ppm)
  78.0464 C6H6+ 1 78.0464 0.19
  79.0542 C6H7+ 1 79.0542 0.05
  95.0492 C6H7O+ 1 95.0491 0.69
  109.0106 C6H5S+ 1 109.0106 -0.24
  110.0185 C6H6S+ 1 110.0185 -0.17
  111.0263 C6H7S+ 1 111.0263 0.04
  124.0344 C7H8S+ 1 124.0341 1.9
  125.0419 C7H9S+ 1 125.0419 -0.18
  153.0369 C8H9OS+ 1 153.0369 0.5
PK$NUM_PEAK: 9
PK$PEAK: m/z int. rel.int.
  78.0464 296038.2 53
  79.0542 153297.7 27
  95.0492 153230.4 27
  109.0106 5504434.5 999
  110.0185 826440.2 149
  111.0263 260557.1 47
  124.0344 56508.7 10
  125.0419 1349951.5 245
  153.0369 735907.9 133
//
