ACCESSION: MSBNK-Eawag-EA019210
RECORD_TITLE: Roxithromycin; LC-ESI-ITFT; MS2; CE: 45%; R=15000; [M+H]+
DATE: 2014.01.14
AUTHORS: Stravs M, Schymanski E, Singer H, Department of Environmental Chemistry, Eawag
LICENSE: CC BY
COPYRIGHT: Copyright (C) 2012 Eawag, Duebendorf, Switzerland
COMMENT: CONFIDENCE standard compound
COMMENT: EAWAG_UCHEM_ID 192
CH$NAME: Roxithromycin
CH$NAME: (3R,4S,5S,6R,7R,9R,10E,11S,12R,13S,14R)-6-[(2S,3R,4S,6R)-4-(dimethylamino)-3-hydroxy-6-methyl-tetrahydropyran-2-yl]oxy-14-ethyl-7,12,13-trihydroxy-4-[(2R,4R,5S,6S)-5-hydroxy-4-methoxy-4,6-dimethyl-tetrahydropyran-2-yl]oxy-10-(2-methoxyethoxymethyloximino)-3,5,7,9,11,13-hexamethyl-oxacyclotetradecan-2-one
CH$COMPOUND_CLASS: N/A; Environmental Standard
CH$FORMULA: C41H76N2O15
CH$EXACT_MASS: 836.5246
CH$SMILES: CC[C@@H]1[C@@]([C@@H]([C@H](/C(=N/OCOCCOC)/[C@@H](C[C@@]([C@@H]([C@H]([C@@H]([C@H](C(=O)O1)C)O[C@H]2C[C@@]([C@H]([C@@H](O2)C)O)(C)OC)C)O[C@H]3[C@@H]([C@H](C[C@H](O3)C)N(C)C)O)(C)O)C)C)O)(C)O
CH$IUPAC: InChI=1S/C41H76N2O15/c1-15-29-41(10,49)34(45)24(4)31(42-53-21-52-17-16-50-13)22(2)19-39(8,48)36(58-38-32(44)28(43(11)12)18-23(3)54-38)25(5)33(26(6)37(47)56-29)57-30-20-40(9,51-14)35(46)27(7)55-30/h22-30,32-36,38,44-46,48-49H,15-21H2,1-14H3/b42-31+/t22-,23-,24+,25+,26-,27+,28+,29-,30+,32-,33+,34-,35+,36-,38+,39-,40-,41-/m1/s1
CH$LINK: CAS 80214-83-1
CH$LINK: CHEBI CHEBI:48844
CH$LINK: PUBCHEM CID:6915744
CH$LINK: INCHIKEY RXZBMPWDPOLZGW-XMRMVWPWSA-N
CH$LINK: CHEMSPIDER 5291557
AC$INSTRUMENT: LTQ Orbitrap XL Thermo Scientific
AC$INSTRUMENT_TYPE: LC-ESI-ITFT
AC$MASS_SPECTROMETRY: MS_TYPE MS2
AC$MASS_SPECTROMETRY: ION_MODE POSITIVE
AC$MASS_SPECTROMETRY: IONIZATION ESI
AC$MASS_SPECTROMETRY: FRAGMENTATION_MODE HCD
AC$MASS_SPECTROMETRY: COLLISION_ENERGY 45 % (nominal)
AC$MASS_SPECTROMETRY: RESOLUTION 15000
AC$CHROMATOGRAPHY: COLUMN_NAME XBridge C18 3.5um, 2.1x50mm, Waters
AC$CHROMATOGRAPHY: FLOW_GRADIENT 90/10 at 0 min, 50/50 at 4 min, 5/95 at 17 min, 5/95 at 25 min, 90/10 at 25.1 min, 90/10 at 30 min
AC$CHROMATOGRAPHY: FLOW_RATE 200 ul/min
AC$CHROMATOGRAPHY: RETENTION_TIME 10.1 min
AC$CHROMATOGRAPHY: SOLVENT A water with 0.1% formic acid
AC$CHROMATOGRAPHY: SOLVENT B methanol with 0.1% formic acid
MS$FOCUSED_ION: BASE_PEAK 837.5333
MS$FOCUSED_ION: PRECURSOR_M/Z 837.5318
MS$FOCUSED_ION: PRECURSOR_TYPE [M+H]+
MS$DATA_PROCESSING: DEPROFILE Spline
MS$DATA_PROCESSING: RECALIBRATE loess on assigned fragments and MS1
MS$DATA_PROCESSING: REANALYZE Peaks with additional N2/O included
MS$DATA_PROCESSING: WHOLE RMassBank 1.3.1
PK$SPLASH: splash10-0api-6900000000-278357c5b036476d3a28
PK$ANNOTATION: m/z tentative_formula formula_count mass error(ppm)
  72.0807 C4H10N+ 1 72.0808 -1.74
  83.0491 C5H7O+ 1 83.0491 -0.62
  88.0756 C4H10NO+ 1 88.0757 -1.25
  98.0963 C6H12N+ 1 98.0964 -0.98
  113.0595 C6H9O2+ 1 113.0597 -1.82
  116.0706 C5H10NO2+ 1 116.0706 -0.13
  116.1068 C6H14NO+ 1 116.107 -1.21
  158.1174 C8H16NO2+ 1 158.1176 -1.11
  530.2223 C34H30N2O4+ 4 530.22 4.36
PK$NUM_PEAK: 9
PK$PEAK: m/z int. rel.int.
  72.0807 7667.5 243
  83.0491 25902.7 821
  88.0756 4502.1 142
  98.0963 8430.7 267
  113.0595 3289.1 104
  116.0706 10681.7 338
  116.1068 17113.1 542
  158.1174 31509.1 999
  530.2223 2114.8 67
//
