ACCESSION: MSBNK-Eawag-EQ00256601
RECORD_TITLE: 5-Fluorouracil; LC-ESI-QFT; MS2; CE: 15%; R=15000; [M+H]+
DATE: 2024.06.14
AUTHORS: F. Jud [dtc], K. Arturi [dtc], J. Hollender [dtc], A. Dax [com]
LICENSE: CC BY-SA
COPYRIGHT: Copyright (C) Eawag 2024
COMMENT: CONFIDENCE standard compound
COMMENT: UCHEM_ID 2566
CH$NAME: 5-Fluorouracil
CH$NAME: Fluorouracil
CH$NAME: 5-fluoro-1H-pyrimidine-2,4-dione
CH$COMPOUND_CLASS: N/A
CH$FORMULA: C4H3FN2O2
CH$EXACT_MASS: 130.0178556
CH$SMILES: FC1=CNC(=O)NC1=O
CH$IUPAC: InChI=1S/C4H3FN2O2/c5-2-1-6-4(9)7-3(2)8/h1H,(H2,6,7,8,9)
CH$LINK: CAS 51-21-8
CH$LINK: CHEBI CHEBI:46345
CH$LINK: KEGG C07649
CH$LINK: PUBCHEM CID:3385
CH$LINK: INCHIKEY GHASVSINZRGABV-UHFFFAOYSA-N
CH$LINK: CHEMSPIDER 3268
AC$INSTRUMENT: Q Exactive Plus
AC$INSTRUMENT_TYPE: LC-ESI-QFT
AC$MASS_SPECTROMETRY: MS_TYPE MS2
AC$MASS_SPECTROMETRY: ION_MODE POSITIVE
AC$MASS_SPECTROMETRY: IONIZATION ESI
AC$MASS_SPECTROMETRY: FRAGMENTATION_MODE HCD
AC$MASS_SPECTROMETRY: COLLISION_ENERGY 15 % (nominal)
AC$MASS_SPECTROMETRY: RESOLUTION 15000
AC$MASS_SPECTROMETRY: MASS_RANGE_M/Z 50-150
AC$CHROMATOGRAPHY: COLUMN_NAME XBridge C18 3.5um, 2.1x50mm, Waters
AC$CHROMATOGRAPHY: FLOW_GRADIENT 90/10 at 0 min, 50/50 at 4 min, 5/95 at 17 min, 5/95 at 25 min, 90/10 at 25.1 min, 90/10 at 30 min
AC$CHROMATOGRAPHY: FLOW_RATE 200 uL/min
AC$CHROMATOGRAPHY: RETENTION_TIME 1.254 min
MS$FOCUSED_ION: BASE_PEAK 132.9583
MS$FOCUSED_ION: PRECURSOR_M/Z 131.0251
MS$FOCUSED_ION: PRECURSOR_TYPE [M+H]+
MS$FOCUSED_ION: PRECURSOR_INTENSITY 19205535.24
MS$DATA_PROCESSING: RECALIBRATE loess on assigned fragments and MS1
MS$DATA_PROCESSING: REANALYZE Peaks with additional N2/O included
MS$DATA_PROCESSING: WHOLE RMassBank 3.15.1.1
PK$SPLASH: splash10-001i-0900000000-75a3a17f195911d3f8ab
PK$ANNOTATION: m/z tentative_formula formula_count mass error(ppm)
  88.0193 C3H3FNO+ 1 88.0193 0
  113.9986 C4HFNO2+ 1 113.9986 0.12
  131.0251 C4H4FN2O2+ 1 131.0251 0.05
PK$NUM_PEAK: 3
PK$PEAK: m/z int. rel.int.
  88.0193 101923.6 36
  113.9986 1213800.6 431
  131.0251 2811897.5 999
//
