ACCESSION: MSBNK-Eawag-EA275903
RECORD_TITLE: Cyanazine; LC-ESI-ITFT; MS2; CE: 30%; R=7500; [M+H]+
DATE: 2014.01.14
AUTHORS: Stravs M, Schymanski E, Singer H, Department of Environmental Chemistry, Eawag
LICENSE: CC BY
COPYRIGHT: Copyright (C) 2012 Eawag, Duebendorf, Switzerland
COMMENT: CONFIDENCE standard compound
COMMENT: EAWAG_UCHEM_ID 2759
CH$NAME: Cyanazine
CH$NAME: 2-[[4-chloranyl-6-(ethylamino)-1,3,5-triazin-2-yl]amino]-2-methyl-propanenitrile
CH$COMPOUND_CLASS: N/A; Environmental Standard
CH$FORMULA: C9H13ClN6
CH$EXACT_MASS: 240.0890
CH$SMILES: CCNC1=NC(=NC(=N1)Cl)NC(C)(C)C#N
CH$IUPAC: InChI=1S/C9H13ClN6/c1-4-12-7-13-6(10)14-8(15-7)16-9(2,3)5-11/h4H2,1-3H3,(H2,12,13,14,15,16)
CH$LINK: CAS 21725-46-2
CH$LINK: CHEBI CHEBI:38069
CH$LINK: KEGG C14299
CH$LINK: PUBCHEM CID:30773
CH$LINK: INCHIKEY MZZBPDKVEFVLFF-UHFFFAOYSA-N
CH$LINK: CHEMSPIDER 28552
CH$LINK: COMPTOX DTXSID1023990
AC$INSTRUMENT: LTQ Orbitrap XL Thermo Scientific
AC$INSTRUMENT_TYPE: LC-ESI-ITFT
AC$MASS_SPECTROMETRY: MS_TYPE MS2
AC$MASS_SPECTROMETRY: ION_MODE POSITIVE
AC$MASS_SPECTROMETRY: IONIZATION ESI
AC$MASS_SPECTROMETRY: FRAGMENTATION_MODE HCD
AC$MASS_SPECTROMETRY: COLLISION_ENERGY 30 % (nominal)
AC$MASS_SPECTROMETRY: RESOLUTION 7500
AC$CHROMATOGRAPHY: COLUMN_NAME XBridge C18 3.5um, 2.1x50mm, Waters
AC$CHROMATOGRAPHY: FLOW_GRADIENT 90/10 at 0 min, 50/50 at 4 min, 5/95 at 17 min, 5/95 at 25 min, 90/10 at 25.1 min, 90/10 at 30 min
AC$CHROMATOGRAPHY: FLOW_RATE 200 ul/min
AC$CHROMATOGRAPHY: RETENTION_TIME 6.6 min
AC$CHROMATOGRAPHY: SOLVENT A water with 0.1% formic acid
AC$CHROMATOGRAPHY: SOLVENT B methanol with 0.1% formic acid
MS$FOCUSED_ION: BASE_PEAK 241.0971
MS$FOCUSED_ION: PRECURSOR_M/Z 241.0963
MS$FOCUSED_ION: PRECURSOR_TYPE [M+H]+
MS$DATA_PROCESSING: DEPROFILE Spline
MS$DATA_PROCESSING: RECALIBRATE loess on assigned fragments and MS1
MS$DATA_PROCESSING: REANALYZE Peaks with additional N2/O included
MS$DATA_PROCESSING: WHOLE RMassBank 1.3.1
PK$SPLASH: splash10-0006-0090000000-86cbd0f2361a85f3eb38
PK$ANNOTATION: m/z tentative_formula formula_count mass error(ppm)
  68.0244 C2H2N3+ 1 68.0243 0.54
  87.0173 HN5O+ 1 87.0176 -3.57
  96.0557 C4H6N3+ 1 96.0556 0.38
  104.0013 C2H3ClN3+ 1 104.001 2.68
  163.0975 C8H11N4+ 1 163.0978 -1.86
  174.0541 C5H9ClN5+ 1 174.0541 -0.17
  186.0538 C6H9ClN5+ 1 186.0541 -1.72
  205.1197 C9H13N6+ 1 205.1196 0.53
  214.0856 C8H13ClN5+ 1 214.0854 0.98
  241.0967 C9H14ClN6+ 1 241.0963 1.83
PK$NUM_PEAK: 10
PK$PEAK: m/z int. rel.int.
  68.0244 11942.9 1
  87.0173 8642 1
  96.0557 48392.4 5
  104.0013 32046.1 3
  163.0975 27981.1 3
  174.0541 118967.4 14
  186.0538 12057.1 1
  205.1197 218221.9 26
  214.0856 3684799.4 451
  241.0967 8148035.4 999
//
