ACCESSION: MSBNK-Eawag-EA267009
RECORD_TITLE: Atenolol-desisopropyl; LC-ESI-ITFT; MS2; CE: 30%; R=15000; [M+H]+
DATE: 2014.01.14
AUTHORS: Stravs M, Schymanski E, Singer H, Department of Environmental Chemistry, Eawag
LICENSE: CC BY
COPYRIGHT: Copyright (C) 2012 Eawag, Duebendorf, Switzerland
COMMENT: CONFIDENCE standard compound
COMMENT: EAWAG_UCHEM_ID 2670
CH$NAME: Atenolol-desisopropyl
CH$NAME: 4-(3-Amino-2-hydroxypropoxy)phenylacetamide
CH$COMPOUND_CLASS: N/A; Environmental Standard
CH$FORMULA: C11H16N2O3
CH$EXACT_MASS: 224.1161
CH$SMILES: c1cc(ccc1CC(=O)N)OCC(CN)O
CH$IUPAC: InChI=1S/C11H16N2O3/c12-6-9(14)7-16-10-3-1-8(2-4-10)5-11(13)15/h1-4,9,14H,5-7,12H2,(H2,13,15)
CH$LINK: CAS 81346-71-6
CH$LINK: PUBCHEM CID:14211540
CH$LINK: INCHIKEY UWMXVJVTKRSOPW-UHFFFAOYSA-N
CH$LINK: CHEMSPIDER 21896503
CH$LINK: COMPTOX DTXSID10557479
AC$INSTRUMENT: LTQ Orbitrap XL Thermo Scientific
AC$INSTRUMENT_TYPE: LC-ESI-ITFT
AC$MASS_SPECTROMETRY: MS_TYPE MS2
AC$MASS_SPECTROMETRY: ION_MODE POSITIVE
AC$MASS_SPECTROMETRY: IONIZATION ESI
AC$MASS_SPECTROMETRY: FRAGMENTATION_MODE HCD
AC$MASS_SPECTROMETRY: COLLISION_ENERGY 30 % (nominal)
AC$MASS_SPECTROMETRY: RESOLUTION 15000
AC$CHROMATOGRAPHY: COLUMN_NAME XBridge C18 3.5um, 2.1x50mm, Waters
AC$CHROMATOGRAPHY: FLOW_GRADIENT 90/10 at 0 min, 50/50 at 4 min, 5/95 at 17 min, 5/95 at 25 min, 90/10 at 25.1 min, 90/10 at 30 min
AC$CHROMATOGRAPHY: FLOW_RATE 200 ul/min
AC$CHROMATOGRAPHY: RETENTION_TIME 1.0 min
AC$CHROMATOGRAPHY: SOLVENT A water with 0.1% formic acid
AC$CHROMATOGRAPHY: SOLVENT B methanol with 0.1% formic acid
MS$FOCUSED_ION: BASE_PEAK 225.124
MS$FOCUSED_ION: PRECURSOR_M/Z 225.1234
MS$FOCUSED_ION: PRECURSOR_TYPE [M+H]+
MS$DATA_PROCESSING: DEPROFILE Spline
MS$DATA_PROCESSING: RECALIBRATE loess on assigned fragments and MS1
MS$DATA_PROCESSING: REANALYZE Peaks with additional N2/O included
MS$DATA_PROCESSING: WHOLE RMassBank 1.3.1
PK$SPLASH: splash10-004i-1390000000-260f02f7e8ead5b881e3
PK$ANNOTATION: m/z tentative_formula formula_count mass error(ppm)
  56.0495 C3H6N+ 1 56.0495 -0.28
  74.0601 C3H8NO+ 1 74.06 0.81
  133.0648 C9H9O+ 1 133.0648 0.29
  145.0648 C10H9O+ 1 145.0648 0.34
  147.0442 C9H7O2+ 1 147.0441 0.98
  152.0704 C8H10NO2+ 1 152.0706 -1.02
  161.0598 C10H9O2+ 1 161.0597 0.65
  162.0914 C10H12NO+ 1 162.0913 0.43
  163.0749 C10H11O2+ 1 163.0754 -2.61
  164.0708 C9H10NO2+ 1 164.0706 1.19
  173.0599 C11H9O2+ 1 173.0597 0.89
  178.0863 C10H12NO2+ 1 178.0863 0.2
  180.1019 C10H14NO2+ 1 180.1019 0.19
  190.0863 C11H12NO2+ 1 190.0863 0.34
  208.0969 C11H14NO3+ 1 208.0968 0.24
  225.1237 C11H17N2O3+ 1 225.1234 1.34
PK$NUM_PEAK: 16
PK$PEAK: m/z int. rel.int.
  56.0495 19471.9 13
  74.0601 230642.9 154
  133.0648 11454.1 7
  145.0648 61067.8 40
  147.0442 3062.3 2
  152.0704 5734.7 3
  161.0598 4409.5 2
  162.0914 40768 27
  163.0749 2755.2 1
  164.0708 15385 10
  173.0599 31730.6 21
  178.0863 88506.7 59
  180.1019 23391.5 15
  190.0863 341473.1 228
  208.0969 250262.7 167
  225.1237 1493272 999
//
