ACCESSION: MSBNK-Eawag-EQ00305751
RECORD_TITLE: Fenhexamid; LC-ESI-QFT; MS2; CE: 15%; R=15000; [M-H]-
DATE: 2024.06.14
AUTHORS: F. Jud [dtc], K. Arturi [dtc], J. Hollender [dtc], A. Dax [com]
LICENSE: CC BY-SA
COPYRIGHT: Copyright (C) Eawag 2024
COMMENT: CONFIDENCE standard compound
COMMENT: UCHEM_ID 3057
CH$NAME: Fenhexamid
CH$NAME: N-(2,3-dichloro-4-hydroxyphenyl)-1-methylcyclohexane-1-carboxamide
CH$COMPOUND_CLASS: N/A
CH$FORMULA: C14H17Cl2NO2
CH$EXACT_MASS: 301.0636341
CH$SMILES: CC1(CCCCC1)C(=O)NC1=C(Cl)C(Cl)=C(O)C=C1
CH$IUPAC: InChI=1S/C14H17Cl2NO2/c1-14(7-3-2-4-8-14)13(19)17-9-5-6-10(18)12(16)11(9)15/h5-6,18H,2-4,7-8H2,1H3,(H,17,19)
CH$LINK: CAS 148-85-6
CH$LINK: CHEBI CHEBI:81853
CH$LINK: KEGG C18593
CH$LINK: PUBCHEM CID:213031
CH$LINK: INCHIKEY VDLGAVXLJYLFDH-UHFFFAOYSA-N
CH$LINK: CHEMSPIDER 184726
AC$INSTRUMENT: Q Exactive Plus
AC$INSTRUMENT_TYPE: LC-ESI-QFT
AC$MASS_SPECTROMETRY: MS_TYPE MS2
AC$MASS_SPECTROMETRY: ION_MODE NEGATIVE
AC$MASS_SPECTROMETRY: IONIZATION ESI
AC$MASS_SPECTROMETRY: FRAGMENTATION_MODE HCD
AC$MASS_SPECTROMETRY: COLLISION_ENERGY 15 % (nominal)
AC$MASS_SPECTROMETRY: RESOLUTION 15000
AC$MASS_SPECTROMETRY: MASS_RANGE_M/Z 50-325
AC$CHROMATOGRAPHY: COLUMN_NAME XBridge C18 3.5um, 2.1x50mm, Waters
AC$CHROMATOGRAPHY: FLOW_GRADIENT 90/10 at 0 min, 50/50 at 4 min, 5/95 at 17 min, 5/95 at 25 min, 90/10 at 25.1 min, 90/10 at 30 min
AC$CHROMATOGRAPHY: FLOW_RATE 200 uL/min
AC$CHROMATOGRAPHY: RETENTION_TIME 10.237 min
MS$FOCUSED_ION: BASE_PEAK 300.0565
MS$FOCUSED_ION: PRECURSOR_M/Z 300.0564
MS$FOCUSED_ION: PRECURSOR_TYPE [M-H]-
MS$FOCUSED_ION: PRECURSOR_INTENSITY 12160523.46
MS$DATA_PROCESSING: RECALIBRATE loess on assigned fragments and MS1
MS$DATA_PROCESSING: REANALYZE Peaks with additional N2/O included
MS$DATA_PROCESSING: WHOLE RMassBank 3.15.1.1
PK$SPLASH: splash10-0udi-0009000000-f242fcb81ab832c30b74
PK$ANNOTATION: m/z tentative_formula formula_count mass error(ppm)
  264.0799 C14H15ClNO2- 1 264.0797 0.8
  300.0565 C14H16Cl2NO2- 1 300.0564 0.53
PK$NUM_PEAK: 2
PK$PEAK: m/z int. rel.int.
  264.0799 305679.8 58
  300.0565 5222087.5 999
//
