ACCESSION: MSBNK-Eawag-EQ00295002
RECORD_TITLE: Chlorpyrifos; LC-ESI-QFT; MS2; CE: 30%; R=15000; [M+H]+
DATE: 2024.06.14
AUTHORS: F. Jud [dtc], K. Arturi [dtc], J. Hollender [dtc], A. Dax [com]
LICENSE: CC BY-SA
COPYRIGHT: Copyright (C) Eawag 2024
COMMENT: CONFIDENCE standard compound
COMMENT: UCHEM_ID 2950
CH$NAME: Chlorpyrifos
CH$NAME: diethoxy-sulfanylidene-(3,5,6-trichloropyridin-2-yl)oxy-lambda5-phosphane
CH$COMPOUND_CLASS: N/A
CH$FORMULA: C9H11Cl3NO3PS
CH$EXACT_MASS: 348.9262839
CH$SMILES: CCOP(=S)(OCC)OC1=NC(Cl)=C(Cl)C=C1Cl
CH$IUPAC: InChI=1S/C9H11Cl3NO3PS/c1-3-14-17(18,15-4-2)16-9-7(11)5-6(10)8(12)13-9/h5H,3-4H2,1-2H3
CH$LINK: CAS 2921-88-2
CH$LINK: CHEBI CHEBI:34631
CH$LINK: KEGG C14322
CH$LINK: PUBCHEM CID:2730
CH$LINK: INCHIKEY SBPBAQFWLVIOKP-UHFFFAOYSA-N
CH$LINK: CHEMSPIDER 2629
AC$INSTRUMENT: Q Exactive Plus
AC$INSTRUMENT_TYPE: LC-ESI-QFT
AC$MASS_SPECTROMETRY: MS_TYPE MS2
AC$MASS_SPECTROMETRY: ION_MODE POSITIVE
AC$MASS_SPECTROMETRY: IONIZATION ESI
AC$MASS_SPECTROMETRY: FRAGMENTATION_MODE HCD
AC$MASS_SPECTROMETRY: COLLISION_ENERGY 30 % (nominal)
AC$MASS_SPECTROMETRY: RESOLUTION 15000
AC$MASS_SPECTROMETRY: MASS_RANGE_M/Z 50-375
AC$CHROMATOGRAPHY: COLUMN_NAME XBridge C18 3.5um, 2.1x50mm, Waters
AC$CHROMATOGRAPHY: FLOW_GRADIENT 90/10 at 0 min, 50/50 at 4 min, 5/95 at 17 min, 5/95 at 25 min, 90/10 at 25.1 min, 90/10 at 30 min
AC$CHROMATOGRAPHY: FLOW_RATE 200 uL/min
AC$CHROMATOGRAPHY: RETENTION_TIME 14.392 min
MS$FOCUSED_ION: BASE_PEAK 349.9338
MS$FOCUSED_ION: PRECURSOR_M/Z 349.9336
MS$FOCUSED_ION: PRECURSOR_TYPE [M+H]+
MS$FOCUSED_ION: PRECURSOR_INTENSITY 86352622.98
MS$DATA_PROCESSING: RECALIBRATE loess on assigned fragments and MS1
MS$DATA_PROCESSING: REANALYZE Peaks with additional N2/O included
MS$DATA_PROCESSING: WHOLE RMassBank 3.15.1.1
PK$SPLASH: splash10-03dj-0900000000-48abb7dbd80fabedf95a
PK$ANNOTATION: m/z tentative_formula formula_count mass error(ppm)
  96.9508 H2O2PS+ 2 96.9508 -0.09
  114.9613 H4O3PS+ 2 114.9613 -0.19
  124.982 C2H6O2PS+ 2 124.9821 -0.12
  142.9927 C2H8O3PS+ 3 142.9926 0.6
  153.0133 C4H10O2PS+ 2 153.0134 -0.39
  171.0238 C4H12O3PS+ 2 171.0239 -0.72
  197.9274 C5H3Cl3NO+ 4 197.9275 -0.35
  213.9046 C5H3Cl3NS+ 4 213.9046 -0.23
  275.8603 C5H2Cl3NO2PS+ 1 275.8604 -0.4
  321.9021 C7H8Cl3NO3PS+ 1 321.9023 -0.59
PK$NUM_PEAK: 10
PK$PEAK: m/z int. rel.int.
  96.9508 1092947.8 53
  114.9613 20239234 999
  124.982 841719.4 41
  142.9927 370582.8 18
  153.0133 818301.5 40
  171.0238 1584248.8 78
  197.9274 18758820 925
  213.9046 1252566.9 61
  275.8603 526174.4 25
  321.9021 393022.8 19
//
