ACCESSION: MSBNK-Eawag-EA026553
RECORD_TITLE: Metolachlor OXA; LC-ESI-ITFT; MS2; CE: 30%; R=7500; [M-H]-
DATE: 2014.01.14
AUTHORS: Stravs M, Schymanski E, Singer H, Department of Environmental Chemistry, Eawag
LICENSE: CC BY
COPYRIGHT: Copyright (C) 2012 Eawag, Duebendorf, Switzerland
COMMENT: CONFIDENCE standard compound
COMMENT: EAWAG_UCHEM_ID 265
CH$NAME: Metolachlor OXA
CH$NAME: 2-(2-ethyl-N-(2-methoxy-1-methyl-ethyl)-6-methyl-anilino)-2-keto-acetic acid
CH$COMPOUND_CLASS: N/A; Environmental Standard
CH$FORMULA: C15H21NO4
CH$EXACT_MASS: 279.1471
CH$SMILES: CC1=CC=CC(CC)=C1N(C(C)COC)C(C(O)=O)=O
CH$IUPAC: InChI=1S/C15H21NO4/c1-5-12-8-6-7-10(2)13(12)16(11(3)9-20-4)14(17)15(18)19/h6-8,11H,5,9H2,1-4H3,(H,18,19)
CH$LINK: CAS 152019-73-3
CH$LINK: PUBCHEM CID:15842092
CH$LINK: INCHIKEY LNOOSYCKMKZOJB-UHFFFAOYSA-N
CH$LINK: CHEMSPIDER 21170688
CH$LINK: COMPTOX DTXSID6037568
AC$INSTRUMENT: LTQ Orbitrap XL Thermo Scientific
AC$INSTRUMENT_TYPE: LC-ESI-ITFT
AC$MASS_SPECTROMETRY: MS_TYPE MS2
AC$MASS_SPECTROMETRY: ION_MODE NEGATIVE
AC$MASS_SPECTROMETRY: IONIZATION ESI
AC$MASS_SPECTROMETRY: FRAGMENTATION_MODE HCD
AC$MASS_SPECTROMETRY: COLLISION_ENERGY 30 % (nominal)
AC$MASS_SPECTROMETRY: RESOLUTION 7500
AC$CHROMATOGRAPHY: COLUMN_NAME XBridge C18 3.5um, 2.1x50mm, Waters
AC$CHROMATOGRAPHY: FLOW_GRADIENT 90/10 at 0 min, 50/50 at 4 min, 5/95 at 17 min, 5/95 at 25 min, 90/10 at 25.1 min, 90/10 at 30 min
AC$CHROMATOGRAPHY: FLOW_RATE 200 ul/min
AC$CHROMATOGRAPHY: RETENTION_TIME 9.0 min
AC$CHROMATOGRAPHY: SOLVENT A water with 0.1% formic acid
AC$CHROMATOGRAPHY: SOLVENT B methanol with 0.1% formic acid
MS$FOCUSED_ION: BASE_PEAK 278.1398
MS$FOCUSED_ION: PRECURSOR_M/Z 278.1398
MS$FOCUSED_ION: PRECURSOR_TYPE [M-H]-
MS$DATA_PROCESSING: DEPROFILE Spline
MS$DATA_PROCESSING: RECALIBRATE loess on assigned fragments and MS1
MS$DATA_PROCESSING: REANALYZE Peaks with additional N2/O included
MS$DATA_PROCESSING: WHOLE RMassBank 1.3.1
PK$SPLASH: splash10-0a4i-0390000000-aa4bcef497dee0ceeec4
PK$ANNOTATION: m/z tentative_formula formula_count mass error(ppm)
  134.0981 C9H12N- 1 134.0975 4.6
  135.0815 C9H11O- 1 135.0815 0.08
  156.0815 C11H10N- 1 156.0819 -2.26
  158.0979 C11H12N- 1 158.0975 2.32
  160.113 C11H14N- 1 160.1132 -0.89
  172.1132 C12H14N- 1 172.1132 0.27
  174.1291 C12H16N- 1 174.1288 1.76
  175.1005 C11H13NO- 1 175.1003 1.3
  204.1398 C13H18NO- 1 204.1394 2.07
  206.1555 C13H20NO- 1 206.155 2
PK$NUM_PEAK: 10
PK$PEAK: m/z int. rel.int.
  134.0981 11419.3 4
  135.0815 12661.4 5
  156.0815 13882.9 5
  158.0979 143187.9 58
  160.113 56722.2 23
  172.1132 104408.5 42
  174.1291 614670.4 250
  175.1005 12729.8 5
  204.1398 23573.4 9
  206.1555 2451919.7 999
//
