ACCESSION: MSBNK-Eawag-EQ367905
RECORD_TITLE: Droperidol; LC-ESI-QFT; MS2; CE: 75; R=35000; [M+H]+
DATE: 2015.08.25
AUTHORS: Stravs M, Schymanski E, Singer H, Department of Environmental Chemistry, Eawag and Thomaidis N, University of Athens
LICENSE: CC BY
COPYRIGHT: Copyright (C) 2015 Eawag, Duebendorf, Switzerland
COMMENT: CONFIDENCE standard compound
COMMENT: EAWAG_UCHEM_ID 3679
CH$NAME: Droperidol
CH$NAME: 3-[1-[4-(4-fluorophenyl)-4-oxobutyl]-3,6-dihydro-2H-pyridin-4-yl]-1H-benzimidazol-2-one
CH$COMPOUND_CLASS: N/A; Environmental Standard
CH$FORMULA: C22H22FN3O2
CH$EXACT_MASS: 379.16961
CH$SMILES: C1CN(CC=C1N2C3=CC=CC=C3NC2=O)CCCC(=O)C4=CC=C(C=C4)F
CH$IUPAC: InChI=1S/C22H22FN3O2/c23-17-9-7-16(8-10-17)21(27)6-3-13-25-14-11-18(12-15-25)26-20-5-2-1-4-19(20)24-22(26)28/h1-2,4-5,7-11H,3,6,12-15H2,(H,24,28)
CH$LINK: CAS 548-73-2
CH$LINK: CHEBI CHEBI:4717
CH$LINK: PUBCHEM CID:3168
CH$LINK: INCHIKEY RMEDXOLNCUSCGS-UHFFFAOYSA-N
CH$LINK: CHEMSPIDER 3056
CH$LINK: COMPTOX DTXSID6022973
AC$INSTRUMENT: Q Exactive Plus Orbitrap Thermo Scientific
AC$INSTRUMENT_TYPE: LC-ESI-QFT
AC$MASS_SPECTROMETRY: MS_TYPE MS2
AC$MASS_SPECTROMETRY: ION_MODE POSITIVE
AC$MASS_SPECTROMETRY: IONIZATION ESI
AC$MASS_SPECTROMETRY: FRAGMENTATION_MODE HCD
AC$MASS_SPECTROMETRY: COLLISION_ENERGY 75 (nominal)
AC$MASS_SPECTROMETRY: RESOLUTION 35000
AC$CHROMATOGRAPHY: COLUMN_NAME XBridge C18 3.5um, 2.1x50mm, Waters
AC$CHROMATOGRAPHY: FLOW_GRADIENT 90/10 at 0 min, 50/50 at 4 min, 5/95 at 17 min, 5/95 at 25 min, 90/10 at 25.1 min, 90/10 at 30 min
AC$CHROMATOGRAPHY: FLOW_RATE 200 ul/min
AC$CHROMATOGRAPHY: RETENTION_TIME 5.9 min
AC$CHROMATOGRAPHY: SOLVENT A water with 0.1% formic acid
AC$CHROMATOGRAPHY: SOLVENT B methanol with 0.1% formic acid
MS$FOCUSED_ION: BASE_PEAK 380.176
MS$FOCUSED_ION: PRECURSOR_M/Z 380.1769
MS$FOCUSED_ION: PRECURSOR_TYPE [M+H]+
MS$DATA_PROCESSING: RECALIBRATE loess on assigned fragments and MS1
MS$DATA_PROCESSING: REANALYZE Peaks with additional N2/O included
MS$DATA_PROCESSING: WHOLE RMassBank 1.9.6
PK$SPLASH: splash10-00di-0900000000-09ecdeee9f023e5ac679
PK$ANNOTATION: m/z tentative_formula formula_count mass error(ppm)
  50.0149 C4H2+ 1 50.0151 -3.83
  71.0291 C4H4F+ 1 71.0292 -0.63
  75.0227 CH2FN3+ 2 75.0227 0.04
  95.029 C6H4F+ 1 95.0292 -1.63
  109.0447 C7H6F+ 1 109.0448 -0.5
  113.0397 C6H6FO+ 1 113.0397 -0.35
  123.024 C7H4FO+ 1 123.0241 -0.56
  144.0809 C10H10N+ 1 144.0808 0.79
  165.0711 C10H10FO+ 1 165.071 0.18
  172.063 C10H8N2O+ 1 172.0631 -0.55
  187.0866 C11H11N2O+ 1 187.0866 0.32
PK$NUM_PEAK: 11
PK$PEAK: m/z int. rel.int.
  50.0149 222755.5 1
  71.0291 467767.3 2
  75.0227 636465.9 3
  95.029 1052364.6 5
  109.0447 717166.8 3
  113.0397 2616950.5 12
  123.024 205704304 999
  144.0809 384771.8 1
  165.0711 37356136 181
  172.063 457396.8 2
  187.0866 308415.5 1
//
