ACCESSION: MSBNK-Eawag-EQ332206
RECORD_TITLE: Bufexamac; LC-ESI-QFT; MS2; CE: 90; R=35000; [M+H]+
DATE: 2015.08.25
AUTHORS: Otto J, Stravs M, Schymanski E, Singer H, Department of Environmental Chemistry, Eawag
LICENSE: CC BY
COPYRIGHT: Copyright (C) 2015 Eawag, Duebendorf, Switzerland
COMMENT: CONFIDENCE standard compound
COMMENT: EAWAG_UCHEM_ID 3322
CH$NAME: Bufexamac
CH$NAME: 2-(4-butoxyphenyl)-N-hydroxyacetamide
CH$COMPOUND_CLASS: N/A; Environmental Standard
CH$FORMULA: C12H17NO3
CH$EXACT_MASS: 223.12084
CH$SMILES: CCCCOC1=CC=C(C=C1)CC(=O)NO
CH$IUPAC: InChI=1S/C12H17NO3/c1-2-3-8-16-11-6-4-10(5-7-11)9-12(14)13-15/h4-7,15H,2-3,8-9H2,1H3,(H,13,14)
CH$LINK: CAS 2438-72-4
CH$LINK: KEGG D01271
CH$LINK: PUBCHEM CID:2466
CH$LINK: INCHIKEY MXJWRABVEGLYDG-UHFFFAOYSA-N
CH$LINK: CHEMSPIDER 2372
CH$LINK: COMPTOX DTXSID7045368
AC$INSTRUMENT: Q Exactive Orbitrap Thermo Scientific
AC$INSTRUMENT_TYPE: LC-ESI-QFT
AC$MASS_SPECTROMETRY: MS_TYPE MS2
AC$MASS_SPECTROMETRY: ION_MODE POSITIVE
AC$MASS_SPECTROMETRY: IONIZATION ESI
AC$MASS_SPECTROMETRY: FRAGMENTATION_MODE HCD
AC$MASS_SPECTROMETRY: COLLISION_ENERGY 90 (nominal)
AC$MASS_SPECTROMETRY: RESOLUTION 35000
AC$CHROMATOGRAPHY: COLUMN_NAME XBridge C18 3.5um, 2.1x50mm, Waters
AC$CHROMATOGRAPHY: FLOW_GRADIENT 90/10 at 0 min, 50/50 at 4 min, 5/95 at 17 min, 5/95 at 25 min, 90/10 at 25.1 min, 90/10 at 30 min
AC$CHROMATOGRAPHY: FLOW_RATE 200 ul/min
AC$CHROMATOGRAPHY: RETENTION_TIME 8.4 min
AC$CHROMATOGRAPHY: SOLVENT A water with 0.1% formic acid
AC$CHROMATOGRAPHY: SOLVENT B methanol with 0.1% formic acid
MS$FOCUSED_ION: BASE_PEAK 224.1282
MS$FOCUSED_ION: PRECURSOR_M/Z 224.1281
MS$FOCUSED_ION: PRECURSOR_TYPE [M+H]+
MS$DATA_PROCESSING: DEPROFILE vendor picking in Proteowizard
MS$DATA_PROCESSING: RECALIBRATE loess on assigned fragments and MS1
MS$DATA_PROCESSING: REANALYZE Peaks with additional N2/O included
MS$DATA_PROCESSING: WHOLE RMassBank 1.9.6
PK$SPLASH: splash10-0a4i-2900000000-80c7b8b429b26dfbbfc6
PK$ANNOTATION: m/z tentative_formula formula_count mass error(ppm)
  50.0152 C4H2+ 1 50.0151 2.17
  51.023 C4H3+ 1 51.0229 0.46
  53.0023 C3HO+ 1 53.0022 1.87
  53.0386 C4H5+ 1 53.0386 1.38
  57.0699 C4H9+ 1 57.0699 0.93
  65.0386 C5H5+ 1 65.0386 -0.41
  67.0542 C5H7+ 1 67.0542 -0.25
  77.0385 C6H5+ 1 77.0386 -0.47
  78.0464 C6H6+ 1 78.0464 0.36
  79.0542 C6H7+ 1 79.0542 -0.34
  80.0495 C5H6N+ 1 80.0495 -0.2
  81.0335 C5H5O+ 1 81.0335 -0.14
  93.0573 C6H7N+ 1 93.0573 -0.11
  94.0413 C6H6O+ 1 94.0413 0.04
  94.065 C6H8N+ 1 94.0651 -1.02
  95.0491 C6H7O+ 1 95.0491 -0.22
  104.0494 C7H6N+ 1 104.0495 -0.25
  105.0448 C6H5N2+ 1 105.0447 0.34
  106.0415 C7H6O+ 1 106.0413 1.36
  107.0491 C7H7O+ 1 107.0491 -0.11
  108.0442 C6H6NO+ 1 108.0444 -1.95
  122.06 C7H8NO+ 1 122.06 0
  133.0522 C8H7NO+ 1 133.0522 -0.11
PK$NUM_PEAK: 23
PK$PEAK: m/z int. rel.int.
  50.0152 567370.7 2
  51.023 283004.8 1
  53.0023 620768.9 2
  53.0386 1233370.2 4
  57.0699 2473557.5 8
  65.0386 1299601.9 4
  67.0542 1785143.9 6
  77.0385 10853202 39
  78.0464 465605.8 1
  79.0542 21056064 75
  80.0495 2232594.8 8
  81.0335 3174538.8 11
  93.0573 488356.6 1
  94.0413 2078050.5 7
  94.065 2606362.2 9
  95.0491 35919812 129
  104.0494 1831945.5 6
  105.0448 15811420 56
  106.0415 286252.6 1
  107.0491 277691392 999
  108.0442 2288779 8
  122.06 2563139 9
  133.0522 1598168.8 5
//
