ACCESSION: MSBNK-Eawag-EQ01121552
RECORD_TITLE: Chlorfluazuron; LC-ESI-QFT; MS2; CE: 30%; R=17500; [M-H]-
DATE: 2023.04.27
AUTHORS: B. Beck [dtc,com], J. Hollender [dtc]
LICENSE: CC BY-SA
COPYRIGHT: Copyright (C) Eawag 2023
COMMENT: CONFIDENCE standard compound
COMMENT: UCHEM_ID 11215
CH$NAME: Chlorfluazuron
CH$NAME: N-[[3,5-dichloro-4-[3-chloro-5-(trifluoromethyl)pyridin-2-yl]oxyphenyl]carbamoyl]-2,6-difluorobenzamide
CH$COMPOUND_CLASS: N/A; Environmental Standard
CH$FORMULA: C20H9Cl3F5N3O3
CH$EXACT_MASS: 538.9630
CH$SMILES: C1=CC(=C(C(=C1)F)C(=O)NC(=O)NC2=CC(=C(C(=C2)Cl)OC3=C(C=C(C=N3)C(F)(F)F)Cl)Cl)F
CH$IUPAC: InChI=1S/C20H9Cl3F5N3O3/c21-10-5-9(30-19(33)31-17(32)15-13(24)2-1-3-14(15)25)6-11(22)16(10)34-18-12(23)4-8(7-29-18)20(26,27)28/h1-7H,(H2,30,31,32,33)
CH$LINK: CAS 71422-67-8
CH$LINK: CHEBI CHEBI:39370
CH$LINK: KEGG C18426
CH$LINK: PUBCHEM CID:91708
CH$LINK: INCHIKEY UISUNVFOGSJSKD-UHFFFAOYSA-N
CH$LINK: CHEMSPIDER 82810
AC$INSTRUMENT: Exploris 240 Orbitrap Thermo Scientific
AC$INSTRUMENT_TYPE: LC-ESI-QFT
AC$MASS_SPECTROMETRY: MS_TYPE MS2
AC$MASS_SPECTROMETRY: ION_MODE NEGATIVE
AC$MASS_SPECTROMETRY: IONIZATION ESI
AC$MASS_SPECTROMETRY: FRAGMENTATION_MODE HCD
AC$MASS_SPECTROMETRY: COLLISION_ENERGY 30 % (nominal)
AC$MASS_SPECTROMETRY: RESOLUTION 17500
AC$MASS_SPECTROMETRY: MASS_RANGE_M/Z 56-570
AC$CHROMATOGRAPHY: COLUMN_NAME XBridge C18 3.5um, 2.1x50mm, Waters
AC$CHROMATOGRAPHY: FLOW_GRADIENT 90/10 at 0 min, 50/50 at 4 min, 5/95 at 17 min, 5/95 at 25 min, 90/10 at 25.1 min, 90/10 at 30 min
AC$CHROMATOGRAPHY: FLOW_RATE 200 uL/min
AC$CHROMATOGRAPHY: RETENTION_TIME 15.232 min
MS$FOCUSED_ION: BASE_PEAK 537.9557
MS$FOCUSED_ION: PRECURSOR_M/Z 537.9557
MS$FOCUSED_ION: PRECURSOR_TYPE [M-H]-
MS$DATA_PROCESSING: RECALIBRATE loess on assigned fragments and MS1
MS$DATA_PROCESSING: REANALYZE Peaks with additional N2/O included
MS$DATA_PROCESSING: WHOLE RMassBank 3.11.0.1
PK$SPLASH: splash10-0udi-0109020000-6f1c2f2f81769f44f639
PK$ANNOTATION: m/z tentative_formula formula_count mass error(ppm)
  136.0199 C7H3FNO- 2 136.0204 -3.93
  156.0267 C7H4F2NO- 2 156.0266 0.18
  174.9598 C6H3Cl2NO- 6 174.9597 0.51
  318.9648 C12H4Cl2F3N2O- 5 318.9658 -3.21
  338.9744 C14H6Cl2FN2O3- 6 338.9745 -0.22
  354.9424 C12H5Cl3F3N2O- 6 354.9425 -0.31
  445.9953 C20H5ClF4N3O3- 1 445.9961 -1.71
  517.9496 C20H7Cl3F4N3O3- 1 517.9495 0.22
PK$NUM_PEAK: 8
PK$PEAK: m/z int. rel.int.
  136.0199 85653.3 34
  156.0267 148340.2 59
  174.9598 213617.7 86
  318.9648 71635 28
  338.9744 107098.7 43
  354.9424 2478160 999
  445.9953 232350.8 93
  517.9496 756000.2 304
//
