ACCESSION: MSBNK-Eawag-EQ311701
RECORD_TITLE: Pretilachlor; LC-ESI-QFT; MS2; CE: 15; R=35000; [M+H]+
DATE: 2015.08.25
AUTHORS: Beck B, Stravs M, Schymanski E, Singer H, Department of Environmental Chemistry, Eawag
LICENSE: CC BY
COPYRIGHT: Copyright (C) 2015 Eawag, Duebendorf, Switzerland
COMMENT: CONFIDENCE standard compound
COMMENT: EAWAG_UCHEM_ID 3117
CH$NAME: Pretilachlor
CH$NAME: 2-chloranyl-N-(2,6-diethylphenyl)-N-(2-propoxyethyl)ethanamide
CH$COMPOUND_CLASS: N/A; Environmental Standard
CH$FORMULA: C17H26ClNO2
CH$EXACT_MASS: 311.16521
CH$SMILES: ClCC(=O)N(c1c(cccc1CC)CC)CCOCCC
CH$IUPAC: InChI=1S/C17H26ClNO2/c1-4-11-21-12-10-19(16(20)13-18)17-14(5-2)8-7-9-15(17)6-3/h7-9H,4-6,10-13H2,1-3H3
CH$LINK: CAS 51218-49-6
CH$LINK: KEGG C14517
CH$LINK: PUBCHEM CID:91644
CH$LINK: INCHIKEY YLPGTOIOYRQOHV-UHFFFAOYSA-N
CH$LINK: CHEMSPIDER 82747
CH$LINK: COMPTOX DTXSID8058112
AC$INSTRUMENT: Q Exactive Orbitrap Thermo Scientific
AC$INSTRUMENT_TYPE: LC-ESI-QFT
AC$MASS_SPECTROMETRY: MS_TYPE MS2
AC$MASS_SPECTROMETRY: ION_MODE POSITIVE
AC$MASS_SPECTROMETRY: IONIZATION ESI
AC$MASS_SPECTROMETRY: FRAGMENTATION_MODE HCD
AC$MASS_SPECTROMETRY: COLLISION_ENERGY 15 (nominal)
AC$MASS_SPECTROMETRY: RESOLUTION 35000
AC$CHROMATOGRAPHY: COLUMN_NAME XBridge C18 3.5um, 2.1x50mm, Waters
AC$CHROMATOGRAPHY: FLOW_GRADIENT 90/10 at 0 min, 50/50 at 4 min, 5/95 at 17 min, 5/95 at 25 min, 90/10 at 25.1 min, 90/10 at 30 min
AC$CHROMATOGRAPHY: FLOW_RATE 200 ul/min
AC$CHROMATOGRAPHY: RETENTION_TIME 14.4 min
AC$CHROMATOGRAPHY: SOLVENT A water with 0.1% formic acid
AC$CHROMATOGRAPHY: SOLVENT B methanol with 0.1% formic acid
MS$FOCUSED_ION: BASE_PEAK 312.173
MS$FOCUSED_ION: PRECURSOR_M/Z 312.1725
MS$FOCUSED_ION: PRECURSOR_TYPE [M+H]+
MS$DATA_PROCESSING: DEPROFILE Spline
MS$DATA_PROCESSING: RECALIBRATE loess on assigned fragments and MS1
MS$DATA_PROCESSING: REANALYZE Peaks with additional N2/O included
MS$DATA_PROCESSING: WHOLE RMassBank 1.9.6
PK$SPLASH: splash10-0udi-0091000000-8b919bb654be439bc07f
PK$ANNOTATION: m/z tentative_formula formula_count mass error(ppm)
  176.1436 C12H18N+ 1 176.1434 1.27
  252.1152 C14H19ClNO+ 2 252.115 0.88
  312.1726 C17H27ClNO2+ 1 312.1725 0.41
PK$NUM_PEAK: 3
PK$PEAK: m/z int. rel.int.
  176.1436 1088167.9 1
  252.1152 663209018.1 999
  312.1726 131074701.9 197
//
