ACCESSION: MSBNK-Eawag-EA065908
RECORD_TITLE: Oseltamivir carboxylate; LC-ESI-ITFT; MS2; CE: 15%; R=15000; [M+H]+
DATE: 2014.01.14
AUTHORS: Stravs M, Schymanski E, Singer H, Department of Environmental Chemistry, Eawag
LICENSE: CC BY
COPYRIGHT: Copyright (C) 2012 Eawag, Duebendorf, Switzerland
COMMENT: CONFIDENCE standard compound
COMMENT: EAWAG_UCHEM_ID 659
CH$NAME: Oseltamivir carboxylate
CH$NAME: (3R,4R,5S)-4-acetamido-5-amino-3-pentan-3-yloxycyclohexene-1-carboxylic acid
CH$COMPOUND_CLASS: N/A; Environmental Standard
CH$FORMULA: C14H24N2O4
CH$EXACT_MASS: 284.1736
CH$SMILES: CCC(CC)O[C@@H]1C=C(C[C@@H]([C@H]1NC(=O)C)N)C(=O)O
CH$IUPAC: InChI=1S/C14H24N2O4/c1-4-10(5-2)20-12-7-9(14(18)19)6-11(15)13(12)16-8(3)17/h7,10-13H,4-6,15H2,1-3H3,(H,16,17)(H,18,19)/t11-,12+,13+/m0/s1
CH$LINK: CAS 187227-45-8
CH$LINK: PUBCHEM CID:449381
CH$LINK: INCHIKEY NENPYTRHICXVCS-YNEHKIRRSA-N
CH$LINK: CHEMSPIDER 395929
CH$LINK: COMPTOX DTXSID50171996
AC$INSTRUMENT: LTQ Orbitrap XL Thermo Scientific
AC$INSTRUMENT_TYPE: LC-ESI-ITFT
AC$MASS_SPECTROMETRY: MS_TYPE MS2
AC$MASS_SPECTROMETRY: ION_MODE POSITIVE
AC$MASS_SPECTROMETRY: IONIZATION ESI
AC$MASS_SPECTROMETRY: FRAGMENTATION_MODE HCD
AC$MASS_SPECTROMETRY: COLLISION_ENERGY 15 % (nominal)
AC$MASS_SPECTROMETRY: RESOLUTION 15000
AC$CHROMATOGRAPHY: COLUMN_NAME XBridge C18 3.5um, 2.1x50mm, Waters
AC$CHROMATOGRAPHY: FLOW_GRADIENT 90/10 at 0 min, 50/50 at 4 min, 5/95 at 17 min, 5/95 at 25 min, 90/10 at 25.1 min, 90/10 at 30 min
AC$CHROMATOGRAPHY: FLOW_RATE 200 ul/min
AC$CHROMATOGRAPHY: RETENTION_TIME 5.1 min
AC$CHROMATOGRAPHY: SOLVENT A water with 0.1% formic acid
AC$CHROMATOGRAPHY: SOLVENT B methanol with 0.1% formic acid
MS$FOCUSED_ION: BASE_PEAK 285.1822
MS$FOCUSED_ION: PRECURSOR_M/Z 285.1809
MS$FOCUSED_ION: PRECURSOR_TYPE [M+H]+
MS$DATA_PROCESSING: DEPROFILE Spline
MS$DATA_PROCESSING: RECALIBRATE loess on assigned fragments and MS1
MS$DATA_PROCESSING: REANALYZE Peaks with additional N2/O included
MS$DATA_PROCESSING: WHOLE RMassBank 1.3.1
PK$SPLASH: splash10-000b-0960000000-f7583fdf5396115adbb3
PK$ANNOTATION: m/z tentative_formula formula_count mass error(ppm)
  93.0575 C6H7N+ 1 93.0573 1.6
  94.0651 C6H8N+ 1 94.0651 -0.49
  120.0445 C7H6NO+ 1 120.0444 1.08
  136.0758 C8H10NO+ 1 136.0757 0.73
  137.071 C7H9N2O+ 1 137.0709 0.08
  138.0551 C7H8NO2+ 1 138.055 1.12
  139.0386 C7H7O3+ 1 139.039 -2.45
  162.0549 C9H8NO2+ 1 162.055 -0.03
  179.0814 C9H11N2O2+ 1 179.0815 -0.47
  180.0657 C9H10NO3+ 1 180.0655 1
  197.0924 C9H13N2O3+ 1 197.0921 1.43
  198.0762 C9H12NO4+ 1 198.0761 0.43
  215.1028 C9H15N2O4+ 1 215.1026 0.91
  268.1544 C14H22NO4+ 1 268.1543 0.39
  285.1812 C14H25N2O4+ 1 285.1809 1.21
PK$NUM_PEAK: 15
PK$PEAK: m/z int. rel.int.
  93.0575 5191.7 1
  94.0651 56486.8 18
  120.0445 59596.7 19
  136.0758 8079.3 2
  137.071 49274.4 15
  138.0551 814097.3 264
  139.0386 7338.8 2
  162.0549 19896.9 6
  179.0814 43055.7 13
  180.0657 839568.9 272
  197.0924 3076919.2 999
  198.0762 342632.3 111
  215.1028 1005613.6 326
  268.1544 460028.6 149
  285.1812 2365850 768
//
