ACCESSION: MSBNK-Eawag-EQ359709
RECORD_TITLE: Benzyl-butyl-phthalate; LC-ESI-QFT; MS2; CE: 180; R=35000; [M+H]+
DATE: 2015.08.25
AUTHORS: Stravs M, Schymanski E, Singer H, Department of Environmental Chemistry, Eawag and Thomaidis N, University of Athens
LICENSE: CC BY
COPYRIGHT: Copyright (C) 2015 Eawag, Duebendorf, Switzerland
COMMENT: CONFIDENCE standard compound
COMMENT: EAWAG_UCHEM_ID 3597
CH$NAME: Benzyl-butyl-phthalate
CH$NAME: Butylbenzyl phthalate
CH$NAME: 1,2-Benzenedicarboxylic acid, butyl phenylmethyl ester
CH$COMPOUND_CLASS: N/A; Environmental Standard
CH$FORMULA: C19H20O4
CH$EXACT_MASS: 312.13616
CH$SMILES: CCCCOC(=O)C1=CC=CC=C1C(=O)OCC2=CC=CC=C2
CH$IUPAC: InChI=1S/C19H20O4/c1-2-3-13-22-18(20)16-11-7-8-12-17(16)19(21)23-14-15-9-5-4-6-10-15/h4-12H,2-3,13-14H2,1H3
CH$LINK: CAS 85-68-7
CH$LINK: CHEBI CHEBI:34595
CH$LINK: KEGG C14211
CH$LINK: PUBCHEM CID:2347
CH$LINK: INCHIKEY IRIAEXORFWYRCZ-UHFFFAOYSA-N
CH$LINK: CHEMSPIDER 2257
CH$LINK: COMPTOX DTXSID3020205
AC$INSTRUMENT: Q Exactive Plus Orbitrap Thermo Scientific
AC$INSTRUMENT_TYPE: LC-ESI-QFT
AC$MASS_SPECTROMETRY: MS_TYPE MS2
AC$MASS_SPECTROMETRY: ION_MODE POSITIVE
AC$MASS_SPECTROMETRY: IONIZATION ESI
AC$MASS_SPECTROMETRY: FRAGMENTATION_MODE HCD
AC$MASS_SPECTROMETRY: COLLISION_ENERGY 180 (nominal)
AC$MASS_SPECTROMETRY: RESOLUTION 35000
AC$CHROMATOGRAPHY: COLUMN_NAME XBridge C18 3.5um, 2.1x50mm, Waters
AC$CHROMATOGRAPHY: FLOW_GRADIENT 90/10 at 0 min, 50/50 at 4 min, 5/95 at 17 min, 5/95 at 25 min, 90/10 at 25.1 min, 90/10 at 30 min
AC$CHROMATOGRAPHY: FLOW_RATE 200 ul/min
AC$CHROMATOGRAPHY: RETENTION_TIME 14.2 min
AC$CHROMATOGRAPHY: SOLVENT A water with 0.1% formic acid
AC$CHROMATOGRAPHY: SOLVENT B methanol with 0.1% formic acid
MS$FOCUSED_ION: BASE_PEAK 313.1424
MS$FOCUSED_ION: PRECURSOR_M/Z 313.1434
MS$FOCUSED_ION: PRECURSOR_TYPE [M+H]+
MS$DATA_PROCESSING: RECALIBRATE loess on assigned fragments and MS1
MS$DATA_PROCESSING: REANALYZE Peaks with additional N2/O included
MS$DATA_PROCESSING: WHOLE RMassBank 1.9.6
PK$SPLASH: splash10-014i-9000000000-40a279b2f37d5f47ba08
PK$ANNOTATION: m/z tentative_formula formula_count mass error(ppm)
  50.0151 C4H2+ 1 50.0151 0.57
  51.0229 C4H3+ 1 51.0229 0.26
  53.0022 C3HO+ 1 53.0022 -0.02
  53.9974 C2NO+ 1 53.9974 -0.19
  54.01 C3H2O+ 1 54.01 -0.67
  61.0072 C5H+ 1 61.0073 -0.43
  62.0151 C5H2+ 1 62.0151 -0.35
  63.0229 C5H3+ 1 63.0229 -0.26
  64.0306 C5H4+ 1 64.0308 -2.05
  65.0386 C5H5+ 1 65.0386 -0.41
  67.9892 C3O2+ 1 67.9893 -0.89
  74.015 C6H2+ 1 74.0151 -1.51
  75.0227 C6H3+ 1 75.0229 -2.49
  79.0177 C5H3O+ 1 79.0178 -2.04
  89.0385 C7H5+ 1 89.0386 -0.75
  90.0463 C7H6+ 1 90.0464 -0.68
  91.0542 C7H7+ 1 91.0542 -0.07
PK$NUM_PEAK: 17
PK$PEAK: m/z int. rel.int.
  50.0151 2299604.8 90
  51.0229 2285552.8 89
  53.0022 2035185 80
  53.9974 452303.3 17
  54.01 25902.9 1
  61.0072 840346 33
  62.0151 2340963 92
  63.0229 4819106.5 189
  64.0306 47331.8 1
  65.0386 25412372 999
  67.9892 326967.3 12
  74.015 145853.3 5
  75.0227 29079.5 1
  79.0177 102787.4 4
  89.0385 208979.8 8
  90.0463 39011.7 1
  91.0542 6725966 264
//
