ACCESSION: MSBNK-Eawag-EQ302803
RECORD_TITLE: Tiapride; LC-ESI-QFT; MS2; CE: 45; R=35000; [M+H]+
DATE: 2015.08.25
AUTHORS: Beck B, Stravs M, Schymanski E, Singer H, Department of Environmental Chemistry, Eawag
LICENSE: CC BY
COPYRIGHT: Copyright (C) 2015 Eawag, Duebendorf, Switzerland
COMMENT: CONFIDENCE standard compound
COMMENT: EAWAG_UCHEM_ID 3028
CH$NAME: Tiapride
CH$NAME: N-(2-diethylaminoethyl)-2-methoxy-5-methylsulfonyl-benzamide
CH$COMPOUND_CLASS: N/A; Environmental Standard
CH$FORMULA: C15H24N2O4S
CH$EXACT_MASS: 328.14568
CH$SMILES: CCN(CC)CCNC(=O)C1=C(C=CC(=C1)S(=O)(=O)C)OC
CH$IUPAC: InChI=1S/C15H24N2O4S/c1-5-17(6-2)10-9-16-15(18)13-11-12(22(4,19)20)7-8-14(13)21-3/h7-8,11H,5-6,9-10H2,1-4H3,(H,16,18)
CH$LINK: CAS 51012-32-9
CH$LINK: PUBCHEM CID:5467
CH$LINK: INCHIKEY JTVPZMFULRWINT-UHFFFAOYSA-N
CH$LINK: CHEMSPIDER 5268
CH$LINK: COMPTOX DTXSID0023664
AC$INSTRUMENT: Q Exactive Orbitrap Thermo Scientific
AC$INSTRUMENT_TYPE: LC-ESI-QFT
AC$MASS_SPECTROMETRY: MS_TYPE MS2
AC$MASS_SPECTROMETRY: ION_MODE POSITIVE
AC$MASS_SPECTROMETRY: IONIZATION ESI
AC$MASS_SPECTROMETRY: FRAGMENTATION_MODE HCD
AC$MASS_SPECTROMETRY: COLLISION_ENERGY 45 (nominal)
AC$MASS_SPECTROMETRY: RESOLUTION 35000
AC$CHROMATOGRAPHY: COLUMN_NAME XBridge C18 3.5um, 2.1x50mm, Waters
AC$CHROMATOGRAPHY: FLOW_GRADIENT 90/10 at 0 min, 50/50 at 4 min, 5/95 at 17 min, 5/95 at 25 min, 90/10 at 25.1 min, 90/10 at 30 min
AC$CHROMATOGRAPHY: FLOW_RATE 200 ul/min
AC$CHROMATOGRAPHY: RETENTION_TIME 2.6 min
AC$CHROMATOGRAPHY: SOLVENT A water with 0.1% formic acid
AC$CHROMATOGRAPHY: SOLVENT B methanol with 0.1% formic acid
MS$FOCUSED_ION: BASE_PEAK 329.1529
MS$FOCUSED_ION: PRECURSOR_M/Z 329.153
MS$FOCUSED_ION: PRECURSOR_TYPE [M+H]+
MS$DATA_PROCESSING: DEPROFILE Spline
MS$DATA_PROCESSING: RECALIBRATE loess on assigned fragments and MS1
MS$DATA_PROCESSING: REANALYZE Peaks with additional N2/O included
MS$DATA_PROCESSING: WHOLE RMassBank 1.9.6
PK$SPLASH: splash10-0a4i-0090000000-fb4e4eea413d32fc6219
PK$ANNOTATION: m/z tentative_formula formula_count mass error(ppm)
  72.0807 C4H10N+ 1 72.0808 -1.19
  74.0964 C4H12N+ 1 74.0964 -0.75
  100.112 C6H14N+ 1 100.1121 -0.26
  133.0521 C8H7NO+ 1 133.0522 -0.64
  134.06 C8H8NO+ 1 134.06 -0.38
  177.078 C10H11NO2+ 1 177.0784 -2.2
  185.0267 C8H9O3S+ 2 185.0267 -0.01
  209.0683 C10H11NO4+ 1 209.0683 0.15
  212.0375 C9H10NO3S+ 2 212.0376 -0.24
  213.0215 C9H9O4S+ 2 213.0216 -0.45
  226.0171 C9H8NO4S+ 2 226.0169 1.26
  230.048 C9H12NO4S+ 2 230.0482 -0.63
  241.0402 C10H11NO4S+ 1 241.0403 -0.75
  256.0637 C11H14NO4S+ 1 256.0638 -0.41
  329.1534 C15H25N2O4S+ 1 329.153 1.23
PK$NUM_PEAK: 15
PK$PEAK: m/z int. rel.int.
  72.0807 636976.3 2
  74.0964 5470821.1 23
  100.112 5868683.7 25
  133.0521 3082185 13
  134.06 1161660.8 5
  177.078 5150804.8 22
  185.0267 557084 2
  209.0683 1951545.4 8
  212.0375 32534543 141
  213.0215 48135663.1 209
  226.0171 432497 1
  230.048 2243174.4 9
  241.0402 3536312.2 15
  256.0637 229939270.3 999
  329.1534 527869.2 2
//
