ACCESSION: MSBNK-Eawag-EA013503
RECORD_TITLE: Metalaxyl; LC-ESI-ITFT; MS2; CE: 30%; R=7500; [M+H]+
DATE: 2014.01.14
AUTHORS: Stravs M, Schymanski E, Singer H, Department of Environmental Chemistry, Eawag
LICENSE: CC BY
COPYRIGHT: Copyright (C) 2012 Eawag, Duebendorf, Switzerland
COMMENT: CONFIDENCE standard compound
COMMENT: EAWAG_UCHEM_ID 135
CH$NAME: Metalaxyl
CH$NAME: 2-(N-(2-methoxy-1-oxoethyl)-2,6-dimethylanilino)propanoic acid methyl ester
CH$COMPOUND_CLASS: N/A; Environmental Standard
CH$FORMULA: C15H21NO4
CH$EXACT_MASS: 279.1465
CH$SMILES: CC1=C(C(=CC=C1)C)N(C(C)C(=O)OC)C(=O)COC
CH$IUPAC: InChI=1S/C15H21NO4/c1-10-7-6-8-11(2)14(10)16(13(17)9-19-4)12(3)15(18)20-5/h6-8,12H,9H2,1-5H3
CH$LINK: CAS 57837-19-1
CH$LINK: KEGG C10947
CH$LINK: PUBCHEM CID:42856
CH$LINK: INCHIKEY ZQEIXNIJLIKNTD-UHFFFAOYSA-N
CH$LINK: CHEMSPIDER 38839
CH$LINK: COMPTOX DTXSID6024175
AC$INSTRUMENT: LTQ Orbitrap XL Thermo Scientific
AC$INSTRUMENT_TYPE: LC-ESI-ITFT
AC$MASS_SPECTROMETRY: MS_TYPE MS2
AC$MASS_SPECTROMETRY: ION_MODE POSITIVE
AC$MASS_SPECTROMETRY: IONIZATION ESI
AC$MASS_SPECTROMETRY: FRAGMENTATION_MODE HCD
AC$MASS_SPECTROMETRY: COLLISION_ENERGY 30 % (nominal)
AC$MASS_SPECTROMETRY: RESOLUTION 7500
AC$CHROMATOGRAPHY: COLUMN_NAME XBridge C18 3.5um, 2.1x50mm, Waters
AC$CHROMATOGRAPHY: FLOW_GRADIENT 90/10 at 0 min, 50/50 at 4 min, 5/95 at 17 min, 5/95 at 25 min, 90/10 at 25.1 min, 90/10 at 30 min
AC$CHROMATOGRAPHY: FLOW_RATE 200 ul/min
AC$CHROMATOGRAPHY: RETENTION_TIME 8.7 min
AC$CHROMATOGRAPHY: SOLVENT A water with 0.1% formic acid
AC$CHROMATOGRAPHY: SOLVENT B methanol with 0.1% formic acid
MS$FOCUSED_ION: BASE_PEAK 302.1365
MS$FOCUSED_ION: PRECURSOR_M/Z 280.1543
MS$FOCUSED_ION: PRECURSOR_TYPE [M+H]+
MS$DATA_PROCESSING: DEPROFILE Spline
MS$DATA_PROCESSING: RECALIBRATE loess on assigned fragments and MS1
MS$DATA_PROCESSING: REANALYZE Peaks with additional N2/O included
MS$DATA_PROCESSING: WHOLE RMassBank 1.3.1
PK$SPLASH: splash10-006x-0970000000-d0bbdb2f36069fe95a29
PK$ANNOTATION: m/z tentative_formula formula_count mass error(ppm)
  133.0883 C9H11N+ 1 133.0886 -2.49
  134.096 C9H12N+ 1 134.0964 -2.95
  146.0961 C10H12N+ 1 146.0964 -2.16
  148.112 C10H14N+ 1 148.1121 -0.24
  160.112 C11H14N+ 1 160.1121 -0.29
  162.1275 C11H16N+ 1 162.1277 -1.52
  165.1149 C10H15NO+ 1 165.1148 0.45
  188.1068 C12H14NO+ 1 188.107 -0.96
  192.1384 C12H18NO+ 1 192.1383 0.41
  208.1329 C12H18NO2+ 1 208.1332 -1.56
  220.1333 C13H18NO2+ 1 220.1332 0.2
  248.1278 C14H18NO3+ 1 248.1281 -1.29
  252.1584 C14H22NO3+ 1 252.1594 -4.12
  280.1541 C15H22NO4+ 1 280.1543 -0.77
PK$NUM_PEAK: 14
PK$PEAK: m/z int. rel.int.
  133.0883 11915.4 3
  134.096 27504.5 7
  146.0961 19715.9 5
  148.112 392031.1 104
  160.112 737817.7 196
  162.1275 61376.2 16
  165.1149 71864.3 19
  188.1068 35251.3 9
  192.1384 3756829.1 999
  208.1329 27821.3 7
  220.1333 3514335.2 934
  248.1278 430271.3 114
  252.1584 22404.4 5
  280.1541 194350.2 51
//
