ACCESSION: MSBNK-Eawag-EA271105
RECORD_TITLE: Pirimicarb; LC-ESI-ITFT; MS2; CE: 60%; R=7500; [M+H]+
DATE: 2014.01.14
AUTHORS: Stravs M, Schymanski E, Singer H, Department of Environmental Chemistry, Eawag
LICENSE: CC BY
COPYRIGHT: Copyright (C) 2012 Eawag, Duebendorf, Switzerland
COMMENT: CONFIDENCE standard compound
COMMENT: EAWAG_UCHEM_ID 2711
CH$NAME: Pirimicarb
CH$NAME: N,N-dimethylcarbamic acid [2-(dimethylamino)-5,6-dimethyl-4-pyrimidinyl] ester
CH$COMPOUND_CLASS: N/A; Environmental Standard
CH$FORMULA: C11H18N4O2
CH$EXACT_MASS: 238.1430
CH$SMILES: n(c(c(C)c1OC(=O)N(C)C)C)c(n1)N(C)C
CH$IUPAC: InChI=1S/C11H18N4O2/c1-7-8(2)12-10(14(3)4)13-9(7)17-11(16)15(5)6/h1-6H3
CH$LINK: CAS 23103-98-2
CH$LINK: CHEBI CHEBI:8248
CH$LINK: KEGG C11079
CH$LINK: PUBCHEM CID:31645
CH$LINK: INCHIKEY YFGYUFNIOHWBOB-UHFFFAOYSA-N
CH$LINK: CHEMSPIDER 29348
CH$LINK: COMPTOX DTXSID1032569
AC$INSTRUMENT: LTQ Orbitrap XL Thermo Scientific
AC$INSTRUMENT_TYPE: LC-ESI-ITFT
AC$MASS_SPECTROMETRY: MS_TYPE MS2
AC$MASS_SPECTROMETRY: ION_MODE POSITIVE
AC$MASS_SPECTROMETRY: IONIZATION ESI
AC$MASS_SPECTROMETRY: FRAGMENTATION_MODE HCD
AC$MASS_SPECTROMETRY: COLLISION_ENERGY 60 % (nominal)
AC$MASS_SPECTROMETRY: RESOLUTION 7500
AC$CHROMATOGRAPHY: COLUMN_NAME XBridge C18 3.5um, 2.1x50mm, Waters
AC$CHROMATOGRAPHY: FLOW_GRADIENT 90/10 at 0 min, 50/50 at 4 min, 5/95 at 17 min, 5/95 at 25 min, 90/10 at 25.1 min, 90/10 at 30 min
AC$CHROMATOGRAPHY: FLOW_RATE 200 ul/min
AC$CHROMATOGRAPHY: RETENTION_TIME 5.0 min
AC$CHROMATOGRAPHY: SOLVENT A water with 0.1% formic acid
AC$CHROMATOGRAPHY: SOLVENT B methanol with 0.1% formic acid
MS$FOCUSED_ION: BASE_PEAK 239.1506
MS$FOCUSED_ION: PRECURSOR_M/Z 239.1503
MS$FOCUSED_ION: PRECURSOR_TYPE [M+H]+
MS$DATA_PROCESSING: DEPROFILE Spline
MS$DATA_PROCESSING: RECALIBRATE loess on assigned fragments and MS1
MS$DATA_PROCESSING: REANALYZE Peaks with additional N2/O included
MS$DATA_PROCESSING: WHOLE RMassBank 1.3.1
PK$SPLASH: splash10-00di-9500000000-162981c84f076e6f8c42
PK$ANNOTATION: m/z tentative_formula formula_count mass error(ppm)
  72.0444 C3H6NO+ 1 72.0444 0.27
  83.0239 C3H3N2O+ 1 83.024 -0.83
  85.076 C4H9N2+ 1 85.076 -0.53
  109.076 C6H9N2+ 1 109.076 -0.41
  137.0709 C7H9N2O+ 1 137.0709 -0.58
  138.0788 C7H10N2O+ 1 138.0788 0.55
  150.1026 C8H12N3+ 1 150.1026 -0.09
  152.082 C7H10N3O+ 1 152.0818 1.13
  166.0976 C8H12N3O+ 1 166.0975 0.91
  167.1055 C8H13N3O+ 1 167.1053 0.88
  168.1128 C8H14N3O+ 1 168.1131 -1.78
  182.1287 C9H16N3O+ 1 182.1288 -0.43
  195.1607 C10H19N4+ 1 195.1604 1.47
PK$NUM_PEAK: 13
PK$PEAK: m/z int. rel.int.
  72.0444 9597254.8 999
  83.0239 154479.9 16
  85.076 742211.2 77
  109.076 461049.7 47
  137.0709 632569.2 65
  138.0788 214567.4 22
  150.1026 485025.8 50
  152.082 96816.4 10
  166.0976 26794.4 2
  167.1055 272963.3 28
  168.1128 18676.7 1
  182.1287 3785988.5 394
  195.1607 156168.5 16
//
