ACCESSION: MSBNK-Eawag-EQ313753
RECORD_TITLE: Lansoprazole; LC-ESI-QFT; MS2; CE: 45; R=35000; [M-H]-
DATE: 2015.08.26
AUTHORS: Beck B, Stravs M, Schymanski E, Singer H, Department of Environmental Chemistry, Eawag
LICENSE: CC BY
COPYRIGHT: Copyright (C) 2015 Eawag, Duebendorf, Switzerland
COMMENT: CONFIDENCE standard compound
COMMENT: EAWAG_UCHEM_ID 3137
CH$NAME: Lansoprazole
CH$NAME: 2-[[3-methyl-4-(2,2,2-trifluoroethoxy)pyridin-2-yl]methylsulfinyl]-1H-benzimidazole
CH$COMPOUND_CLASS: N/A; Environmental Standard
CH$FORMULA: C16H14F3N3O2S
CH$EXACT_MASS: 369.07588
CH$SMILES: Cc1c(ccnc1CS(=O)c2[nH]c3ccccc3n2)OCC(F)(F)F
CH$IUPAC: InChI=1S/C16H14F3N3O2S/c1-10-13(20-7-6-14(10)24-9-16(17,18)19)8-25(23)15-21-11-4-2-3-5-12(11)22-15/h2-7H,8-9H2,1H3,(H,21,22)
CH$LINK: CAS 103577-45-3
CH$LINK: CHEBI CHEBI:6375
CH$LINK: PUBCHEM CID:3883
CH$LINK: INCHIKEY MJIHNNLFOKEZEW-UHFFFAOYSA-N
CH$LINK: CHEMSPIDER 3746
CH$LINK: COMPTOX DTXSID4023200
AC$INSTRUMENT: Q Exactive Plus Orbitrap Thermo Scientific
AC$INSTRUMENT_TYPE: LC-ESI-QFT
AC$MASS_SPECTROMETRY: MS_TYPE MS2
AC$MASS_SPECTROMETRY: ION_MODE NEGATIVE
AC$MASS_SPECTROMETRY: IONIZATION ESI
AC$MASS_SPECTROMETRY: FRAGMENTATION_MODE HCD
AC$MASS_SPECTROMETRY: COLLISION_ENERGY 45 (nominal)
AC$MASS_SPECTROMETRY: RESOLUTION 35000
AC$CHROMATOGRAPHY: COLUMN_NAME XBridge C18 3.5um, 2.1x50mm, Waters
AC$CHROMATOGRAPHY: FLOW_GRADIENT 90/10 at 0 min, 50/50 at 4 min, 5/95 at 17 min, 5/95 at 25 min, 90/10 at 25.1 min, 90/10 at 30 min
AC$CHROMATOGRAPHY: FLOW_RATE 200 ul/min
AC$CHROMATOGRAPHY: RETENTION_TIME 7.4 min
AC$CHROMATOGRAPHY: SOLVENT A water with 0.1% formic acid
AC$CHROMATOGRAPHY: SOLVENT B methanol with 0.1% formic acid
MS$FOCUSED_ION: BASE_PEAK 368.068
MS$FOCUSED_ION: PRECURSOR_M/Z 368.0686
MS$FOCUSED_ION: PRECURSOR_TYPE [M-H]-
MS$DATA_PROCESSING: RECALIBRATE loess on assigned fragments and MS1
MS$DATA_PROCESSING: REANALYZE Peaks with additional N2/O included
MS$DATA_PROCESSING: WHOLE RMassBank 1.9.6
PK$SPLASH: splash10-03di-0900000000-0bb1e54ec8c7d6bb5746
PK$ANNOTATION: m/z tentative_formula formula_count mass error(ppm)
  106.0172 C5H2N2O- 1 106.0173 -0.2
  116.038 C7H4N2- 1 116.038 -0.32
  120.9991 C6H3NS- 1 120.9992 -0.4
  132.0329 C7H4N2O- 1 132.0329 -0.39
  149.0179 C7H5N2S- 1 149.0179 -0.29
  162.9972 C7H3N2OS- 1 162.9972 0.45
  164.005 C7H4N2OS- 1 164.005 0.05
  165.0131 C7H5N2OS- 1 165.0128 1.65
PK$NUM_PEAK: 8
PK$PEAK: m/z int. rel.int.
  106.0172 257370.2 2
  116.038 1113079.6 10
  120.9991 271661.8 2
  132.0329 1134008.2 10
  149.0179 836404.6 7
  162.9972 623161.1 5
  164.005 110749328 999
  165.0131 152214 1
//
