ACCESSION: MSBNK-Eawag-EQ01122601
RECORD_TITLE: Demeton-S-Methyl Sulfone; LC-ESI-QFT; MS2; CE: 15%; R=17500; [M+H]+
DATE: 2023.04.27
AUTHORS: B. Beck [dtc,com], J. Hollender [dtc]
LICENSE: CC BY-SA
COPYRIGHT: Copyright (C) Eawag 2023
COMMENT: CONFIDENCE standard compound
COMMENT: UCHEM_ID 11226
CH$NAME: Demeton-S-Methyl Sulfone
CH$NAME: Demeton-S-methylsulphon
CH$NAME: 1-dimethoxyphosphorylsulfanyl-2-ethylsulfonylethane
CH$COMPOUND_CLASS: N/A; Environmental Standard
CH$FORMULA: C6H15O5PS2
CH$EXACT_MASS: 262.0099
CH$SMILES: CCS(=O)(=O)CCSP(=O)(OC)OC
CH$IUPAC: InChI=1S/C6H15O5PS2/c1-4-14(8,9)6-5-13-12(7,10-2)11-3/h4-6H2,1-3H3
CH$LINK: CAS 17040-19-6
CH$LINK: CHEBI CHEBI:82118
CH$LINK: KEGG C18979
CH$LINK: PUBCHEM CID:28213
CH$LINK: INCHIKEY PZIRJMYRYORVIT-UHFFFAOYSA-N
CH$LINK: CHEMSPIDER 26248
AC$INSTRUMENT: Exploris 240 Orbitrap Thermo Scientific
AC$INSTRUMENT_TYPE: LC-ESI-QFT
AC$MASS_SPECTROMETRY: MS_TYPE MS2
AC$MASS_SPECTROMETRY: ION_MODE POSITIVE
AC$MASS_SPECTROMETRY: IONIZATION ESI
AC$MASS_SPECTROMETRY: FRAGMENTATION_MODE HCD
AC$MASS_SPECTROMETRY: COLLISION_ENERGY 15 % (nominal)
AC$MASS_SPECTROMETRY: RESOLUTION 17500
AC$MASS_SPECTROMETRY: MASS_RANGE_M/Z 50-289
AC$CHROMATOGRAPHY: COLUMN_NAME XBridge C18 3.5um, 2.1x50mm, Waters
AC$CHROMATOGRAPHY: FLOW_GRADIENT 90/10 at 0 min, 50/50 at 4 min, 5/95 at 17 min, 5/95 at 25 min, 90/10 at 25.1 min, 90/10 at 30 min
AC$CHROMATOGRAPHY: FLOW_RATE 200 uL/min
AC$CHROMATOGRAPHY: RETENTION_TIME 2.945 min
MS$FOCUSED_ION: BASE_PEAK 263.0169
MS$FOCUSED_ION: PRECURSOR_M/Z 263.0171
MS$FOCUSED_ION: PRECURSOR_TYPE [M+H]+
MS$DATA_PROCESSING: RECALIBRATE loess on assigned fragments and MS1
MS$DATA_PROCESSING: REANALYZE Peaks with additional N2/O included
MS$DATA_PROCESSING: WHOLE RMassBank 3.11.0.1
PK$SPLASH: splash10-03di-0090000000-69d15a3969ec38944e10
PK$ANNOTATION: m/z tentative_formula formula_count mass error(ppm)
  121.0316 C4H9O2S+ 1 121.0318 -1.09
  142.9924 C2H8O3PS+ 1 142.9926 -1.28
  169.0083 C4H10O3PS+ 1 169.0083 -0.15
  230.9912 C5H12O4PS2+ 1 230.9909 1.13
  263.017 C6H16O5PS2+ 1 263.0171 -0.35
PK$NUM_PEAK: 5
PK$PEAK: m/z int. rel.int.
  121.0316 10647983 29
  142.9924 1883804.5 5
  169.0083 19244678 53
  230.9912 10741884 29
  263.017 359488512 999
//
