ACCESSION: MSBNK-Eawag-EQ01138605
RECORD_TITLE: Penflufen; LC-ESI-QFT; MS2; CE: 75%; R=17500; [M+H]+
DATE: 2023.04.27
AUTHORS: B. Beck [dtc,com], J. Hollender [dtc]
LICENSE: CC BY-SA
COPYRIGHT: Copyright (C) Eawag 2023
COMMENT: CONFIDENCE standard compound
COMMENT: UCHEM_ID 11386
CH$NAME: Penflufen
CH$NAME: 5-fluoro-1,3-dimethyl-N-[2-(4-methylpentan-2-yl)phenyl]pyrazole-4-carboxamide
CH$COMPOUND_CLASS: N/A; Environmental Standard
CH$FORMULA: C18H24FN3O
CH$EXACT_MASS: 317.1903
CH$SMILES: CC1=NN(C(=C1C(=O)NC2=CC=CC=C2C(C)CC(C)C)F)C
CH$IUPAC: InChI=1S/C18H24FN3O/c1-11(2)10-12(3)14-8-6-7-9-15(14)20-18(23)16-13(4)21-22(5)17(16)19/h6-9,11-12H,10H2,1-5H3,(H,20,23)
CH$LINK: CAS 494793-67-8
CH$LINK: CHEBI CHEBI:83134
CH$LINK: PUBCHEM CID:11674113
CH$LINK: INCHIKEY GOFJDXZZHFNFLV-UHFFFAOYSA-N
CH$LINK: CHEMSPIDER 9848842
AC$INSTRUMENT: Exploris 240 Orbitrap Thermo Scientific
AC$INSTRUMENT_TYPE: LC-ESI-QFT
AC$MASS_SPECTROMETRY: MS_TYPE MS2
AC$MASS_SPECTROMETRY: ION_MODE POSITIVE
AC$MASS_SPECTROMETRY: IONIZATION ESI
AC$MASS_SPECTROMETRY: FRAGMENTATION_MODE HCD
AC$MASS_SPECTROMETRY: COLLISION_ENERGY 75 % (nominal)
AC$MASS_SPECTROMETRY: RESOLUTION 17500
AC$MASS_SPECTROMETRY: MASS_RANGE_M/Z 50-346
AC$CHROMATOGRAPHY: COLUMN_NAME XBridge C18 3.5um, 2.1x50mm, Waters
AC$CHROMATOGRAPHY: FLOW_GRADIENT 90/10 at 0 min, 50/50 at 4 min, 5/95 at 17 min, 5/95 at 25 min, 90/10 at 25.1 min, 90/10 at 30 min
AC$CHROMATOGRAPHY: FLOW_RATE 200 uL/min
AC$CHROMATOGRAPHY: RETENTION_TIME 10.753 min
MS$FOCUSED_ION: BASE_PEAK 306.1031
MS$FOCUSED_ION: PRECURSOR_M/Z 318.1976
MS$FOCUSED_ION: PRECURSOR_TYPE [M+H]+
MS$DATA_PROCESSING: RECALIBRATE loess on assigned fragments and MS1
MS$DATA_PROCESSING: REANALYZE Peaks with additional N2/O included
MS$DATA_PROCESSING: WHOLE RMassBank 3.11.0.1
PK$SPLASH: splash10-0006-0900000000-a25d74b84e83ba83c6cd
PK$ANNOTATION: m/z tentative_formula formula_count mass error(ppm)
  57.0699 C4H9+ 1 57.0699 -0.45
  60.0243 C2H3FN+ 1 60.0244 -1.11
  84.0242 C4H3FN+ 1 84.0244 -2.23
  85.0448 C5H6F+ 1 85.0448 0.4
  92.0494 C6H6N+ 1 92.0495 -0.46
  115.0666 C5H8FN2+ 1 115.0666 -0.19
  120.044 C7H6NO+ 1 120.0444 -3.43
  141.0457 C6H6FN2O+ 1 141.0459 -1.04
PK$NUM_PEAK: 8
PK$PEAK: m/z int. rel.int.
  57.0699 4276968.5 21
  60.0243 1714832.2 8
  84.0242 1955936.5 9
  85.0448 1788831.2 8
  92.0494 1656932.6 8
  115.0666 8349364 41
  120.044 1157106.8 5
  141.0457 202741616 999
//
