ACCESSION: MSBNK-Eawag-EQ01108109
RECORD_TITLE: 1,4-Cyclohexanedicarboxylic acid; LC-ESI-QFT; MS2; CE: 180%; R=15000; [M+H]+
DATE: 2024.06.14
AUTHORS: F. Jud [dtc], K. Arturi [dtc], J. Hollender [dtc], A. Dax [com]
LICENSE: CC BY-SA
COPYRIGHT: Copyright (C) Eawag 2024
COMMENT: CONFIDENCE standard compound
COMMENT: UCHEM_ID 11081
CH$NAME: 1,4-Cyclohexanedicarboxylic acid
CH$NAME: cyclohexane-1,4-dicarboxylic acid
CH$COMPOUND_CLASS: N/A
CH$FORMULA: C8H12O4
CH$EXACT_MASS: 172.0735589
CH$SMILES: OC(=O)C1CCC(CC1)C(O)=O
CH$IUPAC: InChI=1S/C8H12O4/c9-7(10)5-1-2-6(4-3-5)8(11)12/h5-6H,1-4H2,(H,9,10)(H,11,12)
CH$LINK: CAS 619-81-8
CH$LINK: CHEBI CHEBI:145052
CH$LINK: PUBCHEM CID:14106
CH$LINK: INCHIKEY PXGZQGDTEZPERC-UHFFFAOYSA-N
CH$LINK: CHEMSPIDER 13484
AC$INSTRUMENT: Exploris 240 Thermo Scientific
AC$INSTRUMENT_TYPE: LC-ESI-QFT
AC$MASS_SPECTROMETRY: MS_TYPE MS2
AC$MASS_SPECTROMETRY: ION_MODE POSITIVE
AC$MASS_SPECTROMETRY: IONIZATION ESI
AC$MASS_SPECTROMETRY: FRAGMENTATION_MODE HCD
AC$MASS_SPECTROMETRY: COLLISION_ENERGY 180 % (nominal)
AC$MASS_SPECTROMETRY: RESOLUTION 15000
AC$MASS_SPECTROMETRY: MASS_RANGE_M/Z 40-198
AC$CHROMATOGRAPHY: COLUMN_NAME XBridge C18 3.5um, 2.1x50mm, Waters
AC$CHROMATOGRAPHY: FLOW_GRADIENT 90/10 at 0 min, 50/50 at 4 min, 5/95 at 17 min, 5/95 at 25 min, 90/10 at 25.1 min, 90/10 at 30 min
AC$CHROMATOGRAPHY: FLOW_RATE 200 uL/min
AC$CHROMATOGRAPHY: RETENTION_TIME 4.208 min
MS$FOCUSED_ION: BASE_PEAK 155.0702
MS$FOCUSED_ION: PRECURSOR_M/Z 173.0808
MS$FOCUSED_ION: PRECURSOR_TYPE [M+H]+
MS$DATA_PROCESSING: RECALIBRATE loess on assigned fragments and MS1
MS$DATA_PROCESSING: REANALYZE Peaks with additional N2/O included
MS$DATA_PROCESSING: WHOLE RMassBank 3.15.1.1
PK$SPLASH: splash10-0ugl-9000000000-a1234d242b7ae5354dd2
PK$ANNOTATION: m/z tentative_formula formula_count mass error(ppm)
  41.0386 C3H5+ 1 41.0386 -0.63
  43.0179 C2H3O+ 1 43.0178 0.38
  53.0386 C4H5+ 1 53.0386 -0.31
  55.0543 C4H7+ 1 55.0542 1.08
  65.0387 C5H5+ 1 65.0386 1.9
  66.0464 C5H6+ 1 66.0464 -0.75
  79.0542 C6H7+ 1 79.0542 0.15
  81.0699 C6H9+ 1 81.0699 -0.02
  95.0493 C6H7O+ 1 95.0491 1.33
PK$NUM_PEAK: 9
PK$PEAK: m/z int. rel.int.
  41.0386 67948.7 280
  43.0179 55484.2 229
  53.0386 241979.5 999
  55.0543 31933.1 131
  65.0387 25723.8 106
  66.0464 36926.2 152
  79.0542 238544.1 984
  81.0699 124510.9 514
  95.0493 50513.6 208
//
