ACCESSION: MSBNK-Eawag-EA253602
RECORD_TITLE: Dimethachlor OXA; LC-ESI-ITFT; MS2; CE: 15%; R=7500; [M+H]+
DATE: 2014.01.14
AUTHORS: Stravs M, Schymanski E, Singer H, Department of Environmental Chemistry, Eawag
LICENSE: CC BY
COPYRIGHT: Copyright (C) 2012 Eawag, Duebendorf, Switzerland
COMMENT: CONFIDENCE standard compound
COMMENT: EAWAG_UCHEM_ID 2536
CH$NAME: Dimethachlor OXA
CH$NAME: 2-[(2,6-dimethylphenyl)(2-methoxyethyl)amino]-2-oxo-acetic acid
CH$COMPOUND_CLASS: N/A; Environmental Standard
CH$FORMULA: C13H17NO4
CH$EXACT_MASS: 251.1158
CH$SMILES: Cc1cccc(C)c1N(CCOC)C(=O)C(O)=O
CH$IUPAC: InChI=1S/C13H17NO4/c1-9-5-4-6-10(2)11(9)14(7-8-18-3)12(15)13(16)17/h4-6H,7-8H2,1-3H3,(H,16,17)
CH$LINK: CAS 1086384-49-7
CH$LINK: INCHIKEY MHGMSAFPNAKIRZ-UHFFFAOYSA-N
CH$LINK: CHEMSPIDER 28290253
CH$LINK: COMPTOX DTXSID80891458
AC$INSTRUMENT: LTQ Orbitrap XL Thermo Scientific
AC$INSTRUMENT_TYPE: LC-ESI-ITFT
AC$MASS_SPECTROMETRY: MS_TYPE MS2
AC$MASS_SPECTROMETRY: ION_MODE POSITIVE
AC$MASS_SPECTROMETRY: IONIZATION ESI
AC$MASS_SPECTROMETRY: FRAGMENTATION_MODE HCD
AC$MASS_SPECTROMETRY: COLLISION_ENERGY 15 % (nominal)
AC$MASS_SPECTROMETRY: RESOLUTION 7500
AC$CHROMATOGRAPHY: COLUMN_NAME XBridge C18 3.5um, 2.1x50mm, Waters
AC$CHROMATOGRAPHY: FLOW_GRADIENT 90/10 at 0 min, 50/50 at 4 min, 5/95 at 17 min, 5/95 at 25 min, 90/10 at 25.1 min, 90/10 at 30 min
AC$CHROMATOGRAPHY: FLOW_RATE 200 ul/min
AC$CHROMATOGRAPHY: RETENTION_TIME 6.6 min
AC$CHROMATOGRAPHY: SOLVENT A water with 0.1% formic acid
AC$CHROMATOGRAPHY: SOLVENT B methanol with 0.1% formic acid
MS$FOCUSED_ION: BASE_PEAK 252.1226
MS$FOCUSED_ION: PRECURSOR_M/Z 252.123
MS$FOCUSED_ION: PRECURSOR_TYPE [M+H]+
MS$DATA_PROCESSING: DEPROFILE Spline
MS$DATA_PROCESSING: RECALIBRATE loess on assigned fragments and MS1
MS$DATA_PROCESSING: REANALYZE Peaks with additional N2/O included
MS$DATA_PROCESSING: WHOLE RMassBank 1.3.1
PK$SPLASH: splash10-00di-0090000000-18b6c517a81b1122c9c3
PK$ANNOTATION: m/z tentative_formula formula_count mass error(ppm)
  176.1073 C11H14NO+ 1 176.107 1.98
  178.1228 C11H16NO+ 1 178.1226 0.67
  206.1176 C12H16NO2+ 1 206.1176 0.36
  220.0968 C12H14NO3+ 1 220.0968 0.09
  252.1229 C13H18NO4+ 1 252.123 -0.65
PK$NUM_PEAK: 5
PK$PEAK: m/z int. rel.int.
  176.1073 41920.3 1
  178.1228 141435.1 5
  206.1176 1211696.9 46
  220.0968 26052278 999
  252.1229 11639595.1 446
//
