ACCESSION: MSBNK-Eawag-EQ302852
RECORD_TITLE: Tiapride; LC-ESI-QFT; MS2; CE: 30; R=35000; [M-H]-
DATE: 2015.08.25
AUTHORS: Beck B, Stravs M, Schymanski E, Singer H, Department of Environmental Chemistry, Eawag
LICENSE: CC BY
COPYRIGHT: Copyright (C) 2015 Eawag, Duebendorf, Switzerland
COMMENT: CONFIDENCE standard compound
COMMENT: EAWAG_UCHEM_ID 3028
CH$NAME: Tiapride
CH$NAME: N-(2-diethylaminoethyl)-2-methoxy-5-methylsulfonyl-benzamide
CH$COMPOUND_CLASS: N/A; Environmental Standard
CH$FORMULA: C15H24N2O4S
CH$EXACT_MASS: 328.14568
CH$SMILES: CCN(CC)CCNC(=O)C1=C(C=CC(=C1)S(=O)(=O)C)OC
CH$IUPAC: InChI=1S/C15H24N2O4S/c1-5-17(6-2)10-9-16-15(18)13-11-12(22(4,19)20)7-8-14(13)21-3/h7-8,11H,5-6,9-10H2,1-4H3,(H,16,18)
CH$LINK: CAS 51012-32-9
CH$LINK: PUBCHEM CID:5467
CH$LINK: INCHIKEY JTVPZMFULRWINT-UHFFFAOYSA-N
CH$LINK: CHEMSPIDER 5268
CH$LINK: COMPTOX DTXSID0023664
AC$INSTRUMENT: Q Exactive Orbitrap Thermo Scientific
AC$INSTRUMENT_TYPE: LC-ESI-QFT
AC$MASS_SPECTROMETRY: MS_TYPE MS2
AC$MASS_SPECTROMETRY: ION_MODE NEGATIVE
AC$MASS_SPECTROMETRY: IONIZATION ESI
AC$MASS_SPECTROMETRY: FRAGMENTATION_MODE HCD
AC$MASS_SPECTROMETRY: COLLISION_ENERGY 30 (nominal)
AC$MASS_SPECTROMETRY: RESOLUTION 35000
AC$CHROMATOGRAPHY: COLUMN_NAME XBridge C18 3.5um, 2.1x50mm, Waters
AC$CHROMATOGRAPHY: FLOW_GRADIENT 90/10 at 0 min, 50/50 at 4 min, 5/95 at 17 min, 5/95 at 25 min, 90/10 at 25.1 min, 90/10 at 30 min
AC$CHROMATOGRAPHY: FLOW_RATE 200 ul/min
AC$CHROMATOGRAPHY: RETENTION_TIME 2.6 min
AC$CHROMATOGRAPHY: SOLVENT A water with 0.1% formic acid
AC$CHROMATOGRAPHY: SOLVENT B methanol with 0.1% formic acid
MS$FOCUSED_ION: BASE_PEAK 235.9261
MS$FOCUSED_ION: PRECURSOR_M/Z 327.1384
MS$FOCUSED_ION: PRECURSOR_TYPE [M-H]-
MS$DATA_PROCESSING: DEPROFILE Spline
MS$DATA_PROCESSING: RECALIBRATE loess on assigned fragments and MS1
MS$DATA_PROCESSING: REANALYZE Peaks with additional N2/O included
MS$DATA_PROCESSING: WHOLE RMassBank 1.9.6
PK$SPLASH: splash10-0a4i-2900000000-f2c792ada2d697b7a343
PK$ANNOTATION: m/z tentative_formula formula_count mass error(ppm)
  63.9625 O2S- 1 63.9624 1.43
  78.9859 CH3O2S- 1 78.9859 -0.18
  155.0172 C7H7O2S- 1 155.0172 0.17
PK$NUM_PEAK: 3
PK$PEAK: m/z int. rel.int.
  63.9625 1170.9 28
  78.9859 10675.8 256
  155.0172 41522.7 999
//
