ACCESSION: MSBNK-Eawag-EA069854
RECORD_TITLE: Chloridazone-desphenyl; LC-ESI-ITFT; MS2; CE: 45%; R=7500; [M-H]-
DATE: 2014.01.14
AUTHORS: Stravs M, Schymanski E, Singer H, Department of Environmental Chemistry, Eawag
LICENSE: CC BY
COPYRIGHT: Copyright (C) 2012 Eawag, Duebendorf, Switzerland
COMMENT: CONFIDENCE standard compound
COMMENT: EAWAG_UCHEM_ID 698
CH$NAME: Chloridazone-desphenyl
CH$NAME: 3(2H)-Pyridazinone, 5-amino-4-chloro-
CH$NAME: 4-amino-5-chloro-1H-pyridazin-6-one
CH$COMPOUND_CLASS: N/A; Environmental Standard
CH$FORMULA: C4H4ClN3O
CH$EXACT_MASS: 145.0043
CH$SMILES: c1(c(nncc1N)O)Cl
CH$IUPAC: InChI=1S/C4H4ClN3O/c5-3-2(6)1-7-8-4(3)9/h1H,(H3,6,8,9)
CH$LINK: CAS 6339-19-1
CH$LINK: PUBCHEM CID:95827
CH$LINK: INCHIKEY FEWPCPCEGBPTAL-UHFFFAOYSA-N
CH$LINK: CHEMSPIDER 86506
CH$LINK: COMPTOX DTXSID50212792
AC$INSTRUMENT: LTQ Orbitrap XL Thermo Scientific
AC$INSTRUMENT_TYPE: LC-ESI-ITFT
AC$MASS_SPECTROMETRY: MS_TYPE MS2
AC$MASS_SPECTROMETRY: ION_MODE NEGATIVE
AC$MASS_SPECTROMETRY: IONIZATION ESI
AC$MASS_SPECTROMETRY: FRAGMENTATION_MODE HCD
AC$MASS_SPECTROMETRY: COLLISION_ENERGY 45 % (nominal)
AC$MASS_SPECTROMETRY: RESOLUTION 7500
AC$CHROMATOGRAPHY: COLUMN_NAME XBridge C18 3.5um, 2.1x50mm, Waters
AC$CHROMATOGRAPHY: FLOW_GRADIENT 90/10 at 0 min, 50/50 at 4 min, 5/95 at 17 min, 5/95 at 25 min, 90/10 at 25.1 min, 90/10 at 30 min
AC$CHROMATOGRAPHY: FLOW_RATE 200 ul/min
AC$CHROMATOGRAPHY: RETENTION_TIME 1.2 min
AC$CHROMATOGRAPHY: SOLVENT A water with 0.1% formic acid
AC$CHROMATOGRAPHY: SOLVENT B methanol with 0.1% formic acid
MS$FOCUSED_ION: BASE_PEAK 143.9977
MS$FOCUSED_ION: PRECURSOR_M/Z 143.997
MS$FOCUSED_ION: PRECURSOR_TYPE [M-H]-
MS$DATA_PROCESSING: DEPROFILE Spline
MS$DATA_PROCESSING: RECALIBRATE loess on assigned fragments and MS1
MS$DATA_PROCESSING: REANALYZE Peaks with additional N2/O included
MS$DATA_PROCESSING: WHOLE RMassBank 1.3.1
PK$SPLASH: splash10-0006-0900000000-9be1633cb22ffa1fff89
PK$ANNOTATION: m/z tentative_formula formula_count mass error(ppm)
  108.0207 C4H2N3O- 1 108.0203 3.56
  143.9969 C4H3ClN3O- 1 143.997 -1.06
PK$NUM_PEAK: 2
PK$PEAK: m/z int. rel.int.
  108.0207 2830.6 55
  143.9969 50902 999
//
