ACCESSION: MSBNK-Eawag-EQ369009
RECORD_TITLE: Meclofenamic Acid; LC-ESI-QFT; MS2; CE: 180; R=35000; [M+H]+
DATE: 2015.08.25
AUTHORS: Stravs M, Schymanski E, Singer H, Department of Environmental Chemistry, Eawag and Thomaidis N, University of Athens
LICENSE: CC BY
COPYRIGHT: Copyright (C) 2015 Eawag, Duebendorf, Switzerland
COMMENT: CONFIDENCE standard compound
COMMENT: EAWAG_UCHEM_ID 3690
CH$NAME: Meclofenamic Acid
CH$NAME: 2-(2,6-dichloro-3-methylanilino)benzoic acid
CH$COMPOUND_CLASS: N/A; Environmental Standard
CH$FORMULA: C14H11Cl2NO2
CH$EXACT_MASS: 295.01668
CH$SMILES: CC1=C(C(=C(C=C1)Cl)NC2=CC=CC=C2C(=O)O)Cl
CH$IUPAC: InChI=1S/C14H11Cl2NO2/c1-8-6-7-10(15)13(12(8)16)17-11-5-3-2-4-9(11)14(18)19/h2-7,17H,1H3,(H,18,19)
CH$LINK: CAS 644-62-2
CH$LINK: CHEBI CHEBI:6710
CH$LINK: KEGG C07117
CH$LINK: PUBCHEM CID:4037
CH$LINK: INCHIKEY SBDNJUWAMKYJOX-UHFFFAOYSA-N
CH$LINK: CHEMSPIDER 3897
CH$LINK: COMPTOX DTXSID0048559
AC$INSTRUMENT: Q Exactive Plus Orbitrap Thermo Scientific
AC$INSTRUMENT_TYPE: LC-ESI-QFT
AC$MASS_SPECTROMETRY: MS_TYPE MS2
AC$MASS_SPECTROMETRY: ION_MODE POSITIVE
AC$MASS_SPECTROMETRY: IONIZATION ESI
AC$MASS_SPECTROMETRY: FRAGMENTATION_MODE HCD
AC$MASS_SPECTROMETRY: COLLISION_ENERGY 180 (nominal)
AC$MASS_SPECTROMETRY: RESOLUTION 35000
AC$CHROMATOGRAPHY: COLUMN_NAME XBridge C18 3.5um, 2.1x50mm, Waters
AC$CHROMATOGRAPHY: FLOW_GRADIENT 90/10 at 0 min, 50/50 at 4 min, 5/95 at 17 min, 5/95 at 25 min, 90/10 at 25.1 min, 90/10 at 30 min
AC$CHROMATOGRAPHY: FLOW_RATE 200 ul/min
AC$CHROMATOGRAPHY: RETENTION_TIME 14.0 min
AC$CHROMATOGRAPHY: SOLVENT A water with 0.1% formic acid
AC$CHROMATOGRAPHY: SOLVENT B methanol with 0.1% formic acid
MS$FOCUSED_ION: BASE_PEAK 296.0233
MS$FOCUSED_ION: PRECURSOR_M/Z 296.024
MS$FOCUSED_ION: PRECURSOR_TYPE [M+H]+
MS$DATA_PROCESSING: RECALIBRATE loess on assigned fragments and MS1
MS$DATA_PROCESSING: REANALYZE Peaks with additional N2/O included
MS$DATA_PROCESSING: WHOLE RMassBank 1.9.6
PK$SPLASH: splash10-0fb9-2900000000-71b13766bf05541800b4
PK$ANNOTATION: m/z tentative_formula formula_count mass error(ppm)
  50.0151 C4H2+ 1 50.0151 0.37
  51.0229 C4H3+ 1 51.0229 0.07
  52.0182 C3H2N+ 1 52.0182 -0.11
  52.0308 C4H4+ 1 52.0308 0.55
  53.0386 C4H5+ 1 53.0386 0.06
  55.0179 C3H3O+ 1 55.0178 0.16
  61.0073 C5H+ 1 61.0073 -0.27
  62.0151 C5H2+ 1 62.0151 -0.35
  63.0229 C5H3+ 1 63.0229 -0.26
  64.0308 C5H4+ 1 64.0308 0.76
  65.0022 C4HO+ 1 65.0022 0.14
  65.0386 C5H5+ 1 65.0386 -0.41
  66.0464 C5H6+ 1 66.0464 0.28
  72.9839 C3H2Cl+ 1 72.984 -0.19
  74.0151 C6H2+ 1 74.0151 -0.7
  75.0229 C6H3+ 1 75.0229 -0.75
  76.0181 C5H2N+ 1 76.0182 -0.99
  76.0307 C6H4+ 1 76.0308 -0.94
  77.0385 C6H5+ 1 77.0386 -0.99
  78.0338 C5H4N+ 1 78.0338 -0.33
  78.0464 C6H6+ 1 78.0464 -0.28
  79.0179 C5H3O+ 1 79.0178 0.37
  81.0335 C5H5O+ 1 81.0335 0.11
  84.9839 C4H2Cl+ 1 84.984 -0.99
  86.015 C7H2+ 1 86.0151 -0.71
  87.0229 C7H3+ 1 87.0229 -0.07
  88.0182 C6H2N+ 1 88.0182 0.28
  88.0307 C7H4+ 1 88.0308 -0.47
  89.0386 C7H5+ 1 89.0386 -0.19
  90.0464 C7H6+ 1 90.0464 0.43
  91.0543 C7H7+ 1 91.0542 0.37
  92.0256 C6H4O+ 1 92.0257 -0.83
  94.0413 C6H6O+ 1 94.0413 -0.39
  95.0491 C6H7O+ 1 95.0491 -0.01
  98.0151 C8H2+ 1 98.0151 -0.22
  99.0229 C8H3+ 1 99.0229 -0.07
  100.0182 C7H2N+ 1 100.0182 0.05
  100.0307 C8H4+ 1 100.0308 -0.12
  101.0386 C8H5+ 1 101.0386 0.13
  102.0338 C7H4N+ 1 102.0338 -0.15
  102.0464 C8H6+ 1 102.0464 -0.11
  103.0416 C7H5N+ 1 103.0417 -0.59
  103.0543 C8H7+ 1 103.0542 0.42
  104.0495 C7H6N+ 1 104.0495 0.14
  105.0447 C6H5N2+ 1 105.0447 0.05
  111.0229 C9H3+ 1 111.0229 -0.69
  113.0385 C9H5+ 1 113.0386 -0.41
  114.0339 C8H4N+ 1 114.0338 0.3
  114.0465 C9H6+ 1 114.0464 0.69
  115.0542 C9H7+ 1 115.0542 0.2
  116.0495 C8H6N+ 1 116.0495 0.21
  117.0572 C8H7N+ 1 117.0573 -0.69
  117.0704 C9H9+ 1 117.0699 4.73
  118.0412 C8H6O+ 1 118.0413 -0.9
  119.0492 C8H7O+ 2 119.0491 0.58
  120.0444 C7H6NO+ 1 120.0444 0.08
  122.9994 C7H4Cl+ 1 122.9996 -1.25
  123.0229 C10H3+ 1 123.0229 -0.38
  124.0307 C10H4+ 1 124.0308 -0.09
  125.0386 C10H5+ 1 125.0386 0.27
  126.0464 C10H6+ 1 126.0464 0.15
  127.0417 C9H5N+ 1 127.0417 0.07
  127.0542 C10H7+ 1 127.0542 -0.45
  128.0495 C9H6N+ 1 128.0495 -0.12
  128.062 C10H8+ 1 128.0621 -0.25
  129.0447 C8H5N2+ 1 129.0447 -0.19
  129.0573 C9H7N+ 1 129.0573 0.15
  130.0289 C8H4NO+ 1 130.0287 0.84
  130.04 C7H4N3+ 1 130.04 0.28
  130.0651 C9H8N+ 1 130.0651 -0.04
  132.0441 C8H6NO+ 1 132.0444 -2.43
  137.0386 C11H5+ 1 137.0386 0.17
  138.0339 C10H4N+ 1 138.0338 0.25
  138.0463 C11H6+ 1 138.0464 -0.45
  139.0543 C11H7+ 1 139.0542 0.38
  140.0495 C10H6N+ 1 140.0495 0.03
  141.0573 C10H7N+ 1 141.0573 -0.22
  143.0492 C10H7O+ 2 143.0491 0.55
  145.0648 C10H9O+ 2 145.0648 0.13
  146.06 C9H8NO+ 1 146.06 -0.07
  147 C9H4Cl+ 1 146.9996 2.35
  149.0386 C12H5+ 1 149.0386 0.49
  150.0464 C12H6+ 1 150.0464 0.32
  151.0417 C11H5N+ 1 151.0417 0.26
  151.0542 C12H7+ 1 151.0542 0.09
  152.0495 C11H6N+ 1 152.0495 0.09
  152.062 C12H8+ 1 152.0621 -0.01
  153.0447 C10H5N2+ 1 153.0447 0.1
  153.0573 C11H7N+ 1 153.0573 0.06
  153.07 C12H9+ 1 153.0699 0.54
  154.0652 C11H8N+ 1 154.0651 0.48
  155.0494 C11H7O+ 2 155.0491 1.41
  155.0603 C10H7N2+ 1 155.0604 -0.16
  157.0523 C10H7NO+ 1 157.0522 0.28
  161.0385 C13H5+ 1 161.0386 -0.54
  163.0542 C13H7+ 1 163.0542 -0.35
  164.0495 C12H6N+ 1 164.0495 -0.1
  165.0573 C12H7N+ 1 165.0573 -0.19
  167.0492 C12H7O+ 2 167.0491 0.11
  168.0437 C11H6NO+ 1 168.0444 -3.87
  168.0569 C12H8O+ 2 168.057 -0.63
  169.0648 C12H9O+ 2 169.0648 0.11
  170.06 C11H8NO+ 1 170.06 0
  174.011 C10H5ClN+ 1 174.0105 2.57
  175.0417 C13H5N+ 1 175.0417 0.4
  176.0495 C13H6N+ 1 176.0495 0.08
  177.0573 C13H7N+ 1 177.0573 0.17
  178.0651 C13H8N+ 1 178.0651 0.14
  179.0604 C12H7N2+ 1 179.0604 0.09
  179.0724 C13H9N+ 1 179.073 -3.08
  180.0558 C11H6N3+ 1 180.0556 0.81
  180.0807 C13H10N+ 1 180.0808 -0.14
  181.052 C12H7NO+ 1 181.0522 -0.97
  183.0806 C13H11O+ 1 183.0804 1.08
  185.0473 C11H7NO2+ 1 185.0471 1.03
  185.0595 C12H9O2+ 2 185.0597 -1.06
  186.0227 C12H7Cl+ 1 186.0231 -2.15
  188.0495 C14H6N+ 1 188.0495 0.02
  194.0601 C13H8NO+ 1 194.06 0.46
  196.0756 C13H10NO+ 1 196.0757 -0.56
  204.0557 C13H6N3+ 1 204.0556 0.42
  209.0471 C13H7NO2+ 1 209.0471 -0.24
  211.0629 C13H9NO2+ 1 211.0628 0.52
  212.0262 C13H7ClN+ 1 212.0262 0.08
  213.0341 C13H8ClN+ 1 213.034 0.76
PK$NUM_PEAK: 125
PK$PEAK: m/z int. rel.int.
  50.0151 3970383 141
  51.0229 2247609 80
  52.0182 151876.2 5
  52.0308 60115.8 2
  53.0386 1839279 65
  55.0179 141387 5
  61.0073 269631.1 9
  62.0151 886923.8 31
  63.0229 3800488.8 135
  64.0308 286660.3 10
  65.0022 433030.4 15
  65.0386 613342.2 21
  66.0464 429689.5 15
  72.9839 333641.7 11
  74.0151 3165912.5 112
  75.0229 8653143 308
  76.0181 664219.9 23
  76.0307 2903862.5 103
  77.0385 4230596 150
  78.0338 171762.9 6
  78.0464 1647084.1 58
  79.0179 68093.6 2
  81.0335 318141.2 11
  84.9839 70611.2 2
  86.015 514293.4 18
  87.0229 1544630.1 54
  88.0182 453764.4 16
  88.0307 527900.6 18
  89.0386 2803527.2 99
  90.0464 488762.9 17
  91.0543 264039.6 9
  92.0256 130338.9 4
  94.0413 228189.9 8
  95.0491 5011237.5 178
  98.0151 1478240.9 52
  99.0229 3778954.5 134
  100.0182 335498.6 11
  100.0307 1057476.1 37
  101.0386 1110957 39
  102.0338 895891.2 31
  102.0464 3497053.5 124
  103.0416 354469.6 12
  103.0543 376800.7 13
  104.0495 158032.7 5
  105.0447 4183411 148
  111.0229 407499.9 14
  113.0385 2339930.2 83
  114.0339 595121.9 21
  114.0465 279363.3 9
  115.0542 1429424.6 50
  116.0495 141509.9 5
  117.0572 207796 7
  117.0704 31671.2 1
  118.0412 119516.6 4
  119.0492 877462.9 31
  120.0444 203349.4 7
  122.9994 111493.1 3
  123.0229 495464.6 17
  124.0307 477459.7 16
  125.0386 5266599 187
  126.0464 8881555 316
  127.0417 1757880.8 62
  127.0542 1682424.1 59
  128.0495 2880956 102
  128.062 793993.1 28
  129.0447 3287242.5 117
  129.0573 442949.3 15
  130.0289 69562.9 2
  130.04 811797.1 28
  130.0651 145015.6 5
  132.0441 38093.7 1
  137.0386 1291657.8 45
  138.0339 266726.8 9
  138.0463 341707 12
  139.0543 908586.6 32
  140.0495 1773962.8 63
  141.0573 238161.7 8
  143.0492 918771.9 32
  145.0648 737363.3 26
  146.06 665768.8 23
  147 52223.7 1
  149.0386 1445020 51
  150.0464 28062432 999
  151.0417 1448984.5 51
  151.0542 5546095.5 197
  152.0495 3702859 131
  152.062 14051013 500
  153.0447 655870.6 23
  153.0573 2444128 87
  153.07 132984.8 4
  154.0652 365787.6 13
  155.0494 189208.6 6
  155.0603 2128103.2 75
  157.0523 138029 4
  161.0385 68005.1 2
  163.0542 225495.7 8
  164.0495 1447369.5 51
  165.0573 68747.7 2
  167.0492 400148.8 14
  168.0437 40201.4 1
  168.0569 201041.5 7
  169.0648 15231336 542
  170.06 1958443.1 69
  174.011 85044.4 3
  175.0417 843818.1 30
  176.0495 1190684 42
  177.0573 12425702 442
  178.0651 13436087 478
  179.0604 6047023 215
  179.0724 1573639 56
  180.0558 475551.6 16
  180.0807 181157.7 6
  181.052 57495.3 2
  183.0806 149329 5
  185.0473 246334.1 8
  185.0595 300750.5 10
  186.0227 35782.8 1
  188.0495 150273 5
  194.0601 953539.7 33
  196.0756 145440.9 5
  204.0557 1064254.6 37
  209.0471 242072.5 8
  211.0629 36046.7 1
  212.0262 50976.7 1
  213.0341 62247.2 2
//
