ACCESSION: MSBNK-Eawag-EQ01131201
RECORD_TITLE: Spirotetramat BYI08330-monohydroxy; LC-ESI-QFT; MS2; CE: 15%; R=17500; [M+H]+
DATE: 2023.04.27
AUTHORS: B. Beck [dtc,com], J. Hollender [dtc]
LICENSE: CC BY-SA
COPYRIGHT: Copyright (C) Eawag 2023
COMMENT: CONFIDENCE standard compound
COMMENT: UCHEM_ID 11312
CH$NAME: Spirotetramat BYI08330-monohydroxy
CH$NAME: 1-Azaspiro(4.5)decan-2-one, 3-(2,5-dimethylphenyl)-4-hydroxy-8-methoxy-
CH$NAME: 3-(2,5-dimethylphenyl)-4-hydroxy-8-methoxy-1-azaspiro[4.5]decan-2-one
CH$COMPOUND_CLASS: N/A; Environmental Standard
CH$FORMULA: C18H25NO3
CH$EXACT_MASS: 303.1834
CH$SMILES: CC1=CC(=C(C=C1)C)C2C(C3(CCC(CC3)OC)NC2=O)O
CH$IUPAC: InChI=1S/C18H25NO3/c1-11-4-5-12(2)14(10-11)15-16(20)18(19-17(15)21)8-6-13(22-3)7-9-18/h4-5,10,13,15-16,20H,6-9H2,1-3H3,(H,19,21)
CH$LINK: PUBCHEM CID:9879500
CH$LINK: INCHIKEY HPQGJNTUXNUIDL-UHFFFAOYSA-N
CH$LINK: CHEMSPIDER 8055177
AC$INSTRUMENT: Exploris 240 Orbitrap Thermo Scientific
AC$INSTRUMENT_TYPE: LC-ESI-QFT
AC$MASS_SPECTROMETRY: MS_TYPE MS2
AC$MASS_SPECTROMETRY: ION_MODE POSITIVE
AC$MASS_SPECTROMETRY: IONIZATION ESI
AC$MASS_SPECTROMETRY: FRAGMENTATION_MODE HCD
AC$MASS_SPECTROMETRY: COLLISION_ENERGY 15 % (nominal)
AC$MASS_SPECTROMETRY: RESOLUTION 17500
AC$MASS_SPECTROMETRY: MASS_RANGE_M/Z 50-331
AC$CHROMATOGRAPHY: COLUMN_NAME XBridge C18 3.5um, 2.1x50mm, Waters
AC$CHROMATOGRAPHY: FLOW_GRADIENT 90/10 at 0 min, 50/50 at 4 min, 5/95 at 17 min, 5/95 at 25 min, 90/10 at 25.1 min, 90/10 at 30 min
AC$CHROMATOGRAPHY: FLOW_RATE 200 uL/min
AC$CHROMATOGRAPHY: RETENTION_TIME 5.434 min
MS$FOCUSED_ION: BASE_PEAK 304.1905
MS$FOCUSED_ION: PRECURSOR_M/Z 304.1907
MS$FOCUSED_ION: PRECURSOR_TYPE [M+H]+
MS$DATA_PROCESSING: RECALIBRATE loess on assigned fragments and MS1
MS$DATA_PROCESSING: REANALYZE Peaks with additional N2/O included
MS$DATA_PROCESSING: WHOLE RMassBank 3.11.0.1
PK$SPLASH: splash10-0udi-0009000000-391b2d4a13cb93afb5b3
PK$ANNOTATION: m/z tentative_formula formula_count mass error(ppm)
  211.1479 C16H19+ 1 211.1481 -0.94
  254.1535 C17H20NO+ 1 254.1539 -1.73
  286.1802 C18H24NO2+ 1 286.1802 0.01
  304.1906 C18H26NO3+ 1 304.1907 -0.28
PK$NUM_PEAK: 4
PK$PEAK: m/z int. rel.int.
  211.1479 996678.7 5
  254.1535 934191.4 5
  286.1802 1234217.9 6
  304.1906 178386928 999
//
