ACCESSION: MSBNK-Eawag-EQ01094610
RECORD_TITLE: Brodifacoum; LC-ESI-QFT; MS2; CE: 15%; R=17500; [M+H]+
DATE: 2023.06.16
AUTHORS: B. Beck [dtc,com], J. Hollender [dtc]
LICENSE: CC BY-SA
COPYRIGHT: Copyright (C) Eawag 2023
COMMENT: CONFIDENCE standard compound
COMMENT: UCHEM_ID 10946
CH$NAME: Brodifacoum
CH$NAME: 3-[3-[4-(4-bromophenyl)phenyl]-1,2,3,4-tetrahydronaphthalen-1-yl]-4-hydroxychromen-2-one
CH$COMPOUND_CLASS: N/A; Environmental Standard
CH$FORMULA: C31H23BrO3
CH$EXACT_MASS: 522.0831
CH$SMILES: C1C(CC2=CC=CC=C2C1C3=C(C4=CC=CC=C4OC3=O)O)C5=CC=C(C=C5)C6=CC=C(C=C6)Br
CH$IUPAC: InChI=1S/C31H23BrO3/c32-24-15-13-20(14-16-24)19-9-11-21(12-10-19)23-17-22-5-1-2-6-25(22)27(18-23)29-30(33)26-7-3-4-8-28(26)35-31(29)34/h1-16,23,27,33H,17-18H2
CH$LINK: CAS 13356-08-6
CH$LINK: CHEBI CHEBI:81892
CH$LINK: KEGG C18694
CH$LINK: PUBCHEM CID:54680676
CH$LINK: INCHIKEY VEUZZDOCACZPRY-UHFFFAOYSA-N
CH$LINK: CHEMSPIDER 10444663
AC$INSTRUMENT: Exploris 240 Orbitrap Thermo Scientific
AC$INSTRUMENT_TYPE: LC-ESI-QFT
AC$MASS_SPECTROMETRY: MS_TYPE MS2
AC$MASS_SPECTROMETRY: ION_MODE POSITIVE
AC$MASS_SPECTROMETRY: IONIZATION ESI
AC$MASS_SPECTROMETRY: FRAGMENTATION_MODE HCD
AC$MASS_SPECTROMETRY: COLLISION_ENERGY 15 % (nominal)
AC$MASS_SPECTROMETRY: RESOLUTION 17500
AC$MASS_SPECTROMETRY: MASS_RANGE_M/Z 55-555
AC$CHROMATOGRAPHY: COLUMN_NAME XBridge C18 3.5um, 2.1x50mm, Waters
AC$CHROMATOGRAPHY: FLOW_GRADIENT 90/10 at 0 min, 50/50 at 4 min, 5/95 at 17 min, 5/95 at 25 min, 90/10 at 25.1 min, 90/10 at 30 min
AC$CHROMATOGRAPHY: FLOW_RATE 200 uL/min
AC$CHROMATOGRAPHY: RETENTION_TIME 16.530 min
MS$FOCUSED_ION: BASE_PEAK 523.0906
MS$FOCUSED_ION: PRECURSOR_M/Z 523.0903
MS$FOCUSED_ION: PRECURSOR_TYPE [M+H]+
MS$DATA_PROCESSING: RECALIBRATE loess on assigned fragments and MS1
MS$DATA_PROCESSING: REANALYZE Peaks with additional N2/O included
MS$DATA_PROCESSING: WHOLE RMassBank 3.11.0.1
PK$SPLASH: splash10-00di-0000090000-6cf1eaaf60475f935c94
PK$ANNOTATION: m/z tentative_formula formula_count mass error(ppm)
  163.0391 C9H7O3+ 1 163.039 0.5
  175.0392 C10H7O3+ 1 175.039 1.33
  189.0547 C11H9O3+ 1 189.0546 0.23
  291.1017 C19H15O3+ 1 291.1016 0.31
  335.0432 C20H16Br+ 1 335.043 0.52
  361.0581 C22H18Br+ 1 361.0586 -1.51
  523.0904 C31H24BrO3+ 1 523.0903 0.11
PK$NUM_PEAK: 7
PK$PEAK: m/z int. rel.int.
  163.0391 80841.2 4
  175.0392 40318 2
  189.0547 455576.4 22
  291.1017 458753.1 22
  335.0432 1772113.2 88
  361.0581 31849.6 1
  523.0904 20022192 999
//
