ACCESSION: MSBNK-Eawag-EQ01138403
RECORD_TITLE: Metominostrobin; LC-ESI-QFT; MS2; CE: 45%; R=17500; [M+H]+
DATE: 2023.04.27
AUTHORS: B. Beck [dtc,com], J. Hollender [dtc]
LICENSE: CC BY-SA
COPYRIGHT: Copyright (C) Eawag 2023
COMMENT: CONFIDENCE standard compound
COMMENT: UCHEM_ID 11384
CH$NAME: Metominostrobin
CH$NAME: N-methyl-2-(2-phenoxyphenyl)-2-methoxyiminoacetamide
CH$NAME: 2-methoxyimino-N-methyl-2-(2-phenoxyphenyl)acetamide
CH$COMPOUND_CLASS: N/A; Environmental Standard
CH$FORMULA: C16H16N2O3
CH$EXACT_MASS: 284.1161
CH$SMILES: CNC(=O)C(=NOC)C1=CC=CC=C1OC2=CC=CC=C2
CH$IUPAC: InChI=1S/C16H16N2O3/c1-17-16(19)15(18-20-2)13-10-6-7-11-14(13)21-12-8-4-3-5-9-12/h3-11H,1-2H3,(H,17,19)
CH$LINK: CAS 133408-51-2
CH$LINK: PUBCHEM CID:86403
CH$LINK: INCHIKEY HIIRDDUVRXCDBN-UHFFFAOYSA-N
CH$LINK: CHEMSPIDER 26563468
AC$INSTRUMENT: Exploris 240 Orbitrap Thermo Scientific
AC$INSTRUMENT_TYPE: LC-ESI-QFT
AC$MASS_SPECTROMETRY: MS_TYPE MS2
AC$MASS_SPECTROMETRY: ION_MODE POSITIVE
AC$MASS_SPECTROMETRY: IONIZATION ESI
AC$MASS_SPECTROMETRY: FRAGMENTATION_MODE HCD
AC$MASS_SPECTROMETRY: COLLISION_ENERGY 45 % (nominal)
AC$MASS_SPECTROMETRY: RESOLUTION 17500
AC$MASS_SPECTROMETRY: MASS_RANGE_M/Z 50-312
AC$CHROMATOGRAPHY: COLUMN_NAME XBridge C18 3.5um, 2.1x50mm, Waters
AC$CHROMATOGRAPHY: FLOW_GRADIENT 90/10 at 0 min, 50/50 at 4 min, 5/95 at 17 min, 5/95 at 25 min, 90/10 at 25.1 min, 90/10 at 30 min
AC$CHROMATOGRAPHY: FLOW_RATE 200 uL/min
AC$CHROMATOGRAPHY: RETENTION_TIME 7.515 min
MS$FOCUSED_ION: BASE_PEAK 285.1232
MS$FOCUSED_ION: PRECURSOR_M/Z 285.1234
MS$FOCUSED_ION: PRECURSOR_TYPE [M+H]+
MS$DATA_PROCESSING: RECALIBRATE loess on assigned fragments and MS1
MS$DATA_PROCESSING: REANALYZE Peaks with additional N2/O included
MS$DATA_PROCESSING: WHOLE RMassBank 3.11.0.1
PK$SPLASH: splash10-0007-0900000000-0ebae54178504e3b85d1
PK$ANNOTATION: m/z tentative_formula formula_count mass error(ppm)
  58.0288 C2H4NO+ 1 58.0287 0.83
  166.0651 C12H8N+ 1 166.0651 -0.15
  194.0602 C13H8NO+ 1 194.06 0.64
  196.0758 C13H10NO+ 1 196.0757 0.59
  210.0914 C14H12NO+ 1 210.0913 0.35
  226.0861 C14H12NO2+ 1 226.0863 -0.68
  238.0866 C15H12NO2+ 1 238.0863 1.39
PK$NUM_PEAK: 7
PK$PEAK: m/z int. rel.int.
  58.0288 16574901 92
  166.0651 25233226 140
  194.0602 179449920 999
  196.0758 118475872 659
  210.0914 14045531 78
  226.0861 3359658.5 18
  238.0866 11452943 63
//
