ACCESSION: MSBNK-Eawag-EA282314
RECORD_TITLE: Benzoylecgonine; LC-ESI-ITFT; MS2; CE: 35%; R=30000; [M+H]+
DATE: 2014.01.14
AUTHORS: Stravs M, Schymanski E, Singer H, Department of Environmental Chemistry, Eawag
LICENSE: CC BY
COPYRIGHT: Copyright (C) 2012 Eawag, Duebendorf, Switzerland
COMMENT: CONFIDENCE standard compound
COMMENT: EAWAG_UCHEM_ID 2823
CH$NAME: Benzoylecgonine
CH$NAME: 3-benzoyloxy-8-methyl-8-azabicyclo[3.2.1]octane-4-carboxylic acid
CH$COMPOUND_CLASS: N/A; Environmental Standard
CH$FORMULA: C16H19NO4
CH$EXACT_MASS: 289.1314
CH$SMILES: CN1C2CCC1C(C(C2)OC(=O)C3=CC=CC=C3)C(=O)O
CH$IUPAC: InChI=1S/C16H19NO4/c1-17-11-7-8-12(17)14(15(18)19)13(9-11)21-16(20)10-5-3-2-4-6-10/h2-6,11-14H,7-9H2,1H3,(H,18,19)
CH$LINK: CAS 519-09-5
CH$LINK: PUBCHEM CID:2340
CH$LINK: INCHIKEY GVGYEFKIHJTNQZ-UHFFFAOYSA-N
CH$LINK: CHEMSPIDER 2250
AC$INSTRUMENT: LTQ Orbitrap XL Thermo Scientific
AC$INSTRUMENT_TYPE: LC-ESI-ITFT
AC$MASS_SPECTROMETRY: MS_TYPE MS2
AC$MASS_SPECTROMETRY: ION_MODE POSITIVE
AC$MASS_SPECTROMETRY: IONIZATION ESI
AC$MASS_SPECTROMETRY: FRAGMENTATION_MODE CID
AC$MASS_SPECTROMETRY: COLLISION_ENERGY 35 % (nominal)
AC$MASS_SPECTROMETRY: RESOLUTION 30000
AC$CHROMATOGRAPHY: COLUMN_NAME XBridge C18 3.5um, 2.1x50mm, Waters
AC$CHROMATOGRAPHY: FLOW_GRADIENT 90/10 at 0 min, 50/50 at 4 min, 5/95 at 17 min, 5/95 at 25 min, 90/10 at 25.1 min, 90/10 at 30 min
AC$CHROMATOGRAPHY: FLOW_RATE 200 ul/min
AC$CHROMATOGRAPHY: RETENTION_TIME 4.6 min
AC$CHROMATOGRAPHY: SOLVENT A water with 0.1% formic acid
AC$CHROMATOGRAPHY: SOLVENT B methanol with 0.1% formic acid
MS$FOCUSED_ION: BASE_PEAK 290.1395
MS$FOCUSED_ION: PRECURSOR_M/Z 290.1387
MS$FOCUSED_ION: PRECURSOR_TYPE [M+H]+
MS$DATA_PROCESSING: DEPROFILE Spline
MS$DATA_PROCESSING: RECALIBRATE loess on assigned fragments and MS1
MS$DATA_PROCESSING: REANALYZE Peaks with additional N2/O included
MS$DATA_PROCESSING: WHOLE RMassBank 1.3.1
PK$SPLASH: splash10-014i-0900000000-0fb6f019bf9c31f8714a
PK$ANNOTATION: m/z tentative_formula formula_count mass error(ppm)
  91.0542 C7H7+ 1 91.0542 -0.18
  93.0699 C7H9+ 1 93.0699 0.04
  100.0754 C5H10NO+ 1 100.0757 -3.3
  108.0807 C7H10N+ 1 108.0808 -0.42
  119.0491 C8H7O+ 1 119.0491 -0.09
  122.0963 C8H12N+ 1 122.0964 -0.7
  124.1121 C8H14N+ 1 124.1121 -0.13
  150.0912 C9H12NO+ 1 150.0913 -0.74
  168.1019 C9H14NO2+ 1 168.1019 0.15
  272.1279 C16H18NO3+ 1 272.1281 -0.81
PK$NUM_PEAK: 10
PK$PEAK: m/z int. rel.int.
  91.0542 2643.7 2
  93.0699 3008.9 3
  100.0754 1824.5 1
  108.0807 2500 2
  119.0491 11070.4 11
  122.0963 3216.5 3
  124.1121 14274.4 14
  150.0912 21801.5 22
  168.1019 973141.9 999
  272.1279 50235.4 51
//
