ACCESSION: MSBNK-Eawag-EQ01146351
RECORD_TITLE: PFMPA; LC-ESI-QFT; MS2; CE: 15%; R=17500; [M-H]-
DATE: 2024.05.15
AUTHORS: B. Beck [dtc,com], J. Hollender [dtc]
LICENSE: CC BY-SA
COPYRIGHT: Copyright (C) Eawag 2023
COMMENT: CONFIDENCE standard compound
COMMENT: UCHEM_ID 11463
CH$NAME: PFMPA
CH$NAME: Propionic acid, 2,2,3,3-tetrafluoro-3-(trifluoromethoxy)-
CH$NAME: 2,2,3,3-tetrafluoro-3-(trifluoromethoxy)propanoic acid
CH$COMPOUND_CLASS: N/A; Environmental Standard
CH$FORMULA: C4HF7O3
CH$EXACT_MASS: 229.981391432
CH$SMILES: C(=O)(C(C(OC(F)(F)F)(F)F)(F)F)O
CH$IUPAC: InChI=1S/C4HF7O3/c5-2(6,1(12)13)3(7,8)14-4(9,10)11/h(H,12,13)
CH$LINK: PUBCHEM CID:120228
CH$LINK: INCHIKEY AGIMOOYNBDLMJV-UHFFFAOYSA-N
CH$LINK: CHEMSPIDER 107331
AC$INSTRUMENT: Exploris 240 Orbitrap Thermo Scientific
AC$INSTRUMENT_TYPE: LC-ESI-QFT
AC$MASS_SPECTROMETRY: MS_TYPE MS2
AC$MASS_SPECTROMETRY: ION_MODE NEGATIVE
AC$MASS_SPECTROMETRY: IONIZATION ESI
AC$MASS_SPECTROMETRY: FRAGMENTATION_MODE HCD
AC$MASS_SPECTROMETRY: COLLISION_ENERGY 15 % (nominal)
AC$MASS_SPECTROMETRY: RESOLUTION 17500
AC$MASS_SPECTROMETRY: MASS_RANGE_M/Z 50-255
AC$CHROMATOGRAPHY: COLUMN_NAME XBridge C18 3.5um, 2.1x50mm, Waters
AC$CHROMATOGRAPHY: FLOW_GRADIENT 90/10 at 0 min, 50/50 at 4 min, 5/95 at 17 min, 5/95 at 25 min, 90/10 at 25.1 min, 90/10 at 30 min
AC$CHROMATOGRAPHY: FLOW_RATE 200 uL/min
AC$CHROMATOGRAPHY: RETENTION_TIME 4.565 min
MS$FOCUSED_ION: BASE_PEAK 228.9741
MS$FOCUSED_ION: PRECURSOR_M/Z 228.9741
MS$FOCUSED_ION: PRECURSOR_TYPE [M-H]-
MS$DATA_PROCESSING: RECALIBRATE loess on assigned fragments and MS1
MS$DATA_PROCESSING: REANALYZE Peaks with additional N2/O included
MS$DATA_PROCESSING: WHOLE RMassBank 3.15.1.1
PK$SPLASH: splash10-001i-9000000000-a50f696eec4d752cab8d
PK$ANNOTATION: m/z tentative_formula formula_count mass error(ppm)
  84.9907 CF3O- 1 84.9907 0.19
  228.9741 C4F7O3- 1 228.9741 0.04
PK$NUM_PEAK: 2
PK$PEAK: m/z int. rel.int.
  84.9907 12869708 999
  228.9741 1065271.8 82
//
