ACCESSION: MSBNK-Eawag-EQ01122607
RECORD_TITLE: Demeton-S-Methyl Sulfone; LC-ESI-QFT; MS2; CE: 120%; R=17500; [M+H]+
DATE: 2023.04.27
AUTHORS: B. Beck [dtc,com], J. Hollender [dtc]
LICENSE: CC BY-SA
COPYRIGHT: Copyright (C) Eawag 2023
COMMENT: CONFIDENCE standard compound
COMMENT: UCHEM_ID 11226
CH$NAME: Demeton-S-Methyl Sulfone
CH$NAME: Demeton-S-methylsulphon
CH$NAME: 1-dimethoxyphosphorylsulfanyl-2-ethylsulfonylethane
CH$COMPOUND_CLASS: N/A; Environmental Standard
CH$FORMULA: C6H15O5PS2
CH$EXACT_MASS: 262.0099
CH$SMILES: CCS(=O)(=O)CCSP(=O)(OC)OC
CH$IUPAC: InChI=1S/C6H15O5PS2/c1-4-14(8,9)6-5-13-12(7,10-2)11-3/h4-6H2,1-3H3
CH$LINK: CAS 17040-19-6
CH$LINK: CHEBI CHEBI:82118
CH$LINK: KEGG C18979
CH$LINK: PUBCHEM CID:28213
CH$LINK: INCHIKEY PZIRJMYRYORVIT-UHFFFAOYSA-N
CH$LINK: CHEMSPIDER 26248
AC$INSTRUMENT: Exploris 240 Orbitrap Thermo Scientific
AC$INSTRUMENT_TYPE: LC-ESI-QFT
AC$MASS_SPECTROMETRY: MS_TYPE MS2
AC$MASS_SPECTROMETRY: ION_MODE POSITIVE
AC$MASS_SPECTROMETRY: IONIZATION ESI
AC$MASS_SPECTROMETRY: FRAGMENTATION_MODE HCD
AC$MASS_SPECTROMETRY: COLLISION_ENERGY 120 % (nominal)
AC$MASS_SPECTROMETRY: RESOLUTION 17500
AC$MASS_SPECTROMETRY: MASS_RANGE_M/Z 50-289
AC$CHROMATOGRAPHY: COLUMN_NAME XBridge C18 3.5um, 2.1x50mm, Waters
AC$CHROMATOGRAPHY: FLOW_GRADIENT 90/10 at 0 min, 50/50 at 4 min, 5/95 at 17 min, 5/95 at 25 min, 90/10 at 25.1 min, 90/10 at 30 min
AC$CHROMATOGRAPHY: FLOW_RATE 200 uL/min
AC$CHROMATOGRAPHY: RETENTION_TIME 2.945 min
MS$FOCUSED_ION: BASE_PEAK 263.0169
MS$FOCUSED_ION: PRECURSOR_M/Z 263.0171
MS$FOCUSED_ION: PRECURSOR_TYPE [M+H]+
MS$DATA_PROCESSING: RECALIBRATE loess on assigned fragments and MS1
MS$DATA_PROCESSING: REANALYZE Peaks with additional N2/O included
MS$DATA_PROCESSING: WHOLE RMassBank 3.11.0.1
PK$SPLASH: splash10-004i-9700000000-62f8ad4194de5e31bd23
PK$ANNOTATION: m/z tentative_formula formula_count mass error(ppm)
  58.995 C2H3S+ 1 58.995 -0.47
  64.9694 HO2S+ 1 64.9692 2.83
  64.9786 H2O2P+ 1 64.9787 -1.54
  74.9899 C2H3OS+ 1 74.9899 -0.5
  78.9943 CH4O2P+ 1 78.9943 -0.82
  80.9465 HOS2+ 1 80.9463 2.21
  109.0048 C2H6O3P+ 1 109.0049 -1.07
  110.9666 CH4O2PS+ 1 110.9664 1.92
  124.9825 C2H6O2PS+ 1 124.9821 3.18
  127.0154 C2H8O4P+ 1 127.0155 -0.61
PK$NUM_PEAK: 10
PK$PEAK: m/z int. rel.int.
  58.995 2546630.2 94
  64.9694 1562508 57
  64.9786 857214 31
  74.9899 604778 22
  78.9943 26971920 999
  80.9465 1320470.1 48
  109.0048 7791702.5 288
  110.9666 1398526.2 51
  124.9825 2125194 78
  127.0154 15769174 584
//
