ACCESSION: MSBNK-Eawag-EQ01131755
RECORD_TITLE: Triadimefon; LC-ESI-QFT; MS2; CE: 75%; R=17500; [M-H]-
DATE: 2023.04.27
AUTHORS: B. Beck [dtc,com], J. Hollender [dtc]
LICENSE: CC BY-SA
COPYRIGHT: Copyright (C) Eawag 2023
COMMENT: CONFIDENCE standard compound
COMMENT: UCHEM_ID 11317
CH$NAME: Triadimefon
CH$NAME: 1-(4-chlorophenoxy)-3,3-dimethyl-1-(1,2,4-triazol-1-yl)butan-2-one
CH$COMPOUND_CLASS: N/A; Environmental Standard
CH$FORMULA: C14H16ClN3O2
CH$EXACT_MASS: 293.0931
CH$SMILES: CC(C)(C)C(=O)C(N1C=NC=N1)OC2=CC=C(C=C2)Cl
CH$IUPAC: InChI=1S/C14H16ClN3O2/c1-14(2,3)12(19)13(18-9-16-8-17-18)20-11-6-4-10(15)5-7-11/h4-9,13H,1-3H3
CH$LINK: CAS 93779-51-2
CH$LINK: CHEBI CHEBI:84002
CH$LINK: KEGG C11156
CH$LINK: PUBCHEM CID:39385
CH$LINK: INCHIKEY WURBVZBTWMNKQT-UHFFFAOYSA-N
CH$LINK: CHEMSPIDER 36029
AC$INSTRUMENT: Exploris 240 Orbitrap Thermo Scientific
AC$INSTRUMENT_TYPE: LC-ESI-QFT
AC$MASS_SPECTROMETRY: MS_TYPE MS2
AC$MASS_SPECTROMETRY: ION_MODE NEGATIVE
AC$MASS_SPECTROMETRY: IONIZATION ESI
AC$MASS_SPECTROMETRY: FRAGMENTATION_MODE HCD
AC$MASS_SPECTROMETRY: COLLISION_ENERGY 75 % (nominal)
AC$MASS_SPECTROMETRY: RESOLUTION 17500
AC$MASS_SPECTROMETRY: MASS_RANGE_M/Z 50-319
AC$CHROMATOGRAPHY: COLUMN_NAME XBridge C18 3.5um, 2.1x50mm, Waters
AC$CHROMATOGRAPHY: FLOW_GRADIENT 90/10 at 0 min, 50/50 at 4 min, 5/95 at 17 min, 5/95 at 25 min, 90/10 at 25.1 min, 90/10 at 30 min
AC$CHROMATOGRAPHY: FLOW_RATE 200 uL/min
AC$CHROMATOGRAPHY: RETENTION_TIME 8.888 min
MS$FOCUSED_ION: BASE_PEAK 326.1796
MS$FOCUSED_ION: PRECURSOR_M/Z 292.0858
MS$FOCUSED_ION: PRECURSOR_TYPE [M-H]-
MS$DATA_PROCESSING: RECALIBRATE loess on assigned fragments and MS1
MS$DATA_PROCESSING: REANALYZE Peaks with additional N2/O included
MS$DATA_PROCESSING: WHOLE RMassBank 3.11.0.1
PK$SPLASH: splash10-014i-9000000000-e52efc8ceb927001fc43
PK$ANNOTATION: m/z tentative_formula formula_count mass error(ppm)
  68.0254 C2H2N3- 1 68.0254 -0.11
  126.9955 C6H4ClO- 1 126.9956 -1.3
  152.0831 C7H10N3O- 1 152.0829 1.33
PK$NUM_PEAK: 3
PK$PEAK: m/z int. rel.int.
  68.0254 1075322.4 999
  126.9955 77113.9 71
  152.0831 18434.2 17
//
