ACCESSION: MSBNK-Eawag-EQ01151002
RECORD_TITLE: Azithromycin-13-O-descladinosyl-6-N-desmethyl; LC-ESI-QFT; MS2; CE: 30%; R=17500; [M+H]+
DATE: 2024.05.08
AUTHORS: C. Meyer [dtc], B. Beck [dtc,com], J. Hollender [dtc]
LICENSE: CC BY-SA
COPYRIGHT: Copyright (C) Eawag 2023
PUBLICATION: Meyer, C., Stravs, M., Hollender, J.. How Wastewater Reflects Human Metabolism - Suspect Screening of Pharmaceutical Metabolites in Wastewater Influent. doi:10.1021/acs.est.4c00968
COMMENT: CONFIDENCE standard compound
COMMENT: UCHEM_ID 11510
CH$NAME: Azithromycin-13-O-descladinosyl-6-N-desmethyl
CH$NAME: Descladinose 6-N-Desmethyl Azithromycin
CH$NAME: 11-[4-(dimethylamino)-3-hydroxy-6-methyloxan-2-yl]oxy-2-ethyl-3,4,10,13-tetrahydroxy-3,5,8,10,12,14-hexamethyl-1-oxa-6-azacyclopentadecan-15-one
CH$COMPOUND_CLASS: N/A; Environmental Standard
CH$FORMULA: C29H56N2O9
CH$EXACT_MASS: 576.3985814
CH$SMILES: CCC1C(C(C(NCC(CC(C(C(C(C(C(=O)O1)C)O)C)OC2C(C(CC(O2)C)N(C)C)O)(C)O)C)C)O)(C)O
CH$IUPAC: InChI=1S/C29H56N2O9/c1-11-21-29(8,37)24(34)19(6)30-14-15(2)13-28(7,36)25(17(4)22(32)18(5)26(35)39-21)40-27-23(33)20(31(9)10)12-16(3)38-27/h15-25,27,30,32-34,36-37H,11-14H2,1-10H3
CH$LINK: PUBCHEM CID:23558713
CH$LINK: INCHIKEY LOMZTTMTKSVHAG-UHFFFAOYSA-N
CH$LINK: CHEMSPIDER 19162791
AC$INSTRUMENT: Exploris 240 Orbitrap Thermo Scientific
AC$INSTRUMENT_TYPE: LC-ESI-QFT
AC$MASS_SPECTROMETRY: MS_TYPE MS2
AC$MASS_SPECTROMETRY: ION_MODE POSITIVE
AC$MASS_SPECTROMETRY: IONIZATION ESI
AC$MASS_SPECTROMETRY: FRAGMENTATION_MODE HCD
AC$MASS_SPECTROMETRY: COLLISION_ENERGY 30 % (nominal)
AC$MASS_SPECTROMETRY: RESOLUTION 17500
AC$MASS_SPECTROMETRY: MASS_RANGE_M/Z 60-610
AC$CHROMATOGRAPHY: COLUMN_NAME XBridge C18 3.5um, 2.1x50mm, Waters
AC$CHROMATOGRAPHY: FLOW_GRADIENT 90/10 at 0 min, 50/50 at 4 min, 5/95 at 17 min, 5/95 at 25 min, 90/10 at 25.1 min, 90/10 at 30 min
AC$CHROMATOGRAPHY: FLOW_RATE 200 uL/min
AC$CHROMATOGRAPHY: RETENTION_TIME 3.480 min
MS$FOCUSED_ION: BASE_PEAK 289.2063
MS$FOCUSED_ION: PRECURSOR_M/Z 577.4059
MS$FOCUSED_ION: PRECURSOR_TYPE [M+H]+
MS$DATA_PROCESSING: RECALIBRATE loess on assigned fragments and MS1
MS$DATA_PROCESSING: REANALYZE Peaks with additional N2/O included
MS$DATA_PROCESSING: WHOLE RMassBank 3.15.1
PK$SPLASH: splash10-0ar0-0900020000-a81315b937a08f471e5b
PK$ANNOTATION: m/z tentative_formula formula_count mass error(ppm)
  72.0807 C4H10N+ 1 72.0808 -1.52
  113.0599 C6H9O2+ 1 113.0597 1.87
  116.0708 C5H10NO2+ 1 116.0706 1.65
  116.1069 C6H14NO+ 1 116.107 -0.46
  158.1176 C8H16NO2+ 1 158.1176 -0.01
  172.1329 C9H18NO2+ 1 172.1332 -1.86
  577.4067 C29H57N2O9+ 1 577.4059 1.44
PK$NUM_PEAK: 7
PK$PEAK: m/z int. rel.int.
  72.0807 13249.9 48
  113.0599 8226.3 30
  116.0708 25918.7 95
  116.1069 173110.9 637
  158.1176 271460.6 999
  172.1329 22616.5 83
  577.4067 147631 543
//
