ACCESSION: MSBNK-Eawag-EA006709
RECORD_TITLE: Metolachlor morpholinone; LC-ESI-ITFT; MS2; CE: 30%; R=15000; [M+H]+
DATE: 2014.01.14
AUTHORS: Stravs M, Schymanski E, Singer H, Department of Environmental Chemistry, Eawag
LICENSE: CC BY
COPYRIGHT: Copyright (C) 2012 Eawag, Duebendorf, Switzerland
COMMENT: CONFIDENCE standard compound
COMMENT: EAWAG_UCHEM_ID 67
CH$NAME: Metolachlor morpholinone
CH$NAME: 4-(2-ethyl-6-methylphenyl)-5-methylmorpholin-3-one
CH$COMPOUND_CLASS: N/A; Environmental Standard
CH$FORMULA: C14H19NO2
CH$EXACT_MASS: 233.1416
CH$SMILES: O=C2N(c1c(cccc1C)CC)C(C)COC2
CH$IUPAC: InChI=1S/C14H19NO2/c1-4-12-7-5-6-10(2)14(12)15-11(3)8-17-9-13(15)16/h5-7,11H,4,8-9H2,1-3H3
CH$LINK: CAS 120375-14-6
CH$LINK: PUBCHEM CID:179957
CH$LINK: INCHIKEY DVBDYPDVNRJKNJ-UHFFFAOYSA-N
CH$LINK: CHEMSPIDER 156619
CH$LINK: COMPTOX DTXSID30891443
AC$INSTRUMENT: LTQ Orbitrap XL Thermo Scientific
AC$INSTRUMENT_TYPE: LC-ESI-ITFT
AC$MASS_SPECTROMETRY: MS_TYPE MS2
AC$MASS_SPECTROMETRY: ION_MODE POSITIVE
AC$MASS_SPECTROMETRY: IONIZATION ESI
AC$MASS_SPECTROMETRY: FRAGMENTATION_MODE HCD
AC$MASS_SPECTROMETRY: COLLISION_ENERGY 30 % (nominal)
AC$MASS_SPECTROMETRY: RESOLUTION 15000
AC$CHROMATOGRAPHY: COLUMN_NAME XBridge C18 3.5um, 2.1x50mm, Waters
AC$CHROMATOGRAPHY: FLOW_GRADIENT 90/10 at 0 min, 50/50 at 4 min, 5/95 at 17 min, 5/95 at 25 min, 90/10 at 25.1 min, 90/10 at 30 min
AC$CHROMATOGRAPHY: FLOW_RATE 200 ul/min
AC$CHROMATOGRAPHY: RETENTION_TIME 8.2 min
AC$CHROMATOGRAPHY: SOLVENT A water with 0.1% formic acid
AC$CHROMATOGRAPHY: SOLVENT B methanol with 0.1% formic acid
MS$FOCUSED_ION: BASE_PEAK 234.1493
MS$FOCUSED_ION: PRECURSOR_M/Z 234.1489
MS$FOCUSED_ION: PRECURSOR_TYPE [M+H]+
MS$DATA_PROCESSING: DEPROFILE Spline
MS$DATA_PROCESSING: RECALIBRATE loess on assigned fragments and MS1
MS$DATA_PROCESSING: REANALYZE Peaks with additional N2/O included
MS$DATA_PROCESSING: WHOLE RMassBank 1.3.1
PK$SPLASH: splash10-001i-0090000000-1e89e622156bab51edf8
PK$ANNOTATION: m/z tentative_formula formula_count mass error(ppm)
  146.0965 C10H12N+ 1 146.0964 0.44
  148.0752 C9H10NO+ 1 148.0757 -3.11
  176.1076 C11H14NO+ 1 176.107 3.4
  206.1174 C12H16NO2+ 1 206.1176 -0.61
  234.1489 C14H20NO2+ 1 234.1489 0.23
PK$NUM_PEAK: 5
PK$PEAK: m/z int. rel.int.
  146.0965 5904.9 1
  148.0752 3887.6 1
  176.1076 4044.8 1
  206.1174 14371.3 3
  234.1489 3795280.4 999
//
