ACCESSION: MSBNK-Eawag-EA034405
RECORD_TITLE: 4,5-Dichloro-2-n-octyl-3(2H)-isothiazolone (DCOIT); LC-ESI-ITFT; MS2; CE: 60%; R=7500; [M+H]+
DATE: 2014.01.14
AUTHORS: Stravs M, Schymanski E, Singer H, Department of Environmental Chemistry, Eawag
LICENSE: CC BY
COPYRIGHT: Copyright (C) 2012 Eawag, Duebendorf, Switzerland
COMMENT: CONFIDENCE standard compound
COMMENT: EAWAG_UCHEM_ID 344
CH$NAME: 4,5-Dichloro-2-n-octyl-3(2H)-isothiazolone (DCOIT)
CH$NAME: 3(2H)-Isothiazolone, 4,5-dichloro-2-octyl-
CH$NAME: 4,5-bis(chloranyl)-2-octyl-1,2-thiazol-3-one
CH$COMPOUND_CLASS: N/A; Environmental Standard
CH$FORMULA: C11H17Cl2NOS
CH$EXACT_MASS: 281.0402
CH$SMILES: O=c1c(Cl)c(Cl)sn1CCCCCCCC
CH$IUPAC: InChI=1S/C11H17Cl2NOS/c1-2-3-4-5-6-7-8-14-11(15)9(12)10(13)16-14/h2-8H2,1H3
CH$LINK: CAS 64359-81-5
CH$LINK: PUBCHEM CID:91688
CH$LINK: INCHIKEY PORQOHRXAJJKGK-UHFFFAOYSA-N
CH$LINK: CHEMSPIDER 82791
CH$LINK: COMPTOX DTXSID5032315
AC$INSTRUMENT: LTQ Orbitrap XL Thermo Scientific
AC$INSTRUMENT_TYPE: LC-ESI-ITFT
AC$MASS_SPECTROMETRY: MS_TYPE MS2
AC$MASS_SPECTROMETRY: ION_MODE POSITIVE
AC$MASS_SPECTROMETRY: IONIZATION ESI
AC$MASS_SPECTROMETRY: FRAGMENTATION_MODE HCD
AC$MASS_SPECTROMETRY: COLLISION_ENERGY 60 % (nominal)
AC$MASS_SPECTROMETRY: RESOLUTION 7500
AC$CHROMATOGRAPHY: COLUMN_NAME XBridge C18 3.5um, 2.1x50mm, Waters
AC$CHROMATOGRAPHY: FLOW_GRADIENT 90/10 at 0 min, 50/50 at 4 min, 5/95 at 17 min, 5/95 at 25 min, 90/10 at 25.1 min, 90/10 at 30 min
AC$CHROMATOGRAPHY: FLOW_RATE 200 ul/min
AC$CHROMATOGRAPHY: RETENTION_TIME 15.3 min
AC$CHROMATOGRAPHY: SOLVENT A water with 0.1% formic acid
AC$CHROMATOGRAPHY: SOLVENT B methanol with 0.1% formic acid
MS$FOCUSED_ION: BASE_PEAK 282.0485
MS$FOCUSED_ION: PRECURSOR_M/Z 282.0481
MS$FOCUSED_ION: PRECURSOR_TYPE [M+H]+
MS$DATA_PROCESSING: DEPROFILE Spline
MS$DATA_PROCESSING: RECALIBRATE loess on assigned fragments and MS1
MS$DATA_PROCESSING: REANALYZE Peaks with additional N2/O included
MS$DATA_PROCESSING: WHOLE RMassBank 1.3.1
PK$SPLASH: splash10-014i-1900000000-c0dedeb76ab6a5588c52
PK$ANNOTATION: m/z tentative_formula formula_count mass error(ppm)
  57.0699 C4H9+ 1 57.0699 -0.29
  71.0856 C5H11+ 1 71.0855 0.75
  126.9171 C2HCl2S+ 1 126.9171 -0.02
  134.954 C3H2ClNOS+ 1 134.954 -0.32
  151.9125 C3Cl2NS+ 1 151.9123 1.3
  169.9231 C3H2Cl2NOS+ 1 169.9229 1.14
PK$NUM_PEAK: 6
PK$PEAK: m/z int. rel.int.
  57.0699 114120.1 114
  71.0856 43848.2 43
  126.9171 17154.8 17
  134.954 15047.7 15
  151.9125 10334.7 10
  169.9231 999963.9 999
//
