ACCESSION: MSBNK-Eawag-EA066910
RECORD_TITLE: Secbumeton; LC-ESI-ITFT; MS2; CE: 45%; R=15000; [M+H]+
DATE: 2014.01.14
AUTHORS: Stravs M, Schymanski E, Singer H, Department of Environmental Chemistry, Eawag
LICENSE: CC BY
COPYRIGHT: Copyright (C) 2012 Eawag, Duebendorf, Switzerland
COMMENT: CONFIDENCE standard compound
COMMENT: EAWAG_UCHEM_ID 669
CH$NAME: Secbumeton
CH$NAME: 2-N-butan-2-yl-4-N-ethyl-6-methoxy-1,3,5-triazine-2,4-diamine
CH$COMPOUND_CLASS: N/A; Environmental Standard
CH$FORMULA: C10H19N5O
CH$EXACT_MASS: 225.1590
CH$SMILES: c1(nc(nc(n1)OC)NCC)NC(CC)C
CH$IUPAC: InChI=1S/C10H19N5O/c1-5-7(3)12-9-13-8(11-6-2)14-10(15-9)16-4/h7H,5-6H2,1-4H3,(H2,11,12,13,14,15)
CH$LINK: CAS 26259-45-0
CH$LINK: KEGG C19106
CH$LINK: PUBCHEM CID:33443
CH$LINK: INCHIKEY ZJMZZNVGNSWOOM-UHFFFAOYSA-N
CH$LINK: CHEMSPIDER 30881
CH$LINK: COMPTOX DTXSID8037594
AC$INSTRUMENT: LTQ Orbitrap XL Thermo Scientific
AC$INSTRUMENT_TYPE: LC-ESI-ITFT
AC$MASS_SPECTROMETRY: MS_TYPE MS2
AC$MASS_SPECTROMETRY: ION_MODE POSITIVE
AC$MASS_SPECTROMETRY: IONIZATION ESI
AC$MASS_SPECTROMETRY: FRAGMENTATION_MODE HCD
AC$MASS_SPECTROMETRY: COLLISION_ENERGY 45 % (nominal)
AC$MASS_SPECTROMETRY: RESOLUTION 15000
AC$CHROMATOGRAPHY: COLUMN_NAME XBridge C18 3.5um, 2.1x50mm, Waters
AC$CHROMATOGRAPHY: FLOW_GRADIENT 90/10 at 0 min, 50/50 at 4 min, 5/95 at 17 min, 5/95 at 25 min, 90/10 at 25.1 min, 90/10 at 30 min
AC$CHROMATOGRAPHY: FLOW_RATE 200 ul/min
AC$CHROMATOGRAPHY: RETENTION_TIME 6.7 min
AC$CHROMATOGRAPHY: SOLVENT A water with 0.1% formic acid
AC$CHROMATOGRAPHY: SOLVENT B methanol with 0.1% formic acid
MS$FOCUSED_ION: BASE_PEAK 226.1668
MS$FOCUSED_ION: PRECURSOR_M/Z 226.1662
MS$FOCUSED_ION: PRECURSOR_TYPE [M+H]+
MS$DATA_PROCESSING: DEPROFILE Spline
MS$DATA_PROCESSING: RECALIBRATE loess on assigned fragments and MS1
MS$DATA_PROCESSING: REANALYZE Peaks with additional N2/O included
MS$DATA_PROCESSING: WHOLE RMassBank 1.3.1
PK$SPLASH: splash10-00b9-0980000000-7f3de56908ab20e4e8f3
PK$ANNOTATION: m/z tentative_formula formula_count mass error(ppm)
  57.0448 C2H5N2+ 1 57.0447 0.45
  68.0244 C2H2N3+ 1 68.0243 1.27
  69.0083 C2HN2O+ 1 69.0083 0.16
  71.0604 C3H7N2+ 1 71.0604 0.78
  75.0554 C2H7N2O+ 1 75.0553 1.08
  85.076 C4H9N2+ 1 85.076 -0.06
  86.035 C2H4N3O+ 1 86.0349 1.42
  96.0557 C4H6N3+ 1 96.0556 0.8
  97.0397 C4H5N2O+ 1 97.0396 0.63
  100.0506 C3H6N3O+ 1 100.0505 0.62
  114.0662 C4H8N3O+ 1 114.0662 0.54
  128.0819 C5H10N3O+ 1 128.0818 0.33
  138.0775 C5H8N5+ 1 138.0774 0.86
  142.0725 C4H8N5O+ 1 142.0723 0.94
  152.1185 C8H14N3+ 1 152.1182 1.62
  170.1039 C6H12N5O+ 1 170.1036 1.55
  198.1353 C8H16N5O+ 1 198.1349 1.83
  226.1665 C10H20N5O+ 1 226.1662 1.16
PK$NUM_PEAK: 18
PK$PEAK: m/z int. rel.int.
  57.0448 87033.7 3
  68.0244 330945.6 12
  69.0083 104499.3 4
  71.0604 68383.5 2
  75.0554 187991.5 7
  85.076 104738.4 4
  86.035 108185.5 4
  96.0557 662419.4 25
  97.0397 54933 2
  100.0506 837516.7 32
  114.0662 649326.1 25
  128.0819 411287.1 15
  138.0775 88005.8 3
  142.0725 722105.3 28
  152.1185 80498.4 3
  170.1039 24724894 960
  198.1353 105921.5 4
  226.1665 25708525.2 999
//
