ACCESSION: MSBNK-Eawag-EA255551
RECORD_TITLE: Cilastatin; LC-ESI-ITFT; MS2; CE: 35%; R=7500; [M-H]-
DATE: 2014.01.14
AUTHORS: Stravs M, Schymanski E, Singer H, Department of Environmental Chemistry, Eawag
LICENSE: CC BY
COPYRIGHT: Copyright (C) 2012 Eawag, Duebendorf, Switzerland
COMMENT: CONFIDENCE standard compound
COMMENT: EAWAG_UCHEM_ID 2555
CH$NAME: Cilastatin
CH$COMPOUND_CLASS: N/A; Environmental Standard
CH$FORMULA: C16H26N2O5S
CH$EXACT_MASS: 358.1562
CH$SMILES: [H][C@](N)(CSCCCC\C=C(/NC(=O)[C@@]1([H])CC1(C)C)C(O)=O)C(O)=O
CH$IUPAC: InChI=1S/C16H26N2O5S/c1-16(2)8-10(16)13(19)18-12(15(22)23)6-4-3-5-7-24-9-11(17)14(20)21/h6,10-11H,3-5,7-9,17H2,1-2H3,(H,18,19)(H,20,21)(H,22,23)/b12-6-/t10-,11+/m1/s1
CH$LINK: CAS 82009-34-5
CH$LINK: KEGG D07698
CH$LINK: PUBCHEM CID:6435415
CH$LINK: INCHIKEY DHSUYTOATWAVLW-WFVMDLQDSA-N
CH$LINK: CHEMSPIDER 4940183
CH$LINK: COMPTOX DTXSID8048238
AC$INSTRUMENT: LTQ Orbitrap XL Thermo Scientific
AC$INSTRUMENT_TYPE: LC-ESI-ITFT
AC$MASS_SPECTROMETRY: MS_TYPE MS2
AC$MASS_SPECTROMETRY: ION_MODE NEGATIVE
AC$MASS_SPECTROMETRY: IONIZATION ESI
AC$MASS_SPECTROMETRY: FRAGMENTATION_MODE CID
AC$MASS_SPECTROMETRY: COLLISION_ENERGY 35 % (nominal)
AC$MASS_SPECTROMETRY: RESOLUTION 7500
AC$CHROMATOGRAPHY: COLUMN_NAME XBridge C18 3.5um, 2.1x50mm, Waters
AC$CHROMATOGRAPHY: FLOW_GRADIENT 90/10 at 0 min, 50/50 at 4 min, 5/95 at 17 min, 5/95 at 25 min, 90/10 at 25.1 min, 90/10 at 30 min
AC$CHROMATOGRAPHY: FLOW_RATE 200 ul/min
AC$CHROMATOGRAPHY: RETENTION_TIME 5.2 min
AC$CHROMATOGRAPHY: SOLVENT A water with 0.1% formic acid
AC$CHROMATOGRAPHY: SOLVENT B methanol with 0.1% formic acid
MS$FOCUSED_ION: BASE_PEAK 357.148
MS$FOCUSED_ION: PRECURSOR_M/Z 357.149
MS$FOCUSED_ION: PRECURSOR_TYPE [M-H]-
MS$DATA_PROCESSING: DEPROFILE Spline
MS$DATA_PROCESSING: RECALIBRATE loess on assigned fragments and MS1
MS$DATA_PROCESSING: REANALYZE Peaks with additional N2/O included
MS$DATA_PROCESSING: WHOLE RMassBank 1.3.1
PK$SPLASH: splash10-03fr-0089000000-e23865517b151264287c
PK$ANNOTATION: m/z tentative_formula formula_count mass error(ppm)
  112.0767 C6H10NO- 1 112.0768 -0.69
  113.0432 C6H9S- 1 113.043 1.02
  156.0855 C8H14NS- 1 156.0852 1.7
  192.1394 C12H18NO- 1 192.1394 0.22
  200.0749 C9H14NO2S- 1 200.0751 -0.87
  226.1273 C12H20NOS- 1 226.1271 0.76
  270.1171 C13H20NO3S- 1 270.1169 0.64
  295.1488 C15H23N2O2S- 1 295.1486 0.74
  313.1593 C15H25N2O3S- 1 313.1591 0.55
  339.1387 C16H23N2O4S- 1 339.1384 0.88
PK$NUM_PEAK: 10
PK$PEAK: m/z int. rel.int.
  112.0767 49576.7 12
  113.0432 16993.9 4
  156.0855 50067.4 13
  192.1394 50959.9 13
  200.0749 13183.7 3
  226.1273 3346375.2 877
  270.1171 213417.6 55
  295.1488 61897.1 16
  313.1593 3810401.8 999
  339.1387 116065.1 30
//
