ACCESSION: MSBNK-Eawag-EA294705
RECORD_TITLE: Pymetrozine; LC-ESI-ITFT; MS2; CE: 60%; R=7500; [M+H]+
DATE: 2014.01.14
AUTHORS: Stravs M, Schymanski E, Singer H, Department of Environmental Chemistry, Eawag
LICENSE: CC BY
COPYRIGHT: Copyright (C) 2012 Eawag, Duebendorf, Switzerland
COMMENT: CONFIDENCE standard compound
COMMENT: EAWAG_UCHEM_ID 2947
CH$NAME: Pymetrozine
CH$NAME: 6-methyl-4-(3-pyridinylmethylideneamino)-2,5-dihydro-1,2,4-triazin-3-one
CH$COMPOUND_CLASS: N/A; Environmental Standard
CH$FORMULA: C10H11N5O
CH$EXACT_MASS: 217.0964
CH$SMILES: O=C2N(/N=C/c1cccnc1)C\C(=N/N2)C
CH$IUPAC: InChI=1S/C10H11N5O/c1-8-7-15(10(16)14-13-8)12-6-9-3-2-4-11-5-9/h2-6H,7H2,1H3,(H,14,16)/b12-6+
CH$LINK: CAS 123312-89-0
CH$LINK: CHEBI CHEBI:39311
CH$LINK: PUBCHEM CID:86370
CH$LINK: INCHIKEY QHMTXANCGGJZRX-WUXMJOGZSA-N
CH$LINK: CHEMSPIDER 77888
CH$LINK: COMPTOX DTXSID2032637
AC$INSTRUMENT: LTQ Orbitrap XL Thermo Scientific
AC$INSTRUMENT_TYPE: LC-ESI-ITFT
AC$MASS_SPECTROMETRY: MS_TYPE MS2
AC$MASS_SPECTROMETRY: ION_MODE POSITIVE
AC$MASS_SPECTROMETRY: IONIZATION ESI
AC$MASS_SPECTROMETRY: FRAGMENTATION_MODE HCD
AC$MASS_SPECTROMETRY: COLLISION_ENERGY 60 % (nominal)
AC$MASS_SPECTROMETRY: RESOLUTION 7500
AC$CHROMATOGRAPHY: COLUMN_NAME XBridge C18 3.5um, 2.1x50mm, Waters
AC$CHROMATOGRAPHY: FLOW_GRADIENT 90/10 at 0 min, 50/50 at 4 min, 5/95 at 17 min, 5/95 at 25 min, 90/10 at 25.1 min, 90/10 at 30 min
AC$CHROMATOGRAPHY: FLOW_RATE 200 ul/min
AC$CHROMATOGRAPHY: RETENTION_TIME 1.5 min
AC$CHROMATOGRAPHY: SOLVENT A water with 0.1% formic acid
AC$CHROMATOGRAPHY: SOLVENT B methanol with 0.1% formic acid
MS$FOCUSED_ION: BASE_PEAK 218.104
MS$FOCUSED_ION: PRECURSOR_M/Z 218.1036
MS$FOCUSED_ION: PRECURSOR_TYPE [M+H]+
MS$DATA_PROCESSING: DEPROFILE Spline
MS$DATA_PROCESSING: RECALIBRATE loess on assigned fragments and MS1
MS$DATA_PROCESSING: REANALYZE Peaks with additional N2/O included
MS$DATA_PROCESSING: WHOLE RMassBank 1.3.1
PK$SPLASH: splash10-0a4i-0900000000-0a822dedc53002c3a236
PK$ANNOTATION: m/z tentative_formula formula_count mass error(ppm)
  78.0337 C5H4N+ 1 78.0338 -1.87
  79.0417 C5H5N+ 1 79.0417 0.25
  80.0494 C5H6N+ 1 80.0495 -0.32
  92.0494 C6H6N+ 1 92.0495 -1.36
  93.0573 C6H7N+ 1 93.0573 -0.44
  98.0349 C3H4N3O+ 1 98.0349 0.12
  105.0446 C6H5N2+ 1 105.0447 -0.81
  106.0524 C6H6N2+ 1 106.0525 -0.94
  107.0603 C6H7N2+ 1 107.0604 -0.32
  111.0314 C5H5NO2+ 1 111.0315 -1.08
  120.0557 C6H6N3+ 1 120.0556 0.55
  134.071 C7H8N3+ 1 134.0713 -2.12
  148.0505 C7H6N3O+ 1 148.0505 -0.06
  218.1038 C10H12N5O+ 1 218.1036 0.8
PK$NUM_PEAK: 14
PK$PEAK: m/z int. rel.int.
  78.0337 36065.2 2
  79.0417 527592.9 32
  80.0494 93160.7 5
  92.0494 48764.4 2
  93.0573 57395 3
  98.0349 52551.7 3
  105.0446 16389705.7 999
  106.0524 69243.4 4
  107.0603 304093.1 18
  111.0314 130602.7 7
  120.0557 34637 2
  134.071 60691.2 3
  148.0505 29063.6 1
  218.1038 238352.3 14
//
