ACCESSION: MSBNK-Eawag-EQ327603
RECORD_TITLE: Orphenadrine; LC-ESI-QFT; MS2; CE: 45; R=35000; [M+H]+
DATE: 2015.08.25
AUTHORS: Beck B, Stravs M, Schymanski E, Singer H, Department of Environmental Chemistry, Eawag
LICENSE: CC BY
COPYRIGHT: Copyright (C) 2015 Eawag, Duebendorf, Switzerland
COMMENT: CONFIDENCE standard compound
COMMENT: EAWAG_UCHEM_ID 3276
CH$NAME: Orphenadrine
CH$NAME: N,N-dimethyl-2-[(2-methylphenyl)-phenylmethoxy]ethanamine
CH$COMPOUND_CLASS: N/A; Environmental Standard
CH$FORMULA: C18H23NO
CH$EXACT_MASS: 269.17796
CH$SMILES: CC1=CC=CC=C1C(C2=CC=CC=C2)OCCN(C)C
CH$IUPAC: InChI=1S/C18H23NO/c1-15-9-7-8-12-17(15)18(20-14-13-19(2)3)16-10-5-4-6-11-16/h4-12,18H,13-14H2,1-3H3
CH$LINK: CAS 83-98-7
CH$LINK: CHEBI CHEBI:7789
CH$LINK: KEGG C07935
CH$LINK: PUBCHEM CID:4601
CH$LINK: INCHIKEY QVYRGXJJSLMXQH-UHFFFAOYSA-N
CH$LINK: CHEMSPIDER 4440
CH$LINK: COMPTOX DTXSID3023396
AC$INSTRUMENT: Q Exactive Plus Orbitrap Thermo Scientific
AC$INSTRUMENT_TYPE: LC-ESI-QFT
AC$MASS_SPECTROMETRY: MS_TYPE MS2
AC$MASS_SPECTROMETRY: ION_MODE POSITIVE
AC$MASS_SPECTROMETRY: IONIZATION ESI
AC$MASS_SPECTROMETRY: FRAGMENTATION_MODE HCD
AC$MASS_SPECTROMETRY: COLLISION_ENERGY 45 (nominal)
AC$MASS_SPECTROMETRY: RESOLUTION 35000
AC$CHROMATOGRAPHY: COLUMN_NAME XBridge C18 3.5um, 2.1x50mm, Waters
AC$CHROMATOGRAPHY: FLOW_GRADIENT 90/10 at 0 min, 50/50 at 4 min, 5/95 at 17 min, 5/95 at 25 min, 90/10 at 25.1 min, 90/10 at 30 min
AC$CHROMATOGRAPHY: FLOW_RATE 200 ul/min
AC$CHROMATOGRAPHY: RETENTION_TIME 7.4 min
AC$CHROMATOGRAPHY: SOLVENT A water with 0.1% formic acid
AC$CHROMATOGRAPHY: SOLVENT B methanol with 0.1% formic acid
MS$FOCUSED_ION: BASE_PEAK 270.1849
MS$FOCUSED_ION: PRECURSOR_M/Z 270.1852
MS$FOCUSED_ION: PRECURSOR_TYPE [M+H]+
MS$DATA_PROCESSING: RECALIBRATE loess on assigned fragments and MS1
MS$DATA_PROCESSING: REANALYZE Peaks with additional N2/O included
MS$DATA_PROCESSING: WHOLE RMassBank 1.9.6
PK$SPLASH: splash10-001i-0900000000-46ad662bd87fac31bf96
PK$ANNOTATION: m/z tentative_formula formula_count mass error(ppm)
  88.0757 C4H10NO+ 1 88.0757 0
  103.0541 C8H7+ 1 103.0542 -0.84
  115.054 C9H7+ 1 115.0542 -2.32
  141.0698 C11H9+ 1 141.0699 -0.54
  152.0619 C12H8+ 1 152.0621 -0.67
  153.0698 C12H9+ 1 153.0699 -0.31
  165.0698 C13H9+ 1 165.0699 -0.65
  166.0777 C13H10+ 1 166.0777 -0.01
  179.0856 C14H11+ 1 179.0855 0.3
  180.0929 C14H12+ 1 180.0934 -2.56
  181.1011 C14H13+ 1 181.1012 -0.59
  183.0807 C13H11O+ 1 183.0804 1.25
  193.0759 C13H9N2+ 1 193.076 -0.8
PK$NUM_PEAK: 13
PK$PEAK: m/z int. rel.int.
  88.0757 989476.9 1
  103.0541 1921272.2 2
  115.054 2048288.5 2
  141.0698 4775430 5
  152.0619 1029015.4 1
  153.0698 21256936 26
  165.0698 28116066 35
  166.0777 249041344 311
  179.0856 28560980 35
  180.0929 1920964.9 2
  181.1011 797682048 999
  183.0807 1268197.4 1
  193.0759 1376221.4 1
//
