ACCESSION: MSBNK-Eawag-EQ01129207
RECORD_TITLE: Phenthoate; LC-ESI-QFT; MS2; CE: 120%; R=17500; [M+H]+
DATE: 2023.04.27
AUTHORS: B. Beck [dtc,com], J. Hollender [dtc]
LICENSE: CC BY-SA
COPYRIGHT: Copyright (C) Eawag 2023
COMMENT: CONFIDENCE standard compound
COMMENT: UCHEM_ID 11292
CH$NAME: Phenthoate
CH$NAME: ethyl 2-dimethoxyphosphinothioylsulfanyl-2-phenylacetate
CH$COMPOUND_CLASS: N/A; Environmental Standard
CH$FORMULA: C12H17O4PS2
CH$EXACT_MASS: 320.0306
CH$SMILES: CCOC(=O)C(C1=CC=CC=C1)SP(=S)(OC)OC
CH$IUPAC: InChI=1S/C12H17O4PS2/c1-4-16-12(13)11(10-8-6-5-7-9-10)19-17(18,14-2)15-3/h5-9,11H,4H2,1-3H3
CH$LINK: CAS 123-30-8
CH$LINK: CHEBI CHEBI:34917
CH$LINK: KEGG C14429
CH$LINK: PUBCHEM CID:17435
CH$LINK: INCHIKEY XAMUDJHXFNRLCY-UHFFFAOYSA-N
CH$LINK: CHEMSPIDER 16492
AC$INSTRUMENT: Exploris 240 Orbitrap Thermo Scientific
AC$INSTRUMENT_TYPE: LC-ESI-QFT
AC$MASS_SPECTROMETRY: MS_TYPE MS2
AC$MASS_SPECTROMETRY: ION_MODE POSITIVE
AC$MASS_SPECTROMETRY: IONIZATION ESI
AC$MASS_SPECTROMETRY: FRAGMENTATION_MODE HCD
AC$MASS_SPECTROMETRY: COLLISION_ENERGY 120 % (nominal)
AC$MASS_SPECTROMETRY: RESOLUTION 17500
AC$MASS_SPECTROMETRY: MASS_RANGE_M/Z 50-348
AC$CHROMATOGRAPHY: COLUMN_NAME XBridge C18 3.5um, 2.1x50mm, Waters
AC$CHROMATOGRAPHY: FLOW_GRADIENT 90/10 at 0 min, 50/50 at 4 min, 5/95 at 17 min, 5/95 at 25 min, 90/10 at 25.1 min, 90/10 at 30 min
AC$CHROMATOGRAPHY: FLOW_RATE 200 uL/min
AC$CHROMATOGRAPHY: RETENTION_TIME 10.719 min
MS$FOCUSED_ION: BASE_PEAK 275.0712
MS$FOCUSED_ION: PRECURSOR_M/Z 321.0379
MS$FOCUSED_ION: PRECURSOR_TYPE [M+H]+
MS$DATA_PROCESSING: RECALIBRATE loess on assigned fragments and MS1
MS$DATA_PROCESSING: REANALYZE Peaks with additional N2/O included
MS$DATA_PROCESSING: WHOLE RMassBank 3.11.0.1
PK$SPLASH: splash10-004i-9000000000-585bacbb0ca23cd8d495
PK$ANNOTATION: m/z tentative_formula formula_count mass error(ppm)
  51.0229 C4H3+ 1 51.0229 -0.12
  53.0386 C4H5+ 1 53.0386 -0.42
  65.0385 C5H5+ 1 65.0386 -0.97
  77.0385 C6H5+ 1 77.0386 -0.4
  79.0542 C6H7+ 1 79.0542 -0.73
  81.0334 C5H5O+ 1 81.0335 -1.49
  91.0542 C7H7+ 1 91.0542 -0.37
  94.0414 C6H6O+ 1 94.0413 0.98
  95.0491 C6H7O+ 1 95.0491 -0.84
  107.049 C7H7O+ 1 107.0491 -1.71
PK$NUM_PEAK: 10
PK$PEAK: m/z int. rel.int.
  51.0229 1447251.2 49
  53.0386 3090932.8 106
  65.0385 2226928.8 76
  77.0385 11463591 394
  79.0542 29051748 999
  81.0334 326226.7 11
  91.0542 7946214 273
  94.0414 391281.9 13
  95.0491 3530557.8 121
  107.049 939619.8 32
//
