ACCESSION: MSBNK-Eawag-EQ371409
RECORD_TITLE: Molinate; LC-ESI-QFT; MS2; CE: 180; R=35000; [M+H]+
DATE: 2015.08.25
AUTHORS: Stravs M, Schymanski E, Singer H, Department of Environmental Chemistry, Eawag and Thomaidis N, University of Athens
LICENSE: CC BY
COPYRIGHT: Copyright (C) 2015 Eawag, Duebendorf, Switzerland
COMMENT: CONFIDENCE standard compound
COMMENT: EAWAG_UCHEM_ID 3714
CH$NAME: Molinate
CH$NAME: S-ethyl azepane-1-carbothioate
CH$COMPOUND_CLASS: N/A; Environmental Standard
CH$FORMULA: C9H17NOS
CH$EXACT_MASS: 187.10309
CH$SMILES: CCSC(=O)N1CCCCCC1
CH$IUPAC: InChI=1S/C9H17NOS/c1-2-12-9(11)10-7-5-3-4-6-8-10/h2-8H2,1H3
CH$LINK: CAS 2212-67-1
CH$LINK: CHEBI CHEBI:6964
CH$LINK: KEGG C11086
CH$LINK: PUBCHEM CID:16653
CH$LINK: INCHIKEY DEDOPGXGGQYYMW-UHFFFAOYSA-N
CH$LINK: CHEMSPIDER 15790
CH$LINK: COMPTOX DTXSID6024206
AC$INSTRUMENT: Q Exactive Plus Orbitrap Thermo Scientific
AC$INSTRUMENT_TYPE: LC-ESI-QFT
AC$MASS_SPECTROMETRY: MS_TYPE MS2
AC$MASS_SPECTROMETRY: ION_MODE POSITIVE
AC$MASS_SPECTROMETRY: IONIZATION ESI
AC$MASS_SPECTROMETRY: FRAGMENTATION_MODE HCD
AC$MASS_SPECTROMETRY: COLLISION_ENERGY 180 (nominal)
AC$MASS_SPECTROMETRY: RESOLUTION 35000
AC$CHROMATOGRAPHY: COLUMN_NAME XBridge C18 3.5um, 2.1x50mm, Waters
AC$CHROMATOGRAPHY: FLOW_GRADIENT 90/10 at 0 min, 50/50 at 4 min, 5/95 at 17 min, 5/95 at 25 min, 90/10 at 25.1 min, 90/10 at 30 min
AC$CHROMATOGRAPHY: FLOW_RATE 200 ul/min
AC$CHROMATOGRAPHY: RETENTION_TIME 10.5 min
AC$CHROMATOGRAPHY: SOLVENT A water with 0.1% formic acid
AC$CHROMATOGRAPHY: SOLVENT B methanol with 0.1% formic acid
MS$FOCUSED_ION: BASE_PEAK 188.11
MS$FOCUSED_ION: PRECURSOR_M/Z 188.1104
MS$FOCUSED_ION: PRECURSOR_TYPE [M+H]+
MS$DATA_PROCESSING: RECALIBRATE loess on assigned fragments and MS1
MS$DATA_PROCESSING: REANALYZE Peaks with additional N2/O included
MS$DATA_PROCESSING: WHOLE RMassBank 1.9.6
PK$SPLASH: splash10-0a4i-9000000000-c7f07cfa9cadc7df6605
PK$ANNOTATION: m/z tentative_formula formula_count mass error(ppm)
  51.023 C4H3+ 1 51.0229 1.05
  53.0022 C3HO+ 1 53.0022 0.73
  53.0386 C4H5+ 1 53.0386 0.63
  53.9975 C2NO+ 1 53.9974 1.11
  54.0339 C3H4N+ 1 54.0338 0.82
  55.0543 C4H7+ 1 55.0542 0.61
  56.0131 C2H2NO+ 1 56.0131 0.18
  56.0495 C3H6N+ 1 56.0495 0.44
  58.0289 C2H4NO+ 1 58.0287 2.41
  58.995 C2H3S+ 1 58.995 0.38
  65.0386 C5H5+ 1 65.0386 0.36
  66.0464 C5H6+ 1 66.0464 0.28
  67.0416 C4H5N+ 1 67.0417 -0.16
  67.0542 C5H7+ 1 67.0542 0.05
  67.9893 C3O2+ 1 67.9893 -0.16
  68.0495 C4H6N+ 1 68.0495 0.36
  70.0651 C4H8N+ 1 70.0651 0.06
  71.9902 C2H2NS+ 1 71.9902 -0.37
  78.0087 C3N3+ 1 78.0087 -0.17
  79.0542 C6H7+ 1 79.0542 0.04
  80.0495 C5H6N+ 1 80.0495 0.68
  82.0651 C5H8N+ 1 82.0651 0.17
  83.0729 C5H9N+ 1 83.073 -0.49
  84.0444 C4H6NO+ 1 84.0444 -0.12
  84.0811 C5H10N+ 1 84.0808 3.74
  95.0492 C6H7O+ 1 95.0491 0.83
  98.0966 C6H12N+ 1 98.0964 1.37
PK$NUM_PEAK: 27
PK$PEAK: m/z int. rel.int.
  51.023 21038.2 15
  53.0022 217710.1 164
  53.0386 337995.6 255
  53.9975 46342.7 35
  54.0339 10004.1 7
  55.0543 1320650.6 999
  56.0131 240621.3 182
  56.0495 129741 98
  58.0289 5103 3
  58.995 7512.9 5
  65.0386 33071.6 25
  66.0464 9077.2 6
  67.0416 26187.3 19
  67.0542 42107.1 31
  67.9893 32674.1 24
  68.0495 60827.9 46
  70.0651 101372.7 76
  71.9902 37394.4 28
  78.0087 8067.9 6
  79.0542 35630.8 26
  80.0495 9318.3 7
  82.0651 230238.7 174
  83.0729 79864 60
  84.0444 71514.5 54
  84.0811 4792.8 3
  95.0492 11037.1 8
  98.0966 26047.1 19
//
