ACCESSION: MSBNK-Eawag-EA273964
RECORD_TITLE: Climbazol; LC-ESI-ITFT; MS2; CE: 35%; R=30000; [M-H]-
DATE: 2014.01.14
AUTHORS: Stravs M, Schymanski E, Singer H, Department of Environmental Chemistry, Eawag
LICENSE: CC BY
COPYRIGHT: Copyright (C) 2012 Eawag, Duebendorf, Switzerland
COMMENT: CONFIDENCE standard compound
COMMENT: EAWAG_UCHEM_ID 2739
CH$NAME: Climbazol
CH$NAME: Climbazole
CH$NAME: 1-(4-chloranylphenoxy)-1-imidazol-1-yl-3,3-dimethyl-butan-2-one
CH$COMPOUND_CLASS: N/A; Environmental Standard
CH$FORMULA: C15H17ClN2O2
CH$EXACT_MASS: 292.0979
CH$SMILES: CC(C)(C)C(=O)C(N1C=CN=C1)OC2=CC=C(C=C2)Cl
CH$IUPAC: InChI=1S/C15H17ClN2O2/c1-15(2,3)13(19)14(18-9-8-17-10-18)20-12-6-4-11(16)5-7-12/h4-10,14H,1-3H3
CH$LINK: CAS 38083-17-9
CH$LINK: PUBCHEM CID:37907
CH$LINK: INCHIKEY OWEGWHBOCFMBLP-UHFFFAOYSA-N
CH$LINK: CHEMSPIDER 34752
CH$LINK: COMPTOX DTXSID6046555
AC$INSTRUMENT: LTQ Orbitrap XL Thermo Scientific
AC$INSTRUMENT_TYPE: LC-ESI-ITFT
AC$MASS_SPECTROMETRY: MS_TYPE MS2
AC$MASS_SPECTROMETRY: ION_MODE NEGATIVE
AC$MASS_SPECTROMETRY: IONIZATION ESI
AC$MASS_SPECTROMETRY: FRAGMENTATION_MODE CID
AC$MASS_SPECTROMETRY: COLLISION_ENERGY 35 % (nominal)
AC$MASS_SPECTROMETRY: RESOLUTION 30000
AC$CHROMATOGRAPHY: COLUMN_NAME XBridge C18 3.5um, 2.1x50mm, Waters
AC$CHROMATOGRAPHY: FLOW_GRADIENT 90/10 at 0 min, 50/50 at 4 min, 5/95 at 17 min, 5/95 at 25 min, 90/10 at 25.1 min, 90/10 at 30 min
AC$CHROMATOGRAPHY: FLOW_RATE 200 ul/min
AC$CHROMATOGRAPHY: RETENTION_TIME 8.0 min
AC$CHROMATOGRAPHY: SOLVENT A water with 0.1% formic acid
AC$CHROMATOGRAPHY: SOLVENT B methanol with 0.1% formic acid
MS$FOCUSED_ION: BASE_PEAK 174.9562
MS$FOCUSED_ION: PRECURSOR_M/Z 291.0906
MS$FOCUSED_ION: PRECURSOR_TYPE [M-H]-
MS$DATA_PROCESSING: DEPROFILE Spline
MS$DATA_PROCESSING: RECALIBRATE loess on assigned fragments and MS1
MS$DATA_PROCESSING: REANALYZE Peaks with additional N2/O included
MS$DATA_PROCESSING: WHOLE RMassBank 1.3.1
PK$SPLASH: splash10-001i-0090000000-663505b6f94e1c88a9c2
PK$ANNOTATION: m/z tentative_formula formula_count mass error(ppm)
  221.0126 C10H6ClN2O2- 1 221.0123 1.27
  223.0536 C12H12ClO2- 1 223.0531 2.15
  233.0117 C11H6ClN2O2- 1 233.0123 -2.74
  234.02 C11H7ClN2O2- 1 234.0202 -0.7
  263.0954 C14H16ClN2O- 1 263.0957 -0.89
PK$NUM_PEAK: 5
PK$PEAK: m/z int. rel.int.
  221.0126 3292.7 156
  223.0536 2549.6 121
  233.0117 2394.1 113
  234.02 21017.6 999
  263.0954 3664.1 174
//
