ACCESSION: MSBNK-Eawag-EA282609
RECORD_TITLE: Ketamine; LC-ESI-ITFT; MS2; CE: 30%; R=15000; [M+H]+
DATE: 2014.01.14
AUTHORS: Stravs M, Schymanski E, Singer H, Department of Environmental Chemistry, Eawag
LICENSE: CC BY
COPYRIGHT: Copyright (C) 2012 Eawag, Duebendorf, Switzerland
COMMENT: CONFIDENCE standard compound
COMMENT: EAWAG_UCHEM_ID 2826
CH$NAME: Ketamine
CH$NAME: 2-(2-chlorophenyl)-2-(methylamino)-1-cyclohexanone
CH$COMPOUND_CLASS: N/A; Environmental Standard
CH$FORMULA: C13H16ClNO
CH$EXACT_MASS: 237.0920
CH$SMILES: CNC1(CCCCC1=O)C2=CC=CC=C2Cl
CH$IUPAC: InChI=1S/C13H16ClNO/c1-15-13(9-5-4-8-12(13)16)10-6-2-3-7-11(10)14/h2-3,6-7,15H,4-5,8-9H2,1H3
CH$LINK: CAS 6740-88-1
CH$LINK: KEGG C07525
CH$LINK: PUBCHEM CID:3821
CH$LINK: INCHIKEY YQEZLKZALYSWHR-UHFFFAOYSA-N
CH$LINK: CHEMSPIDER 3689
CH$LINK: COMPTOX DTXSID8023187
AC$INSTRUMENT: LTQ Orbitrap XL Thermo Scientific
AC$INSTRUMENT_TYPE: LC-ESI-ITFT
AC$MASS_SPECTROMETRY: MS_TYPE MS2
AC$MASS_SPECTROMETRY: ION_MODE POSITIVE
AC$MASS_SPECTROMETRY: IONIZATION ESI
AC$MASS_SPECTROMETRY: FRAGMENTATION_MODE HCD
AC$MASS_SPECTROMETRY: COLLISION_ENERGY 30 % (nominal)
AC$MASS_SPECTROMETRY: RESOLUTION 15000
AC$CHROMATOGRAPHY: COLUMN_NAME XBridge C18 3.5um, 2.1x50mm, Waters
AC$CHROMATOGRAPHY: FLOW_GRADIENT 90/10 at 0 min, 50/50 at 4 min, 5/95 at 17 min, 5/95 at 25 min, 90/10 at 25.1 min, 90/10 at 30 min
AC$CHROMATOGRAPHY: FLOW_RATE 200 ul/min
AC$CHROMATOGRAPHY: RETENTION_TIME 4.6 min
AC$CHROMATOGRAPHY: SOLVENT A water with 0.1% formic acid
AC$CHROMATOGRAPHY: SOLVENT B methanol with 0.1% formic acid
MS$FOCUSED_ION: BASE_PEAK 238.0997
MS$FOCUSED_ION: PRECURSOR_M/Z 238.0993
MS$FOCUSED_ION: PRECURSOR_TYPE [M+H]+
MS$DATA_PROCESSING: DEPROFILE Spline
MS$DATA_PROCESSING: RECALIBRATE loess on assigned fragments and MS1
MS$DATA_PROCESSING: REANALYZE Peaks with additional N2/O included
MS$DATA_PROCESSING: WHOLE RMassBank 1.3.1
PK$SPLASH: splash10-000i-0290000000-c9d734b085ec94dabd9a
PK$ANNOTATION: m/z tentative_formula formula_count mass error(ppm)
  67.0542 C5H7+ 1 67.0542 0.2
  125.0153 C7H6Cl+ 1 125.0153 0.45
  138.995 C7H4ClO+ 1 138.9945 3.75
  141.0098 C7H6ClO+ 1 141.0102 -2.33
  151.0306 C9H8Cl+ 1 151.0309 -2.02
  152.0261 C8H7ClN+ 2 152.0262 -0.09
  154.0775 C12H10+ 1 154.0777 -1.18
  163.031 C10H8Cl+ 1 163.0309 0.59
  165.0102 C9H6ClO+ 1 165.0102 0.43
  179.0623 C11H12Cl+ 1 179.0622 0.53
  189.0467 C12H10Cl+ 1 189.0466 0.56
  207.0573 C12H12ClO+ 1 207.0571 1.02
  220.0889 C13H15ClN+ 1 220.0888 0.57
  238.0997 C13H17ClNO+ 1 238.0993 1.65
PK$NUM_PEAK: 14
PK$PEAK: m/z int. rel.int.
  67.0542 45491.5 9
  125.0153 786099.8 166
  138.995 9173.2 1
  141.0098 8032.6 1
  151.0306 12024.8 2
  152.0261 89220.5 18
  154.0775 7088.4 1
  163.031 83845.1 17
  165.0102 21996.1 4
  179.0623 979413.1 207
  189.0467 101864 21
  207.0573 1804168.9 382
  220.0889 1412239.6 299
  238.0997 4711276.1 999
//
