ACCESSION: MSBNK-Eawag-EQ00027509
RECORD_TITLE: Dicamba; LC-ESI-QFT; MS2; CE: 180%; R=15000; [M+H]+
DATE: 2024.06.14
AUTHORS: F. Jud [dtc], K. Arturi [dtc], J. Hollender [dtc], A. Dax [com]
LICENSE: CC BY-SA
COPYRIGHT: Copyright (C) Eawag 2024
COMMENT: CONFIDENCE standard compound
COMMENT: UCHEM_ID 275
CH$NAME: Dicamba
CH$NAME: 3,6-dichloro-2-methoxybenzoic acid
CH$COMPOUND_CLASS: N/A
CH$FORMULA: C8H6Cl2O3
CH$EXACT_MASS: 219.9693994
CH$SMILES: COC1=C(Cl)C=CC(Cl)=C1C(O)=O
CH$IUPAC: InChI=1S/C8H6Cl2O3/c1-13-7-5(10)3-2-4(9)6(7)8(11)12/h2-3H,1H3,(H,11,12)
CH$LINK: CAS 1918-00-9
CH$LINK: CHEBI CHEBI:81856
CH$LINK: KEGG C18597
CH$LINK: PUBCHEM CID:3030
CH$LINK: INCHIKEY IWEDIXLBFLAXBO-UHFFFAOYSA-N
CH$LINK: CHEMSPIDER 2922
AC$INSTRUMENT: Q Exactive Plus
AC$INSTRUMENT_TYPE: LC-ESI-QFT
AC$MASS_SPECTROMETRY: MS_TYPE MS2
AC$MASS_SPECTROMETRY: ION_MODE POSITIVE
AC$MASS_SPECTROMETRY: IONIZATION ESI
AC$MASS_SPECTROMETRY: FRAGMENTATION_MODE HCD
AC$MASS_SPECTROMETRY: COLLISION_ENERGY 180 % (nominal)
AC$MASS_SPECTROMETRY: RESOLUTION 15000
AC$MASS_SPECTROMETRY: MASS_RANGE_M/Z 50-245
AC$CHROMATOGRAPHY: COLUMN_NAME XBridge C18 3.5um, 2.1x50mm, Waters
AC$CHROMATOGRAPHY: FLOW_GRADIENT 90/10 at 0 min, 50/50 at 4 min, 5/95 at 17 min, 5/95 at 25 min, 90/10 at 25.1 min, 90/10 at 30 min
AC$CHROMATOGRAPHY: FLOW_RATE 200 uL/min
AC$CHROMATOGRAPHY: RETENTION_TIME 6.184 min
MS$FOCUSED_ION: BASE_PEAK 164.9846
MS$FOCUSED_ION: PRECURSOR_M/Z 220.9767
MS$FOCUSED_ION: PRECURSOR_TYPE [M+H]+
MS$FOCUSED_ION: PRECURSOR_INTENSITY 2073491.22
MS$DATA_PROCESSING: RECALIBRATE loess on assigned fragments and MS1
MS$DATA_PROCESSING: REANALYZE Peaks with additional N2/O included
MS$DATA_PROCESSING: WHOLE RMassBank 3.15.1.1
PK$SPLASH: splash10-01vk-9000000000-5fa3e1c1364c7cc0ba61
PK$ANNOTATION: m/z tentative_formula formula_count mass error(ppm)
  61.0072 C5H+ 1 61.0073 -0.52
  62.0151 C5H2+ 1 62.0151 0.3
  72.984 C3H2Cl+ 1 72.984 0.09
  74.0151 C6H2+ 1 74.0151 -0.61
  78.0101 C5H2O+ 1 78.01 0.49
  90.0101 C6H2O+ 1 90.01 0.96
  96.984 C5H2Cl+ 1 96.984 0.51
PK$NUM_PEAK: 7
PK$PEAK: m/z int. rel.int.
  61.0072 29883.5 187
  62.0151 111392.8 700
  72.984 68860.6 432
  74.0151 48471.6 304
  78.0101 12698.1 79
  90.0101 38020.1 238
  96.984 158935.5 999
//
