ACCESSION: MSBNK-Eawag-EA278102
RECORD_TITLE: Metoclopramide; LC-ESI-ITFT; MS2; CE: 15%; R=7500; [M+H]+
DATE: 2014.01.14
AUTHORS: Stravs M, Schymanski E, Singer H, Department of Environmental Chemistry, Eawag
LICENSE: CC BY
COPYRIGHT: Copyright (C) 2012 Eawag, Duebendorf, Switzerland
COMMENT: CONFIDENCE standard compound
COMMENT: EAWAG_UCHEM_ID 2781
CH$NAME: Metoclopramide
CH$NAME: 4-amino-5-chloro-N-(2-diethylaminoethyl)-2-methoxy-benzamide
CH$COMPOUND_CLASS: N/A; Environmental Standard
CH$FORMULA: C14H22ClN3O2
CH$EXACT_MASS: 299.1401
CH$SMILES: c1(cc(C(=O)NCCN(CC)CC)c(cc1N)OC)Cl
CH$IUPAC: InChI=1S/C14H22ClN3O2/c1-4-18(5-2)7-6-17-14(19)10-8-11(15)12(16)9-13(10)20-3/h8-9H,4-7,16H2,1-3H3,(H,17,19)
CH$LINK: CAS 364-62-5
CH$LINK: KEGG C07868
CH$LINK: PUBCHEM CID:4168
CH$LINK: INCHIKEY TTWJBBZEZQICBI-UHFFFAOYSA-N
CH$LINK: CHEMSPIDER 4024
CH$LINK: COMPTOX DTXSID6045169
AC$INSTRUMENT: LTQ Orbitrap XL Thermo Scientific
AC$INSTRUMENT_TYPE: LC-ESI-ITFT
AC$MASS_SPECTROMETRY: MS_TYPE MS2
AC$MASS_SPECTROMETRY: ION_MODE POSITIVE
AC$MASS_SPECTROMETRY: IONIZATION ESI
AC$MASS_SPECTROMETRY: FRAGMENTATION_MODE HCD
AC$MASS_SPECTROMETRY: COLLISION_ENERGY 15 % (nominal)
AC$MASS_SPECTROMETRY: RESOLUTION 7500
AC$CHROMATOGRAPHY: COLUMN_NAME XBridge C18 3.5um, 2.1x50mm, Waters
AC$CHROMATOGRAPHY: FLOW_GRADIENT 90/10 at 0 min, 50/50 at 4 min, 5/95 at 17 min, 5/95 at 25 min, 90/10 at 25.1 min, 90/10 at 30 min
AC$CHROMATOGRAPHY: FLOW_RATE 200 ul/min
AC$CHROMATOGRAPHY: RETENTION_TIME 4.3 min
AC$CHROMATOGRAPHY: SOLVENT A water with 0.1% formic acid
AC$CHROMATOGRAPHY: SOLVENT B methanol with 0.1% formic acid
MS$FOCUSED_ION: BASE_PEAK 300.1485
MS$FOCUSED_ION: PRECURSOR_M/Z 300.1473
MS$FOCUSED_ION: PRECURSOR_TYPE [M+H]+
MS$DATA_PROCESSING: DEPROFILE Spline
MS$DATA_PROCESSING: RECALIBRATE loess on assigned fragments and MS1
MS$DATA_PROCESSING: REANALYZE Peaks with additional N2/O included
MS$DATA_PROCESSING: WHOLE RMassBank 1.3.1
PK$SPLASH: splash10-0udi-0009000000-fcc278321866ecdee26f
PK$ANNOTATION: m/z tentative_formula formula_count mass error(ppm)
  184.0155 C8H7ClNO2+ 1 184.016 -2.51
  227.0584 C10H12ClN2O2+ 1 227.0582 0.96
  300.1479 C14H23ClN3O2+ 1 300.1473 1.86
PK$NUM_PEAK: 3
PK$PEAK: m/z int. rel.int.
  184.0155 80010.8 9
  227.0584 475088.1 54
  300.1479 8729579.8 999
//
