ACCESSION: MSBNK-Eawag-EQ00322002
RECORD_TITLE: Fenpropathrin; LC-ESI-QFT; MS2; CE: 30%; R=15000; [M+H]+
DATE: 2024.06.14
AUTHORS: F. Jud [dtc], K. Arturi [dtc], J. Hollender [dtc], A. Dax [com]
LICENSE: CC BY-SA
COPYRIGHT: Copyright (C) Eawag 2024
COMMENT: CONFIDENCE standard compound
COMMENT: UCHEM_ID 3220
CH$NAME: Fenpropathrin
CH$NAME: [cyano-(3-phenoxyphenyl)methyl] 2,2,3,3-tetramethylcyclopropane-1-carboxylate
CH$COMPOUND_CLASS: N/A
CH$FORMULA: C22H23NO3
CH$EXACT_MASS: 349.1677936
CH$SMILES: CC1(C(C1(C)C)C(=O)OC(C#N)C2=CC(=CC=C2)OC3=CC=CC=C3)C
CH$IUPAC: InChI=1S/C22H23NO3/c1-21(2)19(22(21,3)4)20(24)26-18(14-23)15-9-8-12-17(13-15)25-16-10-6-5-7-11-16/h5-13,18-19H,1-4H3
CH$LINK: CAS 64257-84-7
CH$LINK: CHEBI CHEBI:39353
CH$LINK: KEGG C18411
CH$LINK: PUBCHEM CID:47326
CH$LINK: INCHIKEY XQUXKZZNEFRCAW-UHFFFAOYSA-N
CH$LINK: CHEMSPIDER 43074
AC$INSTRUMENT: Exploris 240 Thermo Scientific
AC$INSTRUMENT_TYPE: LC-ESI-QFT
AC$MASS_SPECTROMETRY: MS_TYPE MS2
AC$MASS_SPECTROMETRY: ION_MODE POSITIVE
AC$MASS_SPECTROMETRY: IONIZATION ESI
AC$MASS_SPECTROMETRY: FRAGMENTATION_MODE HCD
AC$MASS_SPECTROMETRY: COLLISION_ENERGY 30 % (nominal)
AC$MASS_SPECTROMETRY: RESOLUTION 15000
AC$MASS_SPECTROMETRY: MASS_RANGE_M/Z 50-378
AC$CHROMATOGRAPHY: COLUMN_NAME XBridge C18 3.5um, 2.1x50mm, Waters
AC$CHROMATOGRAPHY: FLOW_GRADIENT 90/10 at 0 min, 50/50 at 4 min, 5/95 at 17 min, 5/95 at 25 min, 90/10 at 25.1 min, 90/10 at 30 min
AC$CHROMATOGRAPHY: FLOW_RATE 200 uL/min
AC$CHROMATOGRAPHY: RETENTION_TIME 14.828 min
MS$FOCUSED_ION: BASE_PEAK 372.1566
MS$FOCUSED_ION: PRECURSOR_M/Z 350.1751
MS$FOCUSED_ION: PRECURSOR_TYPE [M+H]+
MS$DATA_PROCESSING: RECALIBRATE loess on assigned fragments and MS1
MS$DATA_PROCESSING: REANALYZE Peaks with additional N2/O included
MS$DATA_PROCESSING: WHOLE RMassBank 3.15.1.1
PK$SPLASH: splash10-004i-0900000000-6bf79da77b78a51a92dd
PK$ANNOTATION: m/z tentative_formula formula_count mass error(ppm)
  97.1012 C7H13+ 1 97.1012 -0.02
  125.0959 C8H13O+ 1 125.0961 -1.17
PK$NUM_PEAK: 2
PK$PEAK: m/z int. rel.int.
  97.1012 494737 14
  125.0959 34618296 999
//
