ACCESSION: MSBNK-Eawag-EQ365658
RECORD_TITLE: Bromadiolone; LC-ESI-QFT; MS2; CE: 150; R=35000; [M-H]-
DATE: 2015.08.26
AUTHORS: Stravs M, Schymanski E, Singer H, Department of Environmental Chemistry, Eawag and Thomaidis N, University of Athens
LICENSE: CC BY
COPYRIGHT: Copyright (C) 2015 Eawag, Duebendorf, Switzerland
COMMENT: CONFIDENCE standard compound
COMMENT: EAWAG_UCHEM_ID 3656
CH$NAME: Bromadiolone
CH$NAME: 3-[3-[4-(4-bromophenyl)phenyl]-3-hydroxy-1-phenylpropyl]-4-hydroxychromen-2-one
CH$COMPOUND_CLASS: N/A; Environmental Standard
CH$FORMULA: C30H23BrO4
CH$EXACT_MASS: 526.07797
CH$SMILES: C1=CC=C(C=C1)C(CC(C2=CC=C(C=C2)C3=CC=C(C=C3)Br)O)C4=C(C5=CC=CC=C5OC4=O)O
CH$IUPAC: InChI=1S/C30H23BrO4/c31-23-16-14-20(15-17-23)19-10-12-22(13-11-19)26(32)18-25(21-6-2-1-3-7-21)28-29(33)24-8-4-5-9-27(24)35-30(28)34/h1-17,25-26,32-33H,18H2
CH$LINK: CAS 28772-56-7
CH$LINK: CHEBI CHEBI:81855
CH$LINK: KEGG C18596
CH$LINK: PUBCHEM CID:54680085
CH$LINK: INCHIKEY OWNRRUFOJXFKCU-UHFFFAOYSA-N
CH$LINK: CHEMSPIDER 10606098
CH$LINK: COMPTOX DTXSID9032589
AC$INSTRUMENT: Q Exactive Plus Orbitrap Thermo Scientific
AC$INSTRUMENT_TYPE: LC-ESI-QFT
AC$MASS_SPECTROMETRY: MS_TYPE MS2
AC$MASS_SPECTROMETRY: ION_MODE NEGATIVE
AC$MASS_SPECTROMETRY: IONIZATION ESI
AC$MASS_SPECTROMETRY: FRAGMENTATION_MODE HCD
AC$MASS_SPECTROMETRY: COLLISION_ENERGY 150 (nominal)
AC$MASS_SPECTROMETRY: RESOLUTION 35000
AC$CHROMATOGRAPHY: COLUMN_NAME XBridge C18 3.5um, 2.1x50mm, Waters
AC$CHROMATOGRAPHY: FLOW_GRADIENT 90/10 at 0 min, 50/50 at 4 min, 5/95 at 17 min, 5/95 at 25 min, 90/10 at 25.1 min, 90/10 at 30 min
AC$CHROMATOGRAPHY: FLOW_RATE 200 ul/min
AC$CHROMATOGRAPHY: RETENTION_TIME 15.3 min
AC$CHROMATOGRAPHY: SOLVENT A water with 0.1% formic acid
AC$CHROMATOGRAPHY: SOLVENT B methanol with 0.1% formic acid
MS$FOCUSED_ION: BASE_PEAK 525.0704
MS$FOCUSED_ION: PRECURSOR_M/Z 525.0707
MS$FOCUSED_ION: PRECURSOR_TYPE [M-H]-
MS$DATA_PROCESSING: RECALIBRATE loess on assigned fragments and MS1
MS$DATA_PROCESSING: REANALYZE Peaks with additional N2/O included
MS$DATA_PROCESSING: WHOLE RMassBank 1.9.6
PK$SPLASH: splash10-004i-9000000000-ebc0fb854eb64c846927
PK$ANNOTATION: m/z tentative_formula formula_count mass error(ppm)
  65.0397 C5H5- 1 65.0397 0.25
  67.019 C4H3O- 1 67.0189 0.17
  75.0241 C6H3- 1 75.024 1.02
  78.9189 Br- 1 78.9189 0.18
  93.0346 C6H5O- 1 93.0346 0.13
  101.0397 C8H5- 1 101.0397 0.56
  115.0554 C9H7- 1 115.0553 0.31
  117.0347 C8H5O- 1 117.0346 1.3
  143.0502 C10H7O- 1 143.0502 -0.41
PK$NUM_PEAK: 9
PK$PEAK: m/z int. rel.int.
  65.0397 42495.1 21
  67.019 10312.1 5
  75.0241 2693 1
  78.9189 1996834.8 999
  93.0346 81197.9 40
  101.0397 11583.3 5
  115.0554 15080.2 7
  117.0347 13571.1 6
  143.0502 2541.2 1
//
