ACCESSION: MSBNK-Eawag-EA034005
RECORD_TITLE: N,N-Dimethyl-N'-p-tolylsulphamide; LC-ESI-ITFT; MS2; CE: 60%; R=7500; [M+H]+
DATE: 2014.01.14
AUTHORS: Stravs M, Schymanski E, Singer H, Department of Environmental Chemistry, Eawag
LICENSE: CC BY
COPYRIGHT: Copyright (C) 2012 Eawag, Duebendorf, Switzerland
COMMENT: CONFIDENCE standard compound
COMMENT: EAWAG_UCHEM_ID 340
CH$NAME: N,N-Dimethyl-N'-p-tolylsulphamide
CH$NAME: 1-(dimethylsulfamoylamino)-4-methyl-benzene
CH$COMPOUND_CLASS: N/A; Environmental Standard
CH$FORMULA: C9H14N2O2S
CH$EXACT_MASS: 214.0776
CH$SMILES: O=S(=O)(Nc1ccc(C)cc1)N(C)C
CH$IUPAC: InChI=1S/C9H14N2O2S/c1-8-4-6-9(7-5-8)10-14(12,13)11(2)3/h4-7,10H,1-3H3
CH$LINK: CAS 66840-71-9
CH$LINK: PUBCHEM CID:738302
CH$LINK: INCHIKEY UDCDOJQOXWCCSD-UHFFFAOYSA-N
CH$LINK: CHEMSPIDER 645289
CH$LINK: COMPTOX DTXSID00891450
AC$INSTRUMENT: LTQ Orbitrap XL Thermo Scientific
AC$INSTRUMENT_TYPE: LC-ESI-ITFT
AC$MASS_SPECTROMETRY: MS_TYPE MS2
AC$MASS_SPECTROMETRY: ION_MODE POSITIVE
AC$MASS_SPECTROMETRY: IONIZATION ESI
AC$MASS_SPECTROMETRY: FRAGMENTATION_MODE HCD
AC$MASS_SPECTROMETRY: COLLISION_ENERGY 60 % (nominal)
AC$MASS_SPECTROMETRY: RESOLUTION 7500
AC$CHROMATOGRAPHY: COLUMN_NAME XBridge C18 3.5um, 2.1x50mm, Waters
AC$CHROMATOGRAPHY: FLOW_GRADIENT 90/10 at 0 min, 50/50 at 4 min, 5/95 at 17 min, 5/95 at 25 min, 90/10 at 25.1 min, 90/10 at 30 min
AC$CHROMATOGRAPHY: FLOW_RATE 200 ul/min
AC$CHROMATOGRAPHY: RETENTION_TIME 7.5 min
AC$CHROMATOGRAPHY: SOLVENT A water with 0.1% formic acid
AC$CHROMATOGRAPHY: SOLVENT B methanol with 0.1% formic acid
MS$FOCUSED_ION: BASE_PEAK 237.0675
MS$FOCUSED_ION: PRECURSOR_M/Z 215.0849
MS$FOCUSED_ION: PRECURSOR_TYPE [M+H]+
MS$DATA_PROCESSING: DEPROFILE Spline
MS$DATA_PROCESSING: RECALIBRATE loess on assigned fragments and MS1
MS$DATA_PROCESSING: REANALYZE Peaks with additional N2/O included
MS$DATA_PROCESSING: WHOLE RMassBank 1.3.1
PK$SPLASH: splash10-0a4i-2900000000-1affab239107e542842e
PK$ANNOTATION: m/z tentative_formula formula_count mass error(ppm)
  77.0386 C6H5+ 1 77.0386 0.04
  79.0543 C6H7+ 1 79.0542 0.42
  105.0446 C6H5N2+ 1 105.0447 -0.9
  106.0652 C7H8N+ 1 106.0651 0.89
  107.0729 C7H9N+ 1 107.073 -0.75
  108.0809 C7H10N+ 1 108.0808 0.96
  136.0995 C8H12N2+ 1 136.0995 -0.15
  151.1228 C9H15N2+ 1 151.123 -0.83
  215.0844 C9H15N2O2S+ 1 215.0849 -2.21
PK$NUM_PEAK: 9
PK$PEAK: m/z int. rel.int.
  77.0386 115504.8 41
  79.0543 654418.5 232
  105.0446 17815.4 6
  106.0652 2810209 999
  107.0729 142172.5 50
  108.0809 10468.2 3
  136.0995 42756.4 15
  151.1228 7713.2 2
  215.0844 4927 1
//
