ACCESSION: MSBNK-Eawag-EQ417003
RECORD_TITLE: Metalaxyl-M-TP CGA108906; LC-ESI-QFT; MS2; CE: 45%; R=17500; [M+H]+
DATE: 2019.12.03
AUTHORS: K. Kiefer [dtc], J. Hollender [dtc], H. Singer [dtc], M. Stravs [com]
LICENSE: CC BY-SA
COPYRIGHT: Copyright (C) Eawag 2019
PUBLICATION: Kiefer, K.; Mueller, A.; Singer, H.; Hollender, J. New relevant pesticide transformation products in groundwater detected using target and suspect screening for agricultural and urban micropollutants with LC-HRMS. Water Research 2019, 165. DOI: https://doi.org/10.1016/j.watres.2019.114972
COMMENT: CONFIDENCE standard compound
COMMENT: UCHEM_ID 4170
CH$NAME: Metalaxyl-M-TP CGA108906
CH$NAME: 2-[1-carboxyethyl-(2-methoxyacetyl)amino]-3-methylbenzoic acid
CH$COMPOUND_CLASS: N/A; Environmental Standard
CH$FORMULA: C14H17NO6
CH$EXACT_MASS: 295.1056
CH$SMILES: COCC(=O)N(C(C)C(O)=O)C1=C(C=CC=C1C)C(O)=O
CH$IUPAC: InChI=1S/C14H17NO6/c1-8-5-4-6-10(14(19)20)12(8)15(9(2)13(17)18)11(16)7-21-3/h4-6,9H,7H2,1-3H3,(H,17,18)(H,19,20)
CH$LINK: PUBCHEM CID:117065479
CH$LINK: INCHIKEY WFTHOCDLKYPFJX-UHFFFAOYSA-N
CH$LINK: CHEMSPIDER 48062958
AC$INSTRUMENT: Q Exactive Plus Orbitrap Thermo Scientific
AC$INSTRUMENT_TYPE: LC-ESI-QFT
AC$MASS_SPECTROMETRY: MS_TYPE MS2
AC$MASS_SPECTROMETRY: ION_MODE POSITIVE
AC$MASS_SPECTROMETRY: IONIZATION ESI
AC$MASS_SPECTROMETRY: FRAGMENTATION_MODE HCD
AC$MASS_SPECTROMETRY: COLLISION_ENERGY 45 % (nominal)
AC$MASS_SPECTROMETRY: RESOLUTION 17500
AC$CHROMATOGRAPHY: COLUMN_NAME XBridge C18 3.5um, 2.1x50mm, Waters
AC$CHROMATOGRAPHY: FLOW_GRADIENT 90/10 at 0 min, 50/50 at 4 min, 5/95 at 17 min, 5/95 at 25 min, 90/10 at 25.1 min, 90/10 at 30 min
AC$CHROMATOGRAPHY: FLOW_RATE 200 uL/min
AC$CHROMATOGRAPHY: RETENTION_TIME 5.723 min
AC$CHROMATOGRAPHY: SOLVENT A water with 0.1% formic acid
AC$CHROMATOGRAPHY: SOLVENT B MeOH with 0.1% formic acid
MS$FOCUSED_ION: BASE_PEAK 296.1129
MS$FOCUSED_ION: PRECURSOR_M/Z 296.1129
MS$FOCUSED_ION: PRECURSOR_TYPE [M+H]+
MS$DATA_PROCESSING: RECALIBRATE loess on assigned fragments and MS1
MS$DATA_PROCESSING: REANALYZE Peaks with additional N2/O included
MS$DATA_PROCESSING: WHOLE RMassBank 2.99.1
PK$SPLASH: splash10-03di-0900000000-e68058283f003234d502
PK$ANNOTATION: m/z tentative_formula formula_count mass error(ppm)
  65.0386 C5H5+ 1 65.0386 0.81
  91.0539 C7H7+ 1 91.0542 -3.16
  117.0572 C8H7N+ 1 117.0573 -0.48
  118.0653 C8H8N+ 1 118.0651 1.63
  119.0494 C8H7O+ 1 119.0491 2.34
  132.0809 C9H10N+ 1 132.0808 0.86
  144.0806 C10H10N+ 1 144.0808 -1.29
  146.06 C9H8NO+ 1 146.06 0
  148.0756 C9H10NO+ 1 148.0757 -0.75
  160.0757 C10H10NO+ 1 160.0757 0.18
  162.0917 C10H12NO+ 1 162.0913 1.94
  164.07 C9H10NO2+ 1 164.0706 -3.65
  172.0756 C11H10NO+ 1 172.0757 -0.4
  174.0912 C11H12NO+ 1 174.0913 -0.96
  178.0863 C10H12NO2+ 1 178.0863 -0.03
  188.0704 C11H10NO2+ 1 188.0706 -1.08
  190.0862 C11H12NO2+ 1 190.0863 -0.39
  192.1021 C11H14NO2+ 1 192.1019 0.99
  204.102 C12H14NO2+ 1 204.1019 0.3
  206.0817 C11H12NO3+ 1 206.0812 2.6
  236.0915 C12H14NO4+ 1 236.0917 -1.09
PK$NUM_PEAK: 21
PK$PEAK: m/z int. rel.int.
  65.0386 450574.8 1
  91.0539 1461560.9 5
  117.0572 860508.6 3
  118.0653 1831225.2 6
  119.0494 405279.6 1
  132.0809 2461240.5 8
  144.0806 1972404.4 7
  146.06 10986593 39
  148.0756 698125.6 2
  160.0757 278508576 999
  162.0917 1414520.1 5
  164.07 413226 1
  172.0756 3150425.8 11
  174.0912 576450.3 2
  178.0863 25204898 90
  188.0704 1130491.9 4
  190.0862 16339499 58
  192.1021 542801.2 1
  204.102 450332.4 1
  206.0817 1402899.1 5
  236.0915 2464576.8 8
//
