ACCESSION: MSBNK-Eawag-EA275908
RECORD_TITLE: Cyanazine; LC-ESI-ITFT; MS2; CE: 15%; R=15000; [M+H]+
DATE: 2014.01.14
AUTHORS: Stravs M, Schymanski E, Singer H, Department of Environmental Chemistry, Eawag
LICENSE: CC BY
COPYRIGHT: Copyright (C) 2012 Eawag, Duebendorf, Switzerland
COMMENT: CONFIDENCE standard compound
COMMENT: EAWAG_UCHEM_ID 2759
CH$NAME: Cyanazine
CH$NAME: 2-[[4-chloranyl-6-(ethylamino)-1,3,5-triazin-2-yl]amino]-2-methyl-propanenitrile
CH$COMPOUND_CLASS: N/A; Environmental Standard
CH$FORMULA: C9H13ClN6
CH$EXACT_MASS: 240.0890
CH$SMILES: CCNC1=NC(=NC(=N1)Cl)NC(C)(C)C#N
CH$IUPAC: InChI=1S/C9H13ClN6/c1-4-12-7-13-6(10)14-8(15-7)16-9(2,3)5-11/h4H2,1-3H3,(H2,12,13,14,15,16)
CH$LINK: CAS 21725-46-2
CH$LINK: CHEBI CHEBI:38069
CH$LINK: KEGG C14299
CH$LINK: PUBCHEM CID:30773
CH$LINK: INCHIKEY MZZBPDKVEFVLFF-UHFFFAOYSA-N
CH$LINK: CHEMSPIDER 28552
CH$LINK: COMPTOX DTXSID1023990
AC$INSTRUMENT: LTQ Orbitrap XL Thermo Scientific
AC$INSTRUMENT_TYPE: LC-ESI-ITFT
AC$MASS_SPECTROMETRY: MS_TYPE MS2
AC$MASS_SPECTROMETRY: ION_MODE POSITIVE
AC$MASS_SPECTROMETRY: IONIZATION ESI
AC$MASS_SPECTROMETRY: FRAGMENTATION_MODE HCD
AC$MASS_SPECTROMETRY: COLLISION_ENERGY 15 % (nominal)
AC$MASS_SPECTROMETRY: RESOLUTION 15000
AC$CHROMATOGRAPHY: COLUMN_NAME XBridge C18 3.5um, 2.1x50mm, Waters
AC$CHROMATOGRAPHY: FLOW_GRADIENT 90/10 at 0 min, 50/50 at 4 min, 5/95 at 17 min, 5/95 at 25 min, 90/10 at 25.1 min, 90/10 at 30 min
AC$CHROMATOGRAPHY: FLOW_RATE 200 ul/min
AC$CHROMATOGRAPHY: RETENTION_TIME 6.6 min
AC$CHROMATOGRAPHY: SOLVENT A water with 0.1% formic acid
AC$CHROMATOGRAPHY: SOLVENT B methanol with 0.1% formic acid
MS$FOCUSED_ION: BASE_PEAK 241.0971
MS$FOCUSED_ION: PRECURSOR_M/Z 241.0963
MS$FOCUSED_ION: PRECURSOR_TYPE [M+H]+
MS$DATA_PROCESSING: DEPROFILE Spline
MS$DATA_PROCESSING: RECALIBRATE loess on assigned fragments and MS1
MS$DATA_PROCESSING: REANALYZE Peaks with additional N2/O included
MS$DATA_PROCESSING: WHOLE RMassBank 1.3.1
PK$SPLASH: splash10-0006-0090000000-a738ecc79bbaa09be430
PK$ANNOTATION: m/z tentative_formula formula_count mass error(ppm)
  214.0854 C8H13ClN5+ 1 214.0854 0
  241.0964 C9H14ClN6+ 1 241.0963 0.42
PK$NUM_PEAK: 2
PK$PEAK: m/z int. rel.int.
  214.0854 346852.2 40
  241.0964 8492765.5 999
//
