ACCESSION: MSBNK-Eawag-EQ01151709
RECORD_TITLE: 2-Acetylpyrazine; LC-ESI-QFT; MS2; CE: 180%; R=17500; [M+H]+
DATE: 2024.05.08
AUTHORS: C. Meyer [dtc], B. Beck [dtc,com], J. Hollender [dtc]
LICENSE: CC BY-SA
COPYRIGHT: Copyright (C) Eawag 2023
PUBLICATION: Meyer, C., Stravs, M., Hollender, J.. How Wastewater Reflects Human Metabolism - Suspect Screening of Pharmaceutical Metabolites in Wastewater Influent. doi:10.1021/acs.est.4c00968
COMMENT: CONFIDENCE standard compound
COMMENT: UCHEM_ID 11517
CH$NAME: 2-Acetylpyrazine
CH$NAME: Acetylpyrazine
CH$NAME: 1-pyrazin-2-ylethanone
CH$COMPOUND_CLASS: N/A; Environmental Standard
CH$FORMULA: C6H6N2O
CH$EXACT_MASS: 122.0480128
CH$SMILES: CC(=O)C1=NC=CN=C1
CH$IUPAC: InChI=1S/C6H6N2O/c1-5(9)6-4-7-2-3-8-6/h2-4H,1H3
CH$LINK: CHEBI CHEBI:145236
CH$LINK: PUBCHEM CID:30914
CH$LINK: INCHIKEY DBZAKQWXICEWNW-UHFFFAOYSA-N
CH$LINK: CHEMSPIDER 28682
AC$INSTRUMENT: Exploris 240 Orbitrap Thermo Scientific
AC$INSTRUMENT_TYPE: LC-ESI-QFT
AC$MASS_SPECTROMETRY: MS_TYPE MS2
AC$MASS_SPECTROMETRY: ION_MODE POSITIVE
AC$MASS_SPECTROMETRY: IONIZATION ESI
AC$MASS_SPECTROMETRY: FRAGMENTATION_MODE HCD
AC$MASS_SPECTROMETRY: COLLISION_ENERGY 180 % (nominal)
AC$MASS_SPECTROMETRY: RESOLUTION 17500
AC$MASS_SPECTROMETRY: MASS_RANGE_M/Z 40-147
AC$CHROMATOGRAPHY: COLUMN_NAME XBridge C18 3.5um, 2.1x50mm, Waters
AC$CHROMATOGRAPHY: FLOW_GRADIENT 90/10 at 0 min, 50/50 at 4 min, 5/95 at 17 min, 5/95 at 25 min, 90/10 at 25.1 min, 90/10 at 30 min
AC$CHROMATOGRAPHY: FLOW_RATE 200 uL/min
AC$CHROMATOGRAPHY: RETENTION_TIME 2.489 min
MS$FOCUSED_ION: BASE_PEAK 132.9582
MS$FOCUSED_ION: PRECURSOR_M/Z 123.0553
MS$FOCUSED_ION: PRECURSOR_TYPE [M+H]+
MS$DATA_PROCESSING: RECALIBRATE loess on assigned fragments and MS1
MS$DATA_PROCESSING: REANALYZE Peaks with additional N2/O included
MS$DATA_PROCESSING: WHOLE RMassBank 3.15.1
PK$SPLASH: splash10-0udi-9000000000-b63ca9c84bfa45d6f44e
PK$ANNOTATION: m/z tentative_formula formula_count mass error(ppm)
  43.0178 C2H3O+ 1 43.0178 -0.42
  51.0229 C4H3+ 1 51.0229 -1.16
  52.0182 C3H2N+ 1 52.0182 -0.22
  53.026 C3H3N+ 1 53.026 -0.59
  54.0338 C3H4N+ 1 54.0338 -0.1
  79.0291 C4H3N2+ 1 79.0291 -0.24
  80.0369 C4H4N2+ 1 80.0369 0.48
  81.0447 C4H5N2+ 1 81.0447 0.23
  97.0396 C4H5N2O+ 1 97.0396 -0.81
PK$NUM_PEAK: 9
PK$PEAK: m/z int. rel.int.
  43.0178 698573.2 451
  51.0229 62769.8 40
  52.0182 630611.4 407
  53.026 122556.7 79
  54.0338 1544207 999
  79.0291 39871.4 25
  80.0369 74956.4 48
  81.0447 1036015.9 670
  97.0396 21250.1 13
//
