ACCESSION: MSBNK-Eawag-EQ01125802
RECORD_TITLE: Flubendiamide; LC-ESI-QFT; MS2; CE: 30%; R=17500; [M+H]+
DATE: 2023.04.27
AUTHORS: B. Beck [dtc,com], J. Hollender [dtc]
LICENSE: CC BY-SA
COPYRIGHT: Copyright (C) Eawag 2023
COMMENT: CONFIDENCE standard compound
COMMENT: UCHEM_ID 11258
CH$NAME: Flubendiamide
CH$NAME: 1-N-[4-(1,1,1,2,3,3,3-heptafluoropropan-2-yl)-2-methylphenyl]-3-iodo-2-N-(2-methyl-1-methylsulfonylpropan-2-yl)benzene-1,2-dicarboxamide
CH$COMPOUND_CLASS: N/A; Environmental Standard
CH$FORMULA: C23H22F7IN2O4S
CH$EXACT_MASS: 682.0233
CH$SMILES: CC1=C(C=CC(=C1)C(C(F)(F)F)(C(F)(F)F)F)NC(=O)C2=C(C(=CC=C2)I)C(=O)NC(C)(C)CS(=O)(=O)C
CH$IUPAC: InChI=1S/C23H22F7IN2O4S/c1-12-10-13(21(24,22(25,26)27)23(28,29)30)8-9-16(12)32-18(34)14-6-5-7-15(31)17(14)19(35)33-20(2,3)11-38(4,36)37/h5-10H,11H2,1-4H3,(H,32,34)(H,33,35)
CH$LINK: CAS 272451-65-7
CH$LINK: CHEBI CHEBI:38798
CH$LINK: PUBCHEM CID:11193251
CH$LINK: INCHIKEY ZGNITFSDLCMLGI-UHFFFAOYSA-N
CH$LINK: CHEMSPIDER 9368325
AC$INSTRUMENT: Exploris 240 Orbitrap Thermo Scientific
AC$INSTRUMENT_TYPE: LC-ESI-QFT
AC$MASS_SPECTROMETRY: MS_TYPE MS2
AC$MASS_SPECTROMETRY: ION_MODE POSITIVE
AC$MASS_SPECTROMETRY: IONIZATION ESI
AC$MASS_SPECTROMETRY: FRAGMENTATION_MODE HCD
AC$MASS_SPECTROMETRY: COLLISION_ENERGY 30 % (nominal)
AC$MASS_SPECTROMETRY: RESOLUTION 17500
AC$MASS_SPECTROMETRY: MASS_RANGE_M/Z 71-718
AC$CHROMATOGRAPHY: COLUMN_NAME XBridge C18 3.5um, 2.1x50mm, Waters
AC$CHROMATOGRAPHY: FLOW_GRADIENT 90/10 at 0 min, 50/50 at 4 min, 5/95 at 17 min, 5/95 at 25 min, 90/10 at 25.1 min, 90/10 at 30 min
AC$CHROMATOGRAPHY: FLOW_RATE 200 uL/min
AC$CHROMATOGRAPHY: RETENTION_TIME 10.934 min
MS$FOCUSED_ION: BASE_PEAK 328.0976
MS$FOCUSED_ION: PRECURSOR_M/Z 683.0306
MS$FOCUSED_ION: PRECURSOR_TYPE [M+H]+
MS$DATA_PROCESSING: RECALIBRATE loess on assigned fragments and MS1
MS$DATA_PROCESSING: REANALYZE Peaks with additional N2/O included
MS$DATA_PROCESSING: WHOLE RMassBank 3.11.0.1
PK$SPLASH: splash10-00di-0190000000-2e65883e9d2ccdf70ffe
PK$ANNOTATION: m/z tentative_formula formula_count mass error(ppm)
  73.0645 C4H9O+ 1 73.0648 -3.61
  135.0473 C5H11O2S+ 3 135.0474 -0.6
  152.0739 C5H14NO2S+ 3 152.074 -0.74
  255.9256 C2H9IO4S+ 4 255.9261 -1.76
  273.936 C8H5INO2+ 5 273.936 0.04
PK$NUM_PEAK: 5
PK$PEAK: m/z int. rel.int.
  73.0645 39799.7 9
  135.0473 311067.6 73
  152.0739 352195.2 83
  255.9256 46040.7 10
  273.936 4232944.5 999
//
