ACCESSION: MSBNK-Eawag-EA070608
RECORD_TITLE: Metazachlor OXA; LC-ESI-ITFT; MS2; CE: 15%; R=15000; [M+H]+
DATE: 2014.01.14
AUTHORS: Stravs M, Schymanski E, Singer H, Department of Environmental Chemistry, Eawag
LICENSE: CC BY
COPYRIGHT: Copyright (C) 2012 Eawag, Duebendorf, Switzerland
COMMENT: CONFIDENCE standard compound
COMMENT: EAWAG_UCHEM_ID 706
CH$NAME: Metazachlor OXA
CH$NAME: 2-[2,6-dimethyl-N-(pyrazol-1-ylmethyl)anilino]-2-oxo-acetic acid
CH$COMPOUND_CLASS: N/A; Environmental Standard
CH$FORMULA: C14H15N3O3
CH$EXACT_MASS: 273.1113
CH$SMILES: Cc1cccc(c1N(Cn2cccn2)C(=O)C(=O)O)C
CH$IUPAC: InChI=1S/C14H15N3O3/c1-10-5-3-6-11(2)12(10)17(13(18)14(19)20)9-16-8-4-7-15-16/h3-8H,9H2,1-2H3,(H,19,20)
CH$LINK: INCHIKEY PHMHHVKFXZNTKU-UHFFFAOYSA-N
CH$LINK: CHEMSPIDER 24721983
CH$LINK: COMPTOX DTXSID00891455
AC$INSTRUMENT: LTQ Orbitrap XL Thermo Scientific
AC$INSTRUMENT_TYPE: LC-ESI-ITFT
AC$MASS_SPECTROMETRY: MS_TYPE MS2
AC$MASS_SPECTROMETRY: ION_MODE POSITIVE
AC$MASS_SPECTROMETRY: IONIZATION ESI
AC$MASS_SPECTROMETRY: FRAGMENTATION_MODE HCD
AC$MASS_SPECTROMETRY: COLLISION_ENERGY 15 % (nominal)
AC$MASS_SPECTROMETRY: RESOLUTION 15000
AC$CHROMATOGRAPHY: COLUMN_NAME XBridge C18 3.5um, 2.1x50mm, Waters
AC$CHROMATOGRAPHY: FLOW_GRADIENT 90/10 at 0 min, 50/50 at 4 min, 5/95 at 17 min, 5/95 at 25 min, 90/10 at 25.1 min, 90/10 at 30 min
AC$CHROMATOGRAPHY: FLOW_RATE 200 ul/min
AC$CHROMATOGRAPHY: RETENTION_TIME 5.5 min
AC$CHROMATOGRAPHY: SOLVENT A water with 0.1% formic acid
AC$CHROMATOGRAPHY: SOLVENT B methanol with 0.1% formic acid
MS$FOCUSED_ION: BASE_PEAK 274.1193
MS$FOCUSED_ION: PRECURSOR_M/Z 274.1186
MS$FOCUSED_ION: PRECURSOR_TYPE [M+H]+
MS$DATA_PROCESSING: DEPROFILE Spline
MS$DATA_PROCESSING: RECALIBRATE loess on assigned fragments and MS1
MS$DATA_PROCESSING: REANALYZE Peaks with additional N2/O included
MS$DATA_PROCESSING: WHOLE RMassBank 1.3.1
PK$SPLASH: splash10-053r-2930000000-33171b3140f5daadf09a
PK$ANNOTATION: m/z tentative_formula formula_count mass error(ppm)
  69.0447 C3H5N2+ 1 69.0447 -0.07
  134.0964 C9H12N+ 1 134.0964 -0.12
  162.0913 C10H12NO+ 1 162.0913 -0.06
  206.081 C11H12NO3+ 1 206.0812 -0.63
  230.1288 C13H16N3O+ 1 230.1288 0.01
  274.1187 C14H16N3O3+ 1 274.1186 0.45
PK$NUM_PEAK: 6
PK$PEAK: m/z int. rel.int.
  69.0447 103198 430
  134.0964 239521.1 999
  162.0913 83789.3 349
  206.081 120590.2 502
  230.1288 3557.5 14
  274.1187 16449.7 68
//
