ACCESSION: MSBNK-Eawag-EA070004
RECORD_TITLE: Pethoxamide; LC-ESI-ITFT; MS2; CE: 45%; R=7500; [M+H]+
DATE: 2014.01.14
AUTHORS: Stravs M, Schymanski E, Singer H, Department of Environmental Chemistry, Eawag
LICENSE: CC BY
COPYRIGHT: Copyright (C) 2012 Eawag, Duebendorf, Switzerland
COMMENT: CONFIDENCE standard compound
COMMENT: EAWAG_UCHEM_ID 700
CH$NAME: Pethoxamide
CH$NAME: 2-chloro-N-(2-ethoxyethyl)-N-(2-methyl-1-phenylprop-1-enyl)acetamide
CH$COMPOUND_CLASS: N/A; Environmental Standard
CH$FORMULA: C16H22ClNO2
CH$EXACT_MASS: 295.1334
CH$SMILES: ClCC(=O)N(CCOCC)\C(=C(\C)C)c1ccccc1
CH$IUPAC: InChI=1S/C16H22ClNO2/c1-4-20-11-10-18(15(19)12-17)16(13(2)3)14-8-6-5-7-9-14/h5-9H,4,10-12H2,1-3H3
CH$LINK: CAS 106700-29-2
CH$LINK: PUBCHEM CID:6450826
CH$LINK: INCHIKEY CSWIKHNSBZVWNQ-UHFFFAOYSA-N
CH$LINK: CHEMSPIDER 4953376
CH$LINK: COMPTOX DTXSID4057928
AC$INSTRUMENT: LTQ Orbitrap XL Thermo Scientific
AC$INSTRUMENT_TYPE: LC-ESI-ITFT
AC$MASS_SPECTROMETRY: MS_TYPE MS2
AC$MASS_SPECTROMETRY: ION_MODE POSITIVE
AC$MASS_SPECTROMETRY: IONIZATION ESI
AC$MASS_SPECTROMETRY: FRAGMENTATION_MODE HCD
AC$MASS_SPECTROMETRY: COLLISION_ENERGY 45 % (nominal)
AC$MASS_SPECTROMETRY: RESOLUTION 7500
AC$CHROMATOGRAPHY: COLUMN_NAME XBridge C18 3.5um, 2.1x50mm, Waters
AC$CHROMATOGRAPHY: FLOW_GRADIENT 90/10 at 0 min, 50/50 at 4 min, 5/95 at 17 min, 5/95 at 25 min, 90/10 at 25.1 min, 90/10 at 30 min
AC$CHROMATOGRAPHY: FLOW_RATE 200 ul/min
AC$CHROMATOGRAPHY: RETENTION_TIME 11.5 min
AC$CHROMATOGRAPHY: SOLVENT A water with 0.1% formic acid
AC$CHROMATOGRAPHY: SOLVENT B methanol with 0.1% formic acid
MS$FOCUSED_ION: BASE_PEAK 296.1418
MS$FOCUSED_ION: PRECURSOR_M/Z 296.1412
MS$FOCUSED_ION: PRECURSOR_TYPE [M+H]+
MS$DATA_PROCESSING: DEPROFILE Spline
MS$DATA_PROCESSING: RECALIBRATE loess on assigned fragments and MS1
MS$DATA_PROCESSING: REANALYZE Peaks with additional N2/O included
MS$DATA_PROCESSING: WHOLE RMassBank 1.3.1
PK$SPLASH: splash10-001i-0910000000-c5ce0f44eeb9e25bf9c3
PK$ANNOTATION: m/z tentative_formula formula_count mass error(ppm)
  73.0648 C4H9O+ 1 73.0648 0.26
  91.0542 C7H7+ 1 91.0542 0.26
  103.0544 C8H7+ 1 103.0542 1.68
  105.0698 C8H9+ 1 105.0699 -0.44
  115.0544 C9H7+ 1 115.0542 1.33
  116.0621 C9H8+ 1 116.0621 0.67
  120.0209 C4H7ClNO+ 2 120.0211 -1.57
  129.0699 C10H9+ 1 129.0699 -0.05
  131.0856 C10H11+ 1 131.0855 0.48
  134.037 C5H9ClNO+ 1 134.0367 1.88
  147.1043 C10H13N+ 1 147.1043 0.06
  160.1121 C11H14N+ 1 160.1121 0.28
  174.1279 C12H16N+ 1 174.1277 1.23
  190.1225 C12H16NO+ 1 190.1226 -0.69
  219.1625 C14H21NO+ 1 219.1618 3.53
  220.1694 C14H22NO+ 1 220.1696 -0.68
  250.099 C14H17ClNO+ 1 250.0993 -1.47
  296.1417 C16H23ClNO2+ 1 296.1412 1.75
PK$NUM_PEAK: 18
PK$PEAK: m/z int. rel.int.
  73.0648 49097.3 16
  91.0542 291347.8 96
  103.0544 11907.1 3
  105.0698 30945.1 10
  115.0544 18020.6 5
  116.0621 38748.4 12
  120.0209 7784.3 2
  129.0699 149241.6 49
  131.0856 3007572.6 999
  134.037 11323.9 3
  147.1043 23359.8 7
  160.1121 77847 25
  174.1279 38910.1 12
  190.1225 14078.3 4
  219.1625 11700.9 3
  220.1694 207932.7 69
  250.099 152972.6 50
  296.1417 28858.2 9
//
