ACCESSION: MSBNK-Eawag-EQ00348204
RECORD_TITLE: Ethephon; LC-ESI-QFT; MS2; CE: 60%; R=15000; [M+H]+
DATE: 2024.06.14
AUTHORS: F. Jud [dtc], K. Arturi [dtc], J. Hollender [dtc], A. Dax [com]
LICENSE: CC BY-SA
COPYRIGHT: Copyright (C) Eawag 2024
COMMENT: CONFIDENCE standard compound
COMMENT: UCHEM_ID 3482
CH$NAME: Ethephon
CH$NAME: 2-chloroethylphosphonic acid
CH$COMPOUND_CLASS: N/A
CH$FORMULA: C2H6ClO3P
CH$EXACT_MASS: 143.9743084
CH$SMILES: C(CCl)P(=O)(O)O
CH$IUPAC: InChI=1S/C2H6ClO3P/c3-1-2-7(4,5)6/h1-2H2,(H2,4,5,6)
CH$LINK: CAS 16672-87-0
CH$LINK: CHEBI CHEBI:52741
CH$LINK: KEGG C18399
CH$LINK: PUBCHEM CID:27982
CH$LINK: INCHIKEY UDPGUMQDCGORJQ-UHFFFAOYSA-N
CH$LINK: CHEMSPIDER 26031
AC$INSTRUMENT: Exploris 240 Thermo Scientific
AC$INSTRUMENT_TYPE: LC-ESI-QFT
AC$MASS_SPECTROMETRY: MS_TYPE MS2
AC$MASS_SPECTROMETRY: ION_MODE POSITIVE
AC$MASS_SPECTROMETRY: IONIZATION ESI
AC$MASS_SPECTROMETRY: FRAGMENTATION_MODE HCD
AC$MASS_SPECTROMETRY: COLLISION_ENERGY 60 % (nominal)
AC$MASS_SPECTROMETRY: RESOLUTION 15000
AC$MASS_SPECTROMETRY: MASS_RANGE_M/Z 40-169
AC$CHROMATOGRAPHY: COLUMN_NAME XBridge C18 3.5um, 2.1x50mm, Waters
AC$CHROMATOGRAPHY: FLOW_GRADIENT 90/10 at 0 min, 50/50 at 4 min, 5/95 at 17 min, 5/95 at 25 min, 90/10 at 25.1 min, 90/10 at 30 min
AC$CHROMATOGRAPHY: FLOW_RATE 200 uL/min
AC$CHROMATOGRAPHY: RETENTION_TIME 1.051 min
MS$FOCUSED_ION: BASE_PEAK 132.9582
MS$FOCUSED_ION: PRECURSOR_M/Z 144.9816
MS$FOCUSED_ION: PRECURSOR_TYPE [M+H]+
MS$DATA_PROCESSING: RECALIBRATE loess on assigned fragments and MS1
MS$DATA_PROCESSING: REANALYZE Peaks with additional N2/O included
MS$DATA_PROCESSING: WHOLE RMassBank 3.15.1.1
PK$SPLASH: splash10-0a4j-3900000000-702fa8ffdafd769673bd
PK$ANNOTATION: m/z tentative_formula formula_count mass error(ppm)
  45.0335 C2H5O+ 1 45.0335 -0.03
  62.9996 C2H4Cl+ 2 62.9996 -0.86
  98.9841 CH4ClO3+ 1 98.9843 -2.96
  109.0048 C2H6O3P+ 1 109.0049 -1.39
  126.9709 C2H5ClO2P+ 1 126.971 -1.15
  144.9814 C2H7ClO3P+ 1 144.9816 -1.27
PK$NUM_PEAK: 6
PK$PEAK: m/z int. rel.int.
  45.0335 146480.2 31
  62.9996 169563.3 36
  98.9841 2931518.8 631
  109.0048 4639481 999
  126.9709 1186685.2 255
  144.9814 1762767.1 379
//
