ACCESSION: MSBNK-Eawag-EA009406
RECORD_TITLE: Phenmedipham; LC-ESI-ITFT; MS2; CE: 75%; R=7500; [M+H]+
DATE: 2014.01.14
AUTHORS: Stravs M, Schymanski E, Singer H, Department of Environmental Chemistry, Eawag
LICENSE: CC BY
COPYRIGHT: Copyright (C) 2012 Eawag, Duebendorf, Switzerland
COMMENT: CONFIDENCE standard compound
COMMENT: EAWAG_UCHEM_ID 94
CH$NAME: Phenmedipham
CH$NAME: 3-[(methoxycarbonyl)amino]phenyl (3-methylphenyl)carbamate
CH$COMPOUND_CLASS: N/A; Environmental Standard
CH$FORMULA: C16H16N2O4
CH$EXACT_MASS: 300.1116
CH$SMILES: c1c(OC(Nc2cc(ccc2)C)=O)cccc1NC(OC)=O
CH$IUPAC: InChI=1S/C16H16N2O4/c1-11-5-3-6-12(9-11)18-16(20)22-14-8-4-7-13(10-14)17-15(19)21-2/h3-10H,1-2H3,(H,17,19)(H,18,20)
CH$LINK: CAS 13684-63-4
CH$LINK: PUBCHEM CID:24744
CH$LINK: INCHIKEY IDOWTHOLJBTAFI-UHFFFAOYSA-N
CH$LINK: CHEMSPIDER 23134
CH$LINK: COMPTOX DTXSID1024255
AC$INSTRUMENT: LTQ Orbitrap XL Thermo Scientific
AC$INSTRUMENT_TYPE: LC-ESI-ITFT
AC$MASS_SPECTROMETRY: MS_TYPE MS2
AC$MASS_SPECTROMETRY: ION_MODE POSITIVE
AC$MASS_SPECTROMETRY: IONIZATION ESI
AC$MASS_SPECTROMETRY: FRAGMENTATION_MODE HCD
AC$MASS_SPECTROMETRY: COLLISION_ENERGY 75 % (nominal)
AC$MASS_SPECTROMETRY: RESOLUTION 7500
AC$CHROMATOGRAPHY: COLUMN_NAME XBridge C18 3.5um, 2.1x50mm, Waters
AC$CHROMATOGRAPHY: FLOW_GRADIENT 90/10 at 0 min, 50/50 at 4 min, 5/95 at 17 min, 5/95 at 25 min, 90/10 at 25.1 min, 90/10 at 30 min
AC$CHROMATOGRAPHY: FLOW_RATE 200 ul/min
AC$CHROMATOGRAPHY: RETENTION_TIME 9.5 min
AC$CHROMATOGRAPHY: SOLVENT A water with 0.1% formic acid
AC$CHROMATOGRAPHY: SOLVENT B methanol with 0.1% formic acid
MS$FOCUSED_ION: BASE_PEAK 323.1005
MS$FOCUSED_ION: PRECURSOR_M/Z 301.1183
MS$FOCUSED_ION: PRECURSOR_TYPE [M+H]+
MS$DATA_PROCESSING: DEPROFILE Spline
MS$DATA_PROCESSING: RECALIBRATE loess on assigned fragments and MS1
MS$DATA_PROCESSING: REANALYZE Peaks with additional N2/O included
MS$DATA_PROCESSING: WHOLE RMassBank 1.3.1
PK$SPLASH: splash10-052r-3900000000-dcc4c2258728e16c13a9
PK$ANNOTATION: m/z tentative_formula formula_count mass error(ppm)
  65.0386 C5H5+ 1 65.0386 -0.25
  80.0495 C5H6N+ 1 80.0495 0.8
  81.0334 C5H5O+ 1 81.0335 -0.76
  93.0335 C6H5O+ 1 93.0335 0.09
  108.0443 C6H6NO+ 1 108.0444 -0.46
  111.0441 C6H7O2+ 1 111.0441 0.13
  121.0396 C6H5N2O+ 1 121.0396 -0.65
  136.0392 C7H6NO2+ 1 136.0393 -0.55
PK$NUM_PEAK: 8
PK$PEAK: m/z int. rel.int.
  65.0386 18996.2 309
  80.0495 10613.4 173
  81.0334 9341.7 152
  93.0335 23448.6 382
  108.0443 49368.3 805
  111.0441 8719 142
  121.0396 21758.3 354
  136.0392 61246.2 999
//
