ACCESSION: MSBNK-Eawag-EQ009156
RECORD_TITLE: Metribuzin-desamino; LC-ESI-QFT; MS2; CE: 90; R=35000; [M-H]-
DATE: 2015.08.26
AUTHORS: Beck B, Stravs M, Schymanski E, Singer H, Department of Environmental Chemistry, Eawag
LICENSE: CC BY
COPYRIGHT: Copyright (C) 2015 Eawag, Duebendorf, Switzerland
COMMENT: CONFIDENCE standard compound
COMMENT: EAWAG_UCHEM_ID 91
CH$NAME: Metribuzin-desamino
CH$NAME: Deaminometribuzin
CH$NAME: 6-tert-butyl-3-(methylthio)-2H-1,2,4-triazin-5-one
CH$COMPOUND_CLASS: N/A; Environmental Standard
CH$FORMULA: C8H13N3OS
CH$EXACT_MASS: 199.27332
CH$SMILES: CC(C)(C)C1=NNC(=NC1=O)SC
CH$IUPAC: InChI=1S/C8H13N3OS/c1-8(2,3)5-6(12)9-7(13-4)11-10-5/h1-4H3,(H,9,11,12)
CH$LINK: CAS 35045-02-4
CH$LINK: PUBCHEM CID:37208
CH$LINK: INCHIKEY MIWRSUQXSCLDNV-UHFFFAOYSA-N
CH$LINK: CHEMSPIDER 33978
CH$LINK: COMPTOX DTXSID0052839
AC$INSTRUMENT: Q Exactive Plus Orbitrap Thermo Scientific
AC$INSTRUMENT_TYPE: LC-ESI-QFT
AC$MASS_SPECTROMETRY: MS_TYPE MS2
AC$MASS_SPECTROMETRY: ION_MODE NEGATIVE
AC$MASS_SPECTROMETRY: IONIZATION ESI
AC$MASS_SPECTROMETRY: FRAGMENTATION_MODE HCD
AC$MASS_SPECTROMETRY: COLLISION_ENERGY 90 (nominal)
AC$MASS_SPECTROMETRY: RESOLUTION 35000
AC$CHROMATOGRAPHY: COLUMN_NAME XBridge C18 3.5um, 2.1x50mm, Waters
AC$CHROMATOGRAPHY: FLOW_GRADIENT 90/10 at 0 min, 50/50 at 4 min, 5/95 at 17 min, 5/95 at 25 min, 90/10 at 25.1 min, 90/10 at 30 min
AC$CHROMATOGRAPHY: FLOW_RATE 200 ul/min
AC$CHROMATOGRAPHY: RETENTION_TIME 7.3 min
AC$CHROMATOGRAPHY: SOLVENT A water with 0.1% formic acid
AC$CHROMATOGRAPHY: SOLVENT B methanol with 0.1% formic acid
MS$FOCUSED_ION: BASE_PEAK 198.0703
MS$FOCUSED_ION: PRECURSOR_M/Z 198.0707
MS$FOCUSED_ION: PRECURSOR_TYPE [M-H]-
MS$DATA_PROCESSING: RECALIBRATE loess on assigned fragments and MS1
MS$DATA_PROCESSING: REANALYZE Peaks with additional N2/O included
MS$DATA_PROCESSING: WHOLE RMassBank 1.9.6
PK$SPLASH: splash10-0a4i-9100000000-159760fee8525862e0cc
PK$ANNOTATION: m/z tentative_formula formula_count mass error(ppm)
  56.0016 CN2O- 1 56.0016 -0.56
  57.9757 CNS- 1 57.9757 -0.23
  59.9914 CH2NS- 1 59.9913 0.27
  68.0016 C2N2O- 1 68.0016 0.42
  69.0095 C2HN2O- 1 69.0094 0.34
  70.9836 C2HNS- 1 70.9835 1.29
  71.9788 CN2S- 1 71.9788 0.73
  81.0346 C5H5O- 1 81.0346 0.02
  87.0022 C2H3N2S- 1 87.0022 -0.61
  94.0047 C3N3O- 1 94.0047 -0.16
  97.0658 C6H9O- 1 97.0659 -0.4
  125.9768 C3N3OS- 1 125.9768 0.11
  136.0515 C6H6N3O- 1 136.0516 -0.85
  152.0832 C7H10N3O- 1 152.0829 1.54
  168.0237 C6H6N3OS- 1 168.0237 -0.22
  182.0392 C7H8N3OS- 1 182.0394 -0.64
  183.0472 C7H9N3OS- 1 183.0472 0.16
  198.0706 C8H12N3OS- 1 198.0707 -0.18
PK$NUM_PEAK: 18
PK$PEAK: m/z int. rel.int.
  56.0016 896301.1 17
  57.9757 52225708 999
  59.9914 703097.6 13
  68.0016 9074952 173
  69.0095 160950.4 3
  70.9836 707081.6 13
  71.9788 7676810.5 146
  81.0346 1001927.9 19
  87.0022 802787.2 15
  94.0047 7887701.5 150
  97.0658 5212352 99
  125.9768 98215.2 1
  136.0515 4046765 77
  152.0832 97400.5 1
  168.0237 1916110.2 36
  182.0392 1101948.5 21
  183.0472 543539.9 10
  198.0706 3114168 59
//
