ACCESSION: MSBNK-Eawag-EQ01155053
RECORD_TITLE: Succinic acid; LC-ESI-QFT; MS2; CE: 45%; R=17500; [M-H]-
DATE: 2024.05.08
AUTHORS: C. Meyer [dtc], B. Beck [dtc,com], J. Hollender [dtc]
LICENSE: CC BY-SA
COPYRIGHT: Copyright (C) Eawag 2023
PUBLICATION: Meyer, C., Stravs, M., Hollender, J.. How Wastewater Reflects Human Metabolism - Suspect Screening of Pharmaceutical Metabolites in Wastewater Influent. doi:10.1021/acs.est.4c00968
COMMENT: CONFIDENCE standard compound
COMMENT: UCHEM_ID 11550
CH$NAME: Succinic acid
CH$NAME: butanedioic acid
CH$COMPOUND_CLASS: N/A; Environmental Standard
CH$FORMULA: C4H6O4
CH$EXACT_MASS: 118.0266087
CH$SMILES: C(CC(=O)O)C(=O)O
CH$IUPAC: InChI=1S/C4H6O4/c5-3(6)1-2-4(7)8/h1-2H2,(H,5,6)(H,7,8)
CH$LINK: PUBCHEM CID:1110
CH$LINK: INCHIKEY KDYFGRWQOYBRFD-UHFFFAOYSA-N
CH$LINK: CHEMSPIDER 1078
AC$INSTRUMENT: Exploris 240 Orbitrap Thermo Scientific
AC$INSTRUMENT_TYPE: LC-ESI-QFT
AC$MASS_SPECTROMETRY: MS_TYPE MS2
AC$MASS_SPECTROMETRY: ION_MODE NEGATIVE
AC$MASS_SPECTROMETRY: IONIZATION ESI
AC$MASS_SPECTROMETRY: FRAGMENTATION_MODE HCD
AC$MASS_SPECTROMETRY: COLLISION_ENERGY 45 % (nominal)
AC$MASS_SPECTROMETRY: RESOLUTION 17500
AC$MASS_SPECTROMETRY: MASS_RANGE_M/Z 40-140
AC$CHROMATOGRAPHY: COLUMN_NAME XBridge C18 3.5um, 2.1x50mm, Waters
AC$CHROMATOGRAPHY: FLOW_GRADIENT 90/10 at 0 min, 50/50 at 4 min, 5/95 at 17 min, 5/95 at 25 min, 90/10 at 25.1 min, 90/10 at 30 min
AC$CHROMATOGRAPHY: FLOW_RATE 200 uL/min
AC$CHROMATOGRAPHY: RETENTION_TIME 1.266 min
MS$FOCUSED_ION: BASE_PEAK 117.0194
MS$FOCUSED_ION: PRECURSOR_M/Z 117.0193
MS$FOCUSED_ION: PRECURSOR_TYPE [M-H]-
MS$DATA_PROCESSING: RECALIBRATE loess on assigned fragments and MS1
MS$DATA_PROCESSING: REANALYZE Peaks with additional N2/O included
MS$DATA_PROCESSING: WHOLE RMassBank 3.15.1
PK$SPLASH: splash10-00di-9100000000-61f56c36ccff59d0164a
PK$ANNOTATION: m/z tentative_formula formula_count mass error(ppm)
  55.019 C3H3O- 1 55.0189 0.41
  73.0295 C3H5O2- 1 73.0295 0.1
  99.0088 C4H3O3- 1 99.0088 0.54
  117.0194 C4H5O4- 1 117.0193 0.76
PK$NUM_PEAK: 4
PK$PEAK: m/z int. rel.int.
  55.019 92426.7 10
  73.0295 8440091 999
  99.0088 785022.5 92
  117.0194 1990477.4 235
//
