ACCESSION: MSBNK-Eawag-EQ01123808
RECORD_TITLE: Disulfoton-sulfoxide; LC-ESI-QFT; MS2; CE: 150%; R=17500; [M+H]+
DATE: 2023.04.27
AUTHORS: B. Beck [dtc,com], J. Hollender [dtc]
LICENSE: CC BY-SA
COPYRIGHT: Copyright (C) Eawag 2023
COMMENT: CONFIDENCE standard compound
COMMENT: UCHEM_ID 11238
CH$NAME: Disulfoton-sulfoxide
CH$NAME: Oxydisulfoton
CH$NAME: diethoxy-(2-ethylsulfinylethylsulfanyl)-sulfanylidene-lambda5-phosphane
CH$COMPOUND_CLASS: N/A; Environmental Standard
CH$FORMULA: C8H19O3PS3
CH$EXACT_MASS: 290.0234
CH$SMILES: CCOP(=S)(OCC)SCCS(=O)CC
CH$IUPAC: InChI=1S/C8H19O3PS3/c1-4-10-12(13,11-5-2)14-7-8-15(9)6-3/h4-8H2,1-3H3
CH$LINK: CAS 2497-07-6
CH$LINK: CHEBI CHEBI:82143
CH$LINK: KEGG C19009
CH$LINK: PUBCHEM CID:17242
CH$LINK: INCHIKEY UPUGLJYNCXXUQV-UHFFFAOYSA-N
CH$LINK: CHEMSPIDER 16321
AC$INSTRUMENT: Exploris 240 Orbitrap Thermo Scientific
AC$INSTRUMENT_TYPE: LC-ESI-QFT
AC$MASS_SPECTROMETRY: MS_TYPE MS2
AC$MASS_SPECTROMETRY: ION_MODE POSITIVE
AC$MASS_SPECTROMETRY: IONIZATION ESI
AC$MASS_SPECTROMETRY: FRAGMENTATION_MODE HCD
AC$MASS_SPECTROMETRY: COLLISION_ENERGY 150 % (nominal)
AC$MASS_SPECTROMETRY: RESOLUTION 17500
AC$MASS_SPECTROMETRY: MASS_RANGE_M/Z 50-318
AC$CHROMATOGRAPHY: COLUMN_NAME XBridge C18 3.5um, 2.1x50mm, Waters
AC$CHROMATOGRAPHY: FLOW_GRADIENT 90/10 at 0 min, 50/50 at 4 min, 5/95 at 17 min, 5/95 at 25 min, 90/10 at 25.1 min, 90/10 at 30 min
AC$CHROMATOGRAPHY: FLOW_RATE 200 uL/min
AC$CHROMATOGRAPHY: RETENTION_TIME 6.653 min
MS$FOCUSED_ION: BASE_PEAK 282.279
MS$FOCUSED_ION: PRECURSOR_M/Z 291.0307
MS$FOCUSED_ION: PRECURSOR_TYPE [M+H]+
MS$DATA_PROCESSING: RECALIBRATE loess on assigned fragments and MS1
MS$DATA_PROCESSING: REANALYZE Peaks with additional N2/O included
MS$DATA_PROCESSING: WHOLE RMassBank 3.11.0.1
PK$SPLASH: splash10-03di-9000000000-86b4b4ae0b7bd7b5f8c9
PK$ANNOTATION: m/z tentative_formula formula_count mass error(ppm)
  58.995 C2H3S+ 1 58.995 0.04
  61.0106 C2H5S+ 1 61.0106 -1.13
  64.9786 H2O2P+ 1 64.9787 -0.72
  78.9401 OPS+ 1 78.9402 -0.75
  94.9174 PS2+ 1 94.9174 0.41
  96.9506 H2O2PS+ 1 96.9508 -1.17
  114.9614 H4O3PS+ 1 114.9613 0.82
  128.9233 H2O2PS2+ 1 128.9228 3.35
PK$NUM_PEAK: 8
PK$PEAK: m/z int. rel.int.
  58.995 1625188.1 44
  61.0106 9127098 247
  64.9786 36852284 999
  78.9401 16737236 453
  94.9174 1190744.6 32
  96.9506 22479104 609
  114.9614 7436775.5 201
  128.9233 1015202.4 27
//
