ACCESSION: MSBNK-Eawag-EA012214
RECORD_TITLE: Propaquizafop; LC-ESI-ITFT; MS2; CE: 35%; R=30000; [M+H]+
DATE: 2014.01.14
AUTHORS: Stravs M, Schymanski E, Singer H, Department of Environmental Chemistry, Eawag
LICENSE: CC BY
COPYRIGHT: Copyright (C) 2012 Eawag, Duebendorf, Switzerland
COMMENT: CONFIDENCE standard compound
COMMENT: EAWAG_UCHEM_ID 122
CH$NAME: Propaquizafop
CH$NAME: 2-(propan-2-ylideneamino)oxyethyl 2-[4-(6-chloranylquinoxalin-2-yl)oxyphenoxy]propanoate
CH$COMPOUND_CLASS: N/A; Environmental Standard
CH$FORMULA: C22H22ClN3O5
CH$EXACT_MASS: 443.1242
CH$SMILES: CC(C(=O)OCCON=C(C)C)OC1=CC=C(C=C1)OC2=CN=C3C=C(C=CC3=N2)Cl
CH$IUPAC: InChI=1S/C22H22ClN3O5/c1-14(2)26-29-11-10-28-22(27)15(3)30-17-5-7-18(8-6-17)31-21-13-24-20-12-16(23)4-9-19(20)25-21/h4-9,12-13,15H,10-11H2,1-3H3
CH$LINK: CAS 111479-05-1
CH$LINK: PUBCHEM CID:86122
CH$LINK: INCHIKEY FROBCXTULYFHEJ-UHFFFAOYSA-N
CH$LINK: CHEMSPIDER 77697
AC$INSTRUMENT: LTQ Orbitrap XL Thermo Scientific
AC$INSTRUMENT_TYPE: LC-ESI-ITFT
AC$MASS_SPECTROMETRY: MS_TYPE MS2
AC$MASS_SPECTROMETRY: ION_MODE POSITIVE
AC$MASS_SPECTROMETRY: IONIZATION ESI
AC$MASS_SPECTROMETRY: FRAGMENTATION_MODE CID
AC$MASS_SPECTROMETRY: COLLISION_ENERGY 35 % (nominal)
AC$MASS_SPECTROMETRY: RESOLUTION 30000
AC$CHROMATOGRAPHY: COLUMN_NAME XBridge C18 3.5um, 2.1x50mm, Waters
AC$CHROMATOGRAPHY: FLOW_GRADIENT 90/10 at 0 min, 50/50 at 4 min, 5/95 at 17 min, 5/95 at 25 min, 90/10 at 25.1 min, 90/10 at 30 min
AC$CHROMATOGRAPHY: FLOW_RATE 200 ul/min
AC$CHROMATOGRAPHY: RETENTION_TIME 15.0 min
AC$CHROMATOGRAPHY: SOLVENT A water with 0.1% formic acid
AC$CHROMATOGRAPHY: SOLVENT B methanol with 0.1% formic acid
MS$FOCUSED_ION: BASE_PEAK 466.114
MS$FOCUSED_ION: PRECURSOR_M/Z 444.1321
MS$FOCUSED_ION: PRECURSOR_TYPE [M+H]+
MS$DATA_PROCESSING: DEPROFILE Spline
MS$DATA_PROCESSING: RECALIBRATE loess on assigned fragments and MS1
MS$DATA_PROCESSING: REANALYZE Peaks with additional N2/O included
MS$DATA_PROCESSING: WHOLE RMassBank 1.3.1
PK$SPLASH: splash10-00di-0009000000-6016ebb75e7e68329670
PK$ANNOTATION: m/z tentative_formula formula_count mass error(ppm)
  144.1017 C7H14NO2+ 1 144.1019 -1.15
  299.0578 C19H9NO3+ 2 299.0577 0.49
  327.0522 C20H9NO4+ 2 327.0526 -1.25
  353.1056 C20H18ClN2O2+ 1 353.1051 1.27
  371.0787 C22H13NO5+ 2 371.0788 -0.39
PK$NUM_PEAK: 5
PK$PEAK: m/z int. rel.int.
  144.1017 8157.9 17
  299.0578 9253.1 19
  327.0522 5714.2 12
  353.1056 1478.5 3
  371.0787 465985.2 999
//
