ACCESSION: MSBNK-Eawag-EA266809
RECORD_TITLE: Fipronil-sulfide; LC-ESI-ITFT; MS2; CE: 30%; R=15000; [M+H]+
DATE: 2014.01.14
AUTHORS: Stravs M, Schymanski E, Singer H, Department of Environmental Chemistry, Eawag
LICENSE: CC BY
COPYRIGHT: Copyright (C) 2012 Eawag, Duebendorf, Switzerland
COMMENT: CONFIDENCE standard compound
COMMENT: EAWAG_UCHEM_ID 2668
CH$NAME: Fipronil-sulfide
CH$NAME: 5-Amino-1-[2,6-dichloro-4-(trifluoromethyl)phenyl]-4-[(trifluoromethyl)sulfanyl]-1H-pyrazole-3-carbonitrile
CH$COMPOUND_CLASS: N/A; Environmental Standard
CH$FORMULA: C12H4Cl2F6N4S
CH$EXACT_MASS: 419.9438
CH$SMILES: FC(F)(F)c2cc(Cl)c(n1nc(C#N)c(SC(F)(F)F)c1N)c(Cl)c2
CH$IUPAC: InChI=1S/C12H4Cl2F6N4S/c13-5-1-4(11(15,16)17)2-6(14)8(5)24-10(22)9(7(3-21)23-24)25-12(18,19)20/h1-2H,22H2
CH$LINK: CAS 120067-83-6
CH$LINK: PUBCHEM CID:9953940
CH$LINK: INCHIKEY FQXWEKADCSXYOC-UHFFFAOYSA-N
CH$LINK: CHEMSPIDER 8129550
CH$LINK: COMPTOX DTXSID50869644
AC$INSTRUMENT: LTQ Orbitrap XL Thermo Scientific
AC$INSTRUMENT_TYPE: LC-ESI-ITFT
AC$MASS_SPECTROMETRY: MS_TYPE MS2
AC$MASS_SPECTROMETRY: ION_MODE POSITIVE
AC$MASS_SPECTROMETRY: IONIZATION ESI
AC$MASS_SPECTROMETRY: FRAGMENTATION_MODE HCD
AC$MASS_SPECTROMETRY: COLLISION_ENERGY 30 % (nominal)
AC$MASS_SPECTROMETRY: RESOLUTION 15000
AC$CHROMATOGRAPHY: COLUMN_NAME XBridge C18 3.5um, 2.1x50mm, Waters
AC$CHROMATOGRAPHY: FLOW_GRADIENT 90/10 at 0 min, 50/50 at 4 min, 5/95 at 17 min, 5/95 at 25 min, 90/10 at 25.1 min, 90/10 at 30 min
AC$CHROMATOGRAPHY: FLOW_RATE 200 ul/min
AC$CHROMATOGRAPHY: RETENTION_TIME 13.0 min
AC$CHROMATOGRAPHY: SOLVENT A water with 0.1% formic acid
AC$CHROMATOGRAPHY: SOLVENT B methanol with 0.1% formic acid
MS$FOCUSED_ION: BASE_PEAK 442.9332
MS$FOCUSED_ION: PRECURSOR_M/Z 420.9511
MS$FOCUSED_ION: PRECURSOR_TYPE [M+H]+
MS$DATA_PROCESSING: DEPROFILE Spline
MS$DATA_PROCESSING: RECALIBRATE loess on assigned fragments and MS1
MS$DATA_PROCESSING: REANALYZE Peaks with additional N2/O included
MS$DATA_PROCESSING: WHOLE RMassBank 1.3.1
PK$SPLASH: splash10-00di-0001900000-70cba4f21d61866cd897
PK$ANNOTATION: m/z tentative_formula formula_count mass error(ppm)
  181.9989 C4H3F3N3S+ 2 181.9994 -2.96
  246.0043 C9H4ClF3N3+ 1 246.004 0.99
  264.9804 C9H5ClF3N2S+ 2 264.9809 -1.58
  285.015 C11H5ClF3N4+ 1 285.0149 0.12
  316.9869 C11H5ClF3N4S+ 1 316.987 -0.49
  319.9838 C11H5Cl2F3N4+ 2 319.9838 0.01
  325.915 C12Cl2F2N3S+ 2 325.9153 -0.88
  335.9369 C11H3Cl2F3N3S+ 1 335.9371 -0.79
  351.956 C11H5Cl2F3N4S+ 1 351.9559 0.4
  385.9812 C12H5ClF6N4S+ 1 385.9822 -2.53
  420.9508 C12H5Cl2F6N4S+ 1 420.9511 -0.76
  421.9555 C10H5Cl2F5N6OS+ 1 421.9537 4.25
PK$NUM_PEAK: 12
PK$PEAK: m/z int. rel.int.
  181.9989 2483.3 3
  246.0043 2379.7 3
  264.9804 3484.4 5
  285.015 2651.5 4
  316.9869 69473.4 108
  319.9838 23793.5 37
  325.915 2596 4
  335.9369 8507.9 13
  351.956 13572.9 21
  385.9812 3352.1 5
  420.9508 641212.9 999
  421.9555 4359.3 6
//
