ACCESSION: MSBNK-Eawag-EQ00349802
RECORD_TITLE: Tribenuron-methyl; LC-ESI-QFT; MS2; CE: 30%; R=15000; [M+H]+
DATE: 2024.06.14
AUTHORS: F. Jud [dtc], K. Arturi [dtc], J. Hollender [dtc], A. Dax [com]
LICENSE: CC BY-SA
COPYRIGHT: Copyright (C) Eawag 2024
COMMENT: CONFIDENCE standard compound
COMMENT: UCHEM_ID 3498
CH$NAME: Tribenuron-methyl
CH$NAME: methyl 2-[[(4-methoxy-6-methyl-1,3,5-triazin-2-yl)-methylcarbamoyl]sulfamoyl]benzoate
CH$COMPOUND_CLASS: N/A
CH$FORMULA: C15H17N5O6S
CH$EXACT_MASS: 395.0899543
CH$SMILES: CC1=NC(=NC(=N1)OC)N(C)C(=O)NS(=O)(=O)C2=CC=CC=C2C(=O)OC
CH$IUPAC: InChI=1S/C15H17N5O6S/c1-9-16-13(18-14(17-9)26-4)20(2)15(22)19-27(23,24)11-8-6-5-7-10(11)12(21)25-3/h5-8H,1-4H3,(H,19,22)
CH$LINK: CAS 101200-48-0
CH$LINK: CHEBI CHEBI:9678
CH$LINK: KEGG C10962
CH$LINK: PUBCHEM CID:153909
CH$LINK: INCHIKEY VLCQZHSMCYCDJL-UHFFFAOYSA-N
CH$LINK: CHEMSPIDER 135649
AC$INSTRUMENT: Exploris 240 Thermo Scientific
AC$INSTRUMENT_TYPE: LC-ESI-QFT
AC$MASS_SPECTROMETRY: MS_TYPE MS2
AC$MASS_SPECTROMETRY: ION_MODE POSITIVE
AC$MASS_SPECTROMETRY: IONIZATION ESI
AC$MASS_SPECTROMETRY: FRAGMENTATION_MODE HCD
AC$MASS_SPECTROMETRY: COLLISION_ENERGY 30 % (nominal)
AC$MASS_SPECTROMETRY: RESOLUTION 15000
AC$MASS_SPECTROMETRY: MASS_RANGE_M/Z 50-425
AC$CHROMATOGRAPHY: COLUMN_NAME XBridge C18 3.5um, 2.1x50mm, Waters
AC$CHROMATOGRAPHY: FLOW_GRADIENT 90/10 at 0 min, 50/50 at 4 min, 5/95 at 17 min, 5/95 at 25 min, 90/10 at 25.1 min, 90/10 at 30 min
AC$CHROMATOGRAPHY: FLOW_RATE 200 uL/min
AC$CHROMATOGRAPHY: RETENTION_TIME 6.962 min
MS$FOCUSED_ION: BASE_PEAK 396.0963
MS$FOCUSED_ION: PRECURSOR_M/Z 396.0972
MS$FOCUSED_ION: PRECURSOR_TYPE [M+H]+
MS$DATA_PROCESSING: RECALIBRATE loess on assigned fragments and MS1
MS$DATA_PROCESSING: REANALYZE Peaks with additional N2/O included
MS$DATA_PROCESSING: WHOLE RMassBank 3.15.1.1
PK$SPLASH: splash10-0a4i-0900000000-6dbfdc9f92424be36f4c
PK$ANNOTATION: m/z tentative_formula formula_count mass error(ppm)
  135.0439 C8H7O2+ 2 135.0441 -1.11
  155.0923 C6H11N4O+ 1 155.0927 -2.63
  181.0715 C7H9N4O2+ 2 181.072 -2.87
  199.0054 C14HNO+ 3 199.0053 0.52
  209.9848 C6H2N4O3S+ 2 209.9842 2.81
PK$NUM_PEAK: 5
PK$PEAK: m/z int. rel.int.
  135.0439 592435.9 11
  155.0923 49321688 999
  181.0715 24383876 493
  199.0054 8481031 171
  209.9848 635258.4 12
//
