ACCESSION: MSBNK-Eawag-EQ01132203
RECORD_TITLE: 3,4,5-Trimethacarb; LC-ESI-QFT; MS2; CE: 45%; R=17500; [M+H]+
DATE: 2023.04.27
AUTHORS: B. Beck [dtc,com], J. Hollender [dtc]
LICENSE: CC BY-SA
COPYRIGHT: Copyright (C) Eawag 2023
COMMENT: CONFIDENCE standard compound
COMMENT: UCHEM_ID 11322
CH$NAME: 3,4,5-Trimethacarb
CH$NAME: 3,4,5-Trimethylphenyl methylcarbamate
CH$NAME: (3,4,5-trimethylphenyl) N-methylcarbamate
CH$COMPOUND_CLASS: N/A; Environmental Standard
CH$FORMULA: C11H15NO2
CH$EXACT_MASS: 193.1103
CH$SMILES: CC1=CC(=CC(=C1C)C)OC(=O)NC
CH$IUPAC: InChI=1S/C11H15NO2/c1-7-5-10(14-11(13)12-4)6-8(2)9(7)3/h5-6H,1-4H3,(H,12,13)
CH$LINK: CAS 2686-99-9
CH$LINK: CHEBI CHEBI:38894
CH$LINK: PUBCHEM CID:17592
CH$LINK: INCHIKEY AUQAUAIUNJIIEP-UHFFFAOYSA-N
CH$LINK: CHEMSPIDER 16632
AC$INSTRUMENT: Exploris 240 Orbitrap Thermo Scientific
AC$INSTRUMENT_TYPE: LC-ESI-QFT
AC$MASS_SPECTROMETRY: MS_TYPE MS2
AC$MASS_SPECTROMETRY: ION_MODE POSITIVE
AC$MASS_SPECTROMETRY: IONIZATION ESI
AC$MASS_SPECTROMETRY: FRAGMENTATION_MODE HCD
AC$MASS_SPECTROMETRY: COLLISION_ENERGY 45 % (nominal)
AC$MASS_SPECTROMETRY: RESOLUTION 17500
AC$MASS_SPECTROMETRY: MASS_RANGE_M/Z 43-219
AC$CHROMATOGRAPHY: COLUMN_NAME XBridge C18 3.5um, 2.1x50mm, Waters
AC$CHROMATOGRAPHY: FLOW_GRADIENT 90/10 at 0 min, 50/50 at 4 min, 5/95 at 17 min, 5/95 at 25 min, 90/10 at 25.1 min, 90/10 at 30 min
AC$CHROMATOGRAPHY: FLOW_RATE 200 uL/min
AC$CHROMATOGRAPHY: RETENTION_TIME 7.147 min
MS$FOCUSED_ION: BASE_PEAK 137.096
MS$FOCUSED_ION: PRECURSOR_M/Z 194.1176
MS$FOCUSED_ION: PRECURSOR_TYPE [M+H]+
MS$DATA_PROCESSING: RECALIBRATE loess on assigned fragments and MS1
MS$DATA_PROCESSING: REANALYZE Peaks with additional N2/O included
MS$DATA_PROCESSING: WHOLE RMassBank 3.11.0.1
PK$SPLASH: splash10-000i-0900000000-3e8194c969ebcb844e53
PK$ANNOTATION: m/z tentative_formula formula_count mass error(ppm)
  67.0542 C5H7+ 1 67.0542 -0.12
  95.0855 C7H11+ 1 95.0855 0.03
  109.1012 C8H13+ 1 109.1012 0.35
  119.0855 C9H11+ 1 119.0855 -0.49
  121.0651 C8H9O+ 1 121.0648 2.15
  122.0726 C8H10O+ 1 122.0726 -0.48
  137.096 C9H13O+ 1 137.0961 -0.35
PK$NUM_PEAK: 7
PK$PEAK: m/z int. rel.int.
  67.0542 1095203.4 5
  95.0855 702612.8 3
  109.1012 7233398 38
  119.0855 1146749.6 6
  121.0651 772544.1 4
  122.0726 4956401 26
  137.096 187684960 999
//
