ACCESSION: MSBNK-Eawag-EA028601
RECORD_TITLE: Isoproturon; LC-ESI-ITFT; MS2; CE: 35%; R=7500; [M+H]+
DATE: 2014.01.14
AUTHORS: Stravs M, Schymanski E, Singer H, Department of Environmental Chemistry, Eawag
LICENSE: CC BY
COPYRIGHT: Copyright (C) 2012 Eawag, Duebendorf, Switzerland
COMMENT: CONFIDENCE standard compound
COMMENT: EAWAG_UCHEM_ID 286
CH$NAME: Isoproturon
CH$NAME: 1,1-dimethyl-3-(4-propan-2-ylphenyl)urea
CH$COMPOUND_CLASS: N/A; Environmental Standard
CH$FORMULA: C12H18N2O
CH$EXACT_MASS: 206.1414
CH$SMILES: c1(ccc(C(C)C)cc1)NC(N(C)C)=O
CH$IUPAC: InChI=1S/C12H18N2O/c1-9(2)10-5-7-11(8-6-10)13-12(15)14(3)4/h5-9H,1-4H3,(H,13,15)
CH$LINK: CAS 34123-59-6
CH$LINK: KEGG C11005
CH$LINK: PUBCHEM CID:36679
CH$LINK: INCHIKEY PUIYMUZLKQOUOZ-UHFFFAOYSA-N
CH$LINK: CHEMSPIDER 33695
CH$LINK: COMPTOX DTXSID1042077
AC$INSTRUMENT: LTQ Orbitrap XL Thermo Scientific
AC$INSTRUMENT_TYPE: LC-ESI-ITFT
AC$MASS_SPECTROMETRY: MS_TYPE MS2
AC$MASS_SPECTROMETRY: ION_MODE POSITIVE
AC$MASS_SPECTROMETRY: IONIZATION ESI
AC$MASS_SPECTROMETRY: FRAGMENTATION_MODE CID
AC$MASS_SPECTROMETRY: COLLISION_ENERGY 35 % (nominal)
AC$MASS_SPECTROMETRY: RESOLUTION 7500
AC$CHROMATOGRAPHY: COLUMN_NAME XBridge C18 3.5um, 2.1x50mm, Waters
AC$CHROMATOGRAPHY: FLOW_GRADIENT 90/10 at 0 min, 50/50 at 4 min, 5/95 at 17 min, 5/95 at 25 min, 90/10 at 25.1 min, 90/10 at 30 min
AC$CHROMATOGRAPHY: FLOW_RATE 200 ul/min
AC$CHROMATOGRAPHY: RETENTION_TIME 8.7 min
AC$CHROMATOGRAPHY: SOLVENT A water with 0.1% formic acid
AC$CHROMATOGRAPHY: SOLVENT B methanol with 0.1% formic acid
MS$FOCUSED_ION: BASE_PEAK 207.1493
MS$FOCUSED_ION: PRECURSOR_M/Z 207.1492
MS$FOCUSED_ION: PRECURSOR_TYPE [M+H]+
MS$DATA_PROCESSING: DEPROFILE Spline
MS$DATA_PROCESSING: RECALIBRATE loess on assigned fragments and MS1
MS$DATA_PROCESSING: REANALYZE Peaks with additional N2/O included
MS$DATA_PROCESSING: WHOLE RMassBank 1.3.1
PK$SPLASH: splash10-00xr-9820000000-fb8f67bab8c59f1fd08e
PK$ANNOTATION: m/z tentative_formula formula_count mass error(ppm)
  72.0444 C3H6NO+ 1 72.0444 0.27
  120.0445 C7H6NO+ 1 120.0444 1.16
  134.0968 C9H12N+ 1 134.0964 2.57
  162.0913 C10H12NO+ 1 162.0913 -0.43
  165.1023 C9H13N2O+ 1 165.1022 0.31
  207.1495 C12H19N2O+ 1 207.1492 1.4
PK$NUM_PEAK: 6
PK$PEAK: m/z int. rel.int.
  72.0444 1800836.5 999
  120.0445 24930.5 13
  134.0968 17151.1 9
  162.0913 99347 55
  165.1023 1636394.2 907
  207.1495 463208.6 256
//
