ACCESSION: MSBNK-Eawag-EQ01137303
RECORD_TITLE: Imibenconazole; LC-ESI-QFT; MS2; CE: 45%; R=17500; [M+H]+
DATE: 2023.04.27
AUTHORS: B. Beck [dtc,com], J. Hollender [dtc]
LICENSE: CC BY-SA
COPYRIGHT: Copyright (C) Eawag 2023
COMMENT: CONFIDENCE standard compound
COMMENT: UCHEM_ID 11373
CH$NAME: Imibenconazole
CH$NAME: (4-chlorophenyl)methyl N-(2,4-dichlorophenyl)-2-(1,2,4-triazol-1-yl)ethanimidothioate
CH$COMPOUND_CLASS: N/A; Environmental Standard
CH$FORMULA: C17H13Cl3N4S
CH$EXACT_MASS: 409.9927
CH$SMILES: C1=CC(=CC=C1CSC(=NC2=C(C=C(C=C2)Cl)Cl)CN3C=NC=N3)Cl
CH$IUPAC: InChI=1S/C17H13Cl3N4S/c18-13-3-1-12(2-4-13)9-25-17(8-24-11-21-10-22-24)23-16-6-5-14(19)7-15(16)20/h1-7,10-11H,8-9H2
CH$LINK: CHEBI CHEBI:81767
CH$LINK: PUBCHEM CID:93483
CH$LINK: INCHIKEY AGKSTYPVMZODRV-UHFFFAOYSA-N
CH$LINK: CHEMSPIDER 21257418
AC$INSTRUMENT: Exploris 240 Orbitrap Thermo Scientific
AC$INSTRUMENT_TYPE: LC-ESI-QFT
AC$MASS_SPECTROMETRY: MS_TYPE MS2
AC$MASS_SPECTROMETRY: ION_MODE POSITIVE
AC$MASS_SPECTROMETRY: IONIZATION ESI
AC$MASS_SPECTROMETRY: FRAGMENTATION_MODE HCD
AC$MASS_SPECTROMETRY: COLLISION_ENERGY 45 % (nominal)
AC$MASS_SPECTROMETRY: RESOLUTION 17500
AC$MASS_SPECTROMETRY: MASS_RANGE_M/Z 50-440
AC$CHROMATOGRAPHY: COLUMN_NAME XBridge C18 3.5um, 2.1x50mm, Waters
AC$CHROMATOGRAPHY: FLOW_GRADIENT 90/10 at 0 min, 50/50 at 4 min, 5/95 at 17 min, 5/95 at 25 min, 90/10 at 25.1 min, 90/10 at 30 min
AC$CHROMATOGRAPHY: FLOW_RATE 200 uL/min
AC$CHROMATOGRAPHY: RETENTION_TIME 13.632 min
MS$FOCUSED_ION: BASE_PEAK 410.9998
MS$FOCUSED_ION: PRECURSOR_M/Z 410.9999
MS$FOCUSED_ION: PRECURSOR_TYPE [M+H]+
MS$DATA_PROCESSING: RECALIBRATE loess on assigned fragments and MS1
MS$DATA_PROCESSING: REANALYZE Peaks with additional N2/O included
MS$DATA_PROCESSING: WHOLE RMassBank 3.11.0.1
PK$SPLASH: splash10-004i-0900000000-76f8113143b14677f141
PK$ANNOTATION: m/z tentative_formula formula_count mass error(ppm)
  70.0399 C2H4N3+ 1 70.04 -0.72
  84.0556 C3H6N3+ 1 84.0556 -0.52
  125.0152 C7H6Cl+ 1 125.0153 -0.54
  171.0029 C8H8ClS+ 1 171.003 -0.16
  181.9825 C8H5ClNS+ 1 181.9826 -0.62
  295.9786 C14H9Cl3N+ 2 295.9795 -3.13
PK$NUM_PEAK: 6
PK$PEAK: m/z int. rel.int.
  70.0399 2509481.8 22
  84.0556 2305375.2 20
  125.0152 111992552 999
  171.0029 3002966.2 26
  181.9825 4220255.5 37
  295.9786 794533.2 7
//
