ACCESSION: MSBNK-Eawag-EA030412
RECORD_TITLE: Isoproturon-monodemethyl; LC-ESI-ITFT; MS2; CE: 75%; R=15000; [M+H]+
DATE: 2014.01.14
AUTHORS: Stravs M, Schymanski E, Singer H, Department of Environmental Chemistry, Eawag
LICENSE: CC BY
COPYRIGHT: Copyright (C) 2012 Eawag, Duebendorf, Switzerland
COMMENT: CONFIDENCE standard compound
COMMENT: EAWAG_UCHEM_ID 304
CH$NAME: Isoproturon-monodemethyl
CH$NAME: 1-(4-Isoprophenyl)-3-methylurea
CH$COMPOUND_CLASS: N/A; Environmental Standard
CH$FORMULA: C11H16N2O
CH$EXACT_MASS: 192.1263
CH$SMILES: N(C(=O)Nc1ccc(cc1)C(C)C)C
CH$IUPAC: InChI=1S/C11H16N2O/c1-8(2)9-4-6-10(7-5-9)13-11(14)12-3/h4-8H,1-3H3,(H2,12,13,14)
CH$LINK: CAS 34123-57-4
CH$LINK: PUBCHEM CID:182167
CH$LINK: INCHIKEY DOULWWSSZVEPIN-UHFFFAOYSA-N
CH$LINK: CHEMSPIDER 158440
CH$LINK: COMPTOX DTXSID90891449
AC$INSTRUMENT: LTQ Orbitrap XL Thermo Scientific
AC$INSTRUMENT_TYPE: LC-ESI-ITFT
AC$MASS_SPECTROMETRY: MS_TYPE MS2
AC$MASS_SPECTROMETRY: ION_MODE POSITIVE
AC$MASS_SPECTROMETRY: IONIZATION ESI
AC$MASS_SPECTROMETRY: FRAGMENTATION_MODE HCD
AC$MASS_SPECTROMETRY: COLLISION_ENERGY 75 % (nominal)
AC$MASS_SPECTROMETRY: RESOLUTION 15000
AC$CHROMATOGRAPHY: COLUMN_NAME XBridge C18 3.5um, 2.1x50mm, Waters
AC$CHROMATOGRAPHY: FLOW_GRADIENT 90/10 at 0 min, 50/50 at 4 min, 5/95 at 17 min, 5/95 at 25 min, 90/10 at 25.1 min, 90/10 at 30 min
AC$CHROMATOGRAPHY: FLOW_RATE 200 ul/min
AC$CHROMATOGRAPHY: RETENTION_TIME 8.6 min
AC$CHROMATOGRAPHY: SOLVENT A water with 0.1% formic acid
AC$CHROMATOGRAPHY: SOLVENT B methanol with 0.1% formic acid
MS$FOCUSED_ION: BASE_PEAK 193.1341
MS$FOCUSED_ION: PRECURSOR_M/Z 193.1335
MS$FOCUSED_ION: PRECURSOR_TYPE [M+H]+
MS$DATA_PROCESSING: DEPROFILE Spline
MS$DATA_PROCESSING: RECALIBRATE loess on assigned fragments and MS1
MS$DATA_PROCESSING: REANALYZE Peaks with additional N2/O included
MS$DATA_PROCESSING: WHOLE RMassBank 1.3.1
PK$SPLASH: splash10-0006-9200000000-1370762e3eea720cc920
PK$ANNOTATION: m/z tentative_formula formula_count mass error(ppm)
  58.0287 C2H4NO+ 1 58.0287 -0.35
  77.0386 C6H5+ 1 77.0386 0.82
  91.0542 C7H7+ 1 91.0542 0.26
  92.0496 C6H6N+ 1 92.0495 1.03
  93.0575 C6H7N+ 1 93.0573 2.57
  94.0652 C6H8N+ 1 94.0651 1.11
  95.0492 C6H7O+ 1 95.0491 0.3
  105.0447 C6H5N2+ 1 105.0447 -0.61
  107.0857 C8H11+ 1 107.0855 1.52
  117.0696 C9H9+ 1 117.0699 -2.53
  119.0731 C8H9N+ 1 119.073 1.09
  119.0855 C9H11+ 1 119.0855 -0.56
  120.0444 C7H6NO+ 1 120.0444 -0.25
  120.0806 C8H10N+ 1 120.0808 -1.88
  121.0888 C8H11N+ 1 121.0886 1.23
  134.0964 C9H12N+ 1 134.0964 0.11
  136.1121 C9H14N+ 1 136.1121 0.4
  147.0916 C9H11N2+ 1 147.0917 -0.64
  151.0866 C8H11N2O+ 1 151.0866 0.07
PK$NUM_PEAK: 19
PK$PEAK: m/z int. rel.int.
  58.0287 76533.2 23
  77.0386 86823.5 26
  91.0542 78142.6 23
  92.0496 25338.7 7
  93.0575 20363.5 6
  94.0652 3313588 999
  95.0492 10234.7 3
  105.0447 25865.2 7
  107.0857 24462.5 7
  117.0696 16936.6 5
  119.0731 13448.2 4
  119.0855 8262.5 2
  120.0444 25810.4 7
  120.0806 6404.8 1
  121.0888 26727.7 8
  134.0964 139189.2 41
  136.1121 520018.9 156
  147.0916 32795.7 9
  151.0866 151109.9 45
//
