ACCESSION: MSBNK-Eawag-EA271852
RECORD_TITLE: Perfluorononanoic acid; LC-ESI-ITFT; MS2; CE: 15%; R=7500; [M-H]-
DATE: 2014.01.14
AUTHORS: Stravs M, Schymanski E, Singer H, Department of Environmental Chemistry, Eawag
LICENSE: CC BY
COPYRIGHT: Copyright (C) 2012 Eawag, Duebendorf, Switzerland
COMMENT: CONFIDENCE standard compound
COMMENT: EAWAG_UCHEM_ID 2718
CH$NAME: Perfluorononanoic acid
CH$NAME: Nonanoic acid, heptadecafluoro-
CH$NAME: 2,2,3,3,4,4,5,5,6,6,7,7,8,8,9,9,9-heptadecafluorononanoic acid
CH$COMPOUND_CLASS: N/A; Environmental Standard
CH$FORMULA: C9HF17O2
CH$EXACT_MASS: 463.9705
CH$SMILES: O=C(O)C(F)(F)C(F)(F)C(F)(F)C(F)(F)C(F)(F)C(F)(F)C(F)(F)C(F)(F)F
CH$IUPAC: InChI=1S/C9HF17O2/c10-2(11,1(27)28)3(12,13)4(14,15)5(16,17)6(18,19)7(20,21)8(22,23)9(24,25)26/h(H,27,28)
CH$LINK: CAS 375-95-1
CH$LINK: PUBCHEM CID:67821
CH$LINK: INCHIKEY UZUFPBIDKMEQEQ-UHFFFAOYSA-N
CH$LINK: CHEMSPIDER 61138
CH$LINK: COMPTOX DTXSID8031863
AC$INSTRUMENT: LTQ Orbitrap XL Thermo Scientific
AC$INSTRUMENT_TYPE: LC-ESI-ITFT
AC$MASS_SPECTROMETRY: MS_TYPE MS2
AC$MASS_SPECTROMETRY: ION_MODE NEGATIVE
AC$MASS_SPECTROMETRY: IONIZATION ESI
AC$MASS_SPECTROMETRY: FRAGMENTATION_MODE HCD
AC$MASS_SPECTROMETRY: COLLISION_ENERGY 15 % (nominal)
AC$MASS_SPECTROMETRY: RESOLUTION 7500
AC$CHROMATOGRAPHY: COLUMN_NAME XBridge C18 3.5um, 2.1x50mm, Waters
AC$CHROMATOGRAPHY: FLOW_GRADIENT 90/10 at 0 min, 50/50 at 4 min, 5/95 at 17 min, 5/95 at 25 min, 90/10 at 25.1 min, 90/10 at 30 min
AC$CHROMATOGRAPHY: FLOW_RATE 200 ul/min
AC$CHROMATOGRAPHY: RETENTION_TIME 13.9 min
AC$CHROMATOGRAPHY: SOLVENT A water with 0.1% formic acid
AC$CHROMATOGRAPHY: SOLVENT B methanol with 0.1% formic acid
MS$FOCUSED_ION: BASE_PEAK 462.9633
MS$FOCUSED_ION: PRECURSOR_M/Z 462.9632
MS$FOCUSED_ION: PRECURSOR_TYPE [M-H]-
MS$DATA_PROCESSING: DEPROFILE Spline
MS$DATA_PROCESSING: RECALIBRATE loess on assigned fragments and MS1
MS$DATA_PROCESSING: REANALYZE Peaks with additional N2/O included
MS$DATA_PROCESSING: WHOLE RMassBank 1.3.1
PK$SPLASH: splash10-014i-0020900000-3a30d00e24e965e23f97
PK$ANNOTATION: m/z tentative_formula formula_count mass error(ppm)
  218.9856 C4F9- 1 218.9862 -2.5
  418.9719 C8F17- 1 418.9734 -3.61
PK$NUM_PEAK: 2
PK$PEAK: m/z int. rel.int.
  218.9856 10078.1 323
  418.9719 31147.8 999
//
