ACCESSION: MSBNK-Eawag-EA268309
RECORD_TITLE: Ifosfamide; LC-ESI-ITFT; MS2; CE: 30%; R=15000; [M+H]+
DATE: 2014.01.14
AUTHORS: Stravs M, Schymanski E, Singer H, Department of Environmental Chemistry, Eawag
LICENSE: CC BY
COPYRIGHT: Copyright (C) 2012 Eawag, Duebendorf, Switzerland
COMMENT: CONFIDENCE standard compound
COMMENT: EAWAG_UCHEM_ID 2683
CH$NAME: Ifosfamide
CH$NAME: Isophosphamide
CH$NAME: N,3-Bis(2-chloroethyl)-1,3,2-oxazaphosphinan-2-amine 2-oxide
CH$COMPOUND_CLASS: N/A; Environmental Standard
CH$FORMULA: C7H15Cl2N2O2P
CH$EXACT_MASS: 260.0248
CH$SMILES: ClCCN(P(OC1)(=O)NCCCl)CC1
CH$IUPAC: InChI=1S/C7H15Cl2N2O2P/c8-2-4-10-14(12)11(6-3-9)5-1-7-13-14/h1-7H2,(H,10,12)
CH$LINK: CAS 3778-73-2
CH$LINK: KEGG C07047
CH$LINK: PUBCHEM CID:3690
CH$LINK: INCHIKEY HOMGKSMUEGBAAB-UHFFFAOYSA-N
CH$LINK: CHEMSPIDER 3562
CH$LINK: COMPTOX DTXSID7020760
AC$INSTRUMENT: LTQ Orbitrap XL Thermo Scientific
AC$INSTRUMENT_TYPE: LC-ESI-ITFT
AC$MASS_SPECTROMETRY: MS_TYPE MS2
AC$MASS_SPECTROMETRY: ION_MODE POSITIVE
AC$MASS_SPECTROMETRY: IONIZATION ESI
AC$MASS_SPECTROMETRY: FRAGMENTATION_MODE HCD
AC$MASS_SPECTROMETRY: COLLISION_ENERGY 30 % (nominal)
AC$MASS_SPECTROMETRY: RESOLUTION 15000
AC$CHROMATOGRAPHY: COLUMN_NAME XBridge C18 3.5um, 2.1x50mm, Waters
AC$CHROMATOGRAPHY: FLOW_GRADIENT 90/10 at 0 min, 50/50 at 4 min, 5/95 at 17 min, 5/95 at 25 min, 90/10 at 25.1 min, 90/10 at 30 min
AC$CHROMATOGRAPHY: FLOW_RATE 200 ul/min
AC$CHROMATOGRAPHY: RETENTION_TIME 6.3 min
AC$CHROMATOGRAPHY: SOLVENT A water with 0.1% formic acid
AC$CHROMATOGRAPHY: SOLVENT B methanol with 0.1% formic acid
MS$FOCUSED_ION: BASE_PEAK 261.0321
MS$FOCUSED_ION: PRECURSOR_M/Z 261.0321
MS$FOCUSED_ION: PRECURSOR_TYPE [M+H]+
MS$DATA_PROCESSING: DEPROFILE Spline
MS$DATA_PROCESSING: RECALIBRATE loess on assigned fragments and MS1
MS$DATA_PROCESSING: REANALYZE Peaks with additional N2/O included
MS$DATA_PROCESSING: WHOLE RMassBank 1.3.1
PK$SPLASH: splash10-03di-0090000000-1ae1b6f01a6e1a37e34c
PK$ANNOTATION: m/z tentative_formula formula_count mass error(ppm)
  78.0105 C2H5ClN+ 2 78.0105 0.6
  92.0262 C3H7ClN+ 2 92.0262 0.94
  120.0576 C5H11ClN+ 2 120.0575 1.14
  127.9664 CH4ClNO2P+ 3 127.9663 0.63
  146.0365 C5H9NO2P+ 4 146.0365 -0.08
  153.982 C3H6ClNO2P+ 4 153.9819 0.46
  182.0134 C6H10Cl2NO+ 3 182.0134 -0.14
  200.024 C6H12Cl2NO2+ 1 200.024 0.15
  233.0009 C5H12Cl2N2O2P+ 1 233.0008 0.45
  261.0322 C7H16Cl2N2O2P+ 1 261.0321 0.28
PK$NUM_PEAK: 10
PK$PEAK: m/z int. rel.int.
  78.0105 514613.1 19
  92.0262 760909 28
  120.0576 255983.2 9
  127.9664 46952.3 1
  146.0365 74464.2 2
  153.982 883428.6 33
  182.0134 1684468.5 64
  200.024 523281.6 19
  233.0009 3553130.5 135
  261.0322 26281002.6 999
//
