ACCESSION: MSBNK-Eawag-EQ00352701
RECORD_TITLE: Hexythiazox; LC-ESI-QFT; MS2; CE: 15%; R=15000; [M+H]+
DATE: 2024.06.14
AUTHORS: F. Jud [dtc], K. Arturi [dtc], J. Hollender [dtc], A. Dax [com]
LICENSE: CC BY-SA
COPYRIGHT: Copyright (C) Eawag 2024
COMMENT: CONFIDENCE standard compound
COMMENT: UCHEM_ID 3527
CH$NAME: Hexythiazox
CH$NAME: 5-(4-chlorophenyl)-N-cyclohexyl-4-methyl-2-oxo-1,3-thiazolidine-3-carboxamide
CH$COMPOUND_CLASS: N/A
CH$FORMULA: C17H21ClN2O2S
CH$EXACT_MASS: 352.1012266
CH$SMILES: CC1C(SC(=O)N1C(=O)NC2CCCCC2)C3=CC=C(C=C3)Cl
CH$IUPAC: InChI=1S/C17H21ClN2O2S/c1-11-15(12-7-9-13(18)10-8-12)23-17(22)20(11)16(21)19-14-5-3-2-4-6-14/h7-11,14-15H,2-6H2,1H3,(H,19,21)
CH$LINK: CAS 78587-05-0
CH$LINK: PUBCHEM CID:4560140
CH$LINK: INCHIKEY XGWIJUOSCAQSSV-UHFFFAOYSA-N
CH$LINK: CHEMSPIDER 3753586
AC$INSTRUMENT: Exploris 240 Thermo Scientific
AC$INSTRUMENT_TYPE: LC-ESI-QFT
AC$MASS_SPECTROMETRY: MS_TYPE MS2
AC$MASS_SPECTROMETRY: ION_MODE POSITIVE
AC$MASS_SPECTROMETRY: IONIZATION ESI
AC$MASS_SPECTROMETRY: FRAGMENTATION_MODE HCD
AC$MASS_SPECTROMETRY: COLLISION_ENERGY 15 % (nominal)
AC$MASS_SPECTROMETRY: RESOLUTION 15000
AC$MASS_SPECTROMETRY: MASS_RANGE_M/Z 50-381
AC$CHROMATOGRAPHY: COLUMN_NAME XBridge C18 3.5um, 2.1x50mm, Waters
AC$CHROMATOGRAPHY: FLOW_GRADIENT 90/10 at 0 min, 50/50 at 4 min, 5/95 at 17 min, 5/95 at 25 min, 90/10 at 25.1 min, 90/10 at 30 min
AC$CHROMATOGRAPHY: FLOW_RATE 200 uL/min
AC$CHROMATOGRAPHY: RETENTION_TIME 14.150 min
MS$FOCUSED_ION: BASE_PEAK 353.1083
MS$FOCUSED_ION: PRECURSOR_M/Z 353.1085
MS$FOCUSED_ION: PRECURSOR_TYPE [M+H]+
MS$DATA_PROCESSING: RECALIBRATE loess on assigned fragments and MS1
MS$DATA_PROCESSING: REANALYZE Peaks with additional N2/O included
MS$DATA_PROCESSING: WHOLE RMassBank 3.15.1.1
PK$SPLASH: splash10-004i-0090000000-67bbccb7b65f89237f6c
PK$ANNOTATION: m/z tentative_formula formula_count mass error(ppm)
  228.0241 C13H8O2S+ 2 228.024 0.58
  271.0301 C11H12ClN2O2S+ 1 271.0303 -0.56
PK$NUM_PEAK: 2
PK$PEAK: m/z int. rel.int.
  228.0241 7147946 999
  271.0301 3121093 436
//
