ACCESSION: MSBNK-Eawag-EQ338151
RECORD_TITLE: Cetirizine N-Oxide; LC-ESI-QFT; MS2; CE: 15; R=35000; [M-H]-
DATE: 2015.08.26
AUTHORS: Beck B, Stravs M, Schymanski E, Singer H, Department of Environmental Chemistry, Eawag
LICENSE: CC BY
COPYRIGHT: Copyright (C) 2015 Eawag, Duebendorf, Switzerland
COMMENT: CONFIDENCE standard compound
COMMENT: EAWAG_UCHEM_ID 3381
CH$NAME: Cetirizine N-Oxide
CH$NAME: (R)-Cetirizine N-Oxide
CH$NAME: 2-[2-[4-[(4-chlorophenyl)-phenylmethyl]-1-oxidopiperazin-1-ium-1-yl]ethoxy]acetic acid
CH$COMPOUND_CLASS: N/A; Environmental Standard
CH$FORMULA: C21H25ClN2O4
CH$EXACT_MASS: 404.15028
CH$SMILES: C1C[N+](CCN1C(C2=CC=CC=C2)C3=CC=C(C=C3)Cl)(CCOCC(=O)O)[O-]
CH$IUPAC: InChI=1S/C21H25ClN2O4/c22-19-8-6-18(7-9-19)21(17-4-2-1-3-5-17)23-10-12-24(27,13-11-23)14-15-28-16-20(25)26/h1-9,21H,10-16H2,(H,25,26)
CH$LINK: CAS 1076199-80-8
CH$LINK: PUBCHEM CID:45038602
CH$LINK: INCHIKEY IVDOUUOLLFEMJQ-UHFFFAOYSA-N
CH$LINK: CHEMSPIDER 21896624
CH$LINK: COMPTOX DTXSID90891484
AC$INSTRUMENT: Q Exactive Plus Orbitrap Thermo Scientific
AC$INSTRUMENT_TYPE: LC-ESI-QFT
AC$MASS_SPECTROMETRY: MS_TYPE MS2
AC$MASS_SPECTROMETRY: ION_MODE NEGATIVE
AC$MASS_SPECTROMETRY: IONIZATION ESI
AC$MASS_SPECTROMETRY: FRAGMENTATION_MODE HCD
AC$MASS_SPECTROMETRY: COLLISION_ENERGY 15 (nominal)
AC$MASS_SPECTROMETRY: RESOLUTION 35000
AC$CHROMATOGRAPHY: COLUMN_NAME XBridge C18 3.5um, 2.1x50mm, Waters
AC$CHROMATOGRAPHY: FLOW_GRADIENT 90/10 at 0 min, 50/50 at 4 min, 5/95 at 17 min, 5/95 at 25 min, 90/10 at 25.1 min, 90/10 at 30 min
AC$CHROMATOGRAPHY: FLOW_RATE 200 ul/min
AC$CHROMATOGRAPHY: RETENTION_TIME 9.6 min
AC$CHROMATOGRAPHY: SOLVENT A water with 0.1% formic acid
AC$CHROMATOGRAPHY: SOLVENT B methanol with 0.1% formic acid
MS$FOCUSED_ION: BASE_PEAK 403.1428
MS$FOCUSED_ION: PRECURSOR_M/Z 403.143
MS$FOCUSED_ION: PRECURSOR_TYPE [M-H]-
MS$DATA_PROCESSING: RECALIBRATE loess on assigned fragments and MS1
MS$DATA_PROCESSING: REANALYZE Peaks with additional N2/O included
MS$DATA_PROCESSING: WHOLE RMassBank 1.9.6
PK$SPLASH: splash10-0udi-0000900000-71221168c7fdacef1846
PK$ANNOTATION: m/z tentative_formula formula_count mass error(ppm)
  59.0138 C2H3O2- 1 59.0139 -1.41
  72.9932 C2HO3- 1 72.9931 0.72
  75.0087 C2H3O3- 1 75.0088 -0.37
  101.0244 C4H5O3- 1 101.0244 -0.17
  103.0401 C4H7O3- 1 103.0401 0.12
  117.0194 C4H5O4- 1 117.0193 0.49
  119.035 C4H7O4- 1 119.035 0.4
  184.085 C8H12N2O3- 1 184.0853 -1.58
  385.1325 C21H22ClN2O3- 1 385.1324 0.07
  403.1431 C21H24ClN2O4- 1 403.143 0.15
PK$NUM_PEAK: 10
PK$PEAK: m/z int. rel.int.
  59.0138 97178.6 1
  72.9932 1340396.6 17
  75.0087 1136570.8 14
  101.0244 2417071 31
  103.0401 2138824 28
  117.0194 805505.3 10
  119.035 195088.1 2
  184.085 105563.5 1
  385.1325 351324.8 4
  403.1431 75704280 999
//
