ACCESSION: MSBNK-Eawag-EQ00352552
RECORD_TITLE: Fuberidazole; LC-ESI-QFT; MS2; CE: 30%; R=15000; [M-H]-
DATE: 2024.06.14
AUTHORS: F. Jud [dtc], K. Arturi [dtc], J. Hollender [dtc], A. Dax [com]
LICENSE: CC BY-SA
COPYRIGHT: Copyright (C) Eawag 2024
COMMENT: CONFIDENCE standard compound
COMMENT: UCHEM_ID 3525
CH$NAME: Fuberidazole
CH$NAME: 2-(furan-2-yl)-1H-benzimidazole
CH$COMPOUND_CLASS: N/A
CH$FORMULA: C11H8N2O
CH$EXACT_MASS: 184.0636629
CH$SMILES: C1=CC=C2C(=C1)NC(=N2)C3=CC=CO3
CH$IUPAC: InChI=1S/C11H8N2O/c1-2-5-9-8(4-1)12-11(13-9)10-6-3-7-14-10/h1-7H,(H,12,13)
CH$LINK: CAS 3878-19-1
CH$LINK: CHEBI CHEBI:81926
CH$LINK: KEGG C18737
CH$LINK: PUBCHEM CID:19756
CH$LINK: INCHIKEY UYJUZNLFJAWNEZ-UHFFFAOYSA-N
CH$LINK: CHEMSPIDER 18609
AC$INSTRUMENT: Exploris 240 Thermo Scientific
AC$INSTRUMENT_TYPE: LC-ESI-QFT
AC$MASS_SPECTROMETRY: MS_TYPE MS2
AC$MASS_SPECTROMETRY: ION_MODE NEGATIVE
AC$MASS_SPECTROMETRY: IONIZATION ESI
AC$MASS_SPECTROMETRY: FRAGMENTATION_MODE HCD
AC$MASS_SPECTROMETRY: COLLISION_ENERGY 30 % (nominal)
AC$MASS_SPECTROMETRY: RESOLUTION 15000
AC$MASS_SPECTROMETRY: MASS_RANGE_M/Z 41-208
AC$CHROMATOGRAPHY: COLUMN_NAME XBridge C18 3.5um, 2.1x50mm, Waters
AC$CHROMATOGRAPHY: FLOW_GRADIENT 90/10 at 0 min, 50/50 at 4 min, 5/95 at 17 min, 5/95 at 25 min, 90/10 at 25.1 min, 90/10 at 30 min
AC$CHROMATOGRAPHY: FLOW_RATE 200 uL/min
AC$CHROMATOGRAPHY: RETENTION_TIME 3.507 min
MS$FOCUSED_ION: BASE_PEAK 183.0564
MS$FOCUSED_ION: PRECURSOR_M/Z 183.0564
MS$FOCUSED_ION: PRECURSOR_TYPE [M-H]-
MS$DATA_PROCESSING: RECALIBRATE loess on assigned fragments and MS1
MS$DATA_PROCESSING: REANALYZE Peaks with additional N2/O included
MS$DATA_PROCESSING: WHOLE RMassBank 3.15.1.1
PK$SPLASH: splash10-001i-0900000000-4e3576e7309876399da3
PK$ANNOTATION: m/z tentative_formula formula_count mass error(ppm)
  155.0613 C10H7N2- 1 155.0615 -1.01
  183.0564 C11H7N2O- 1 183.0564 0.06
PK$NUM_PEAK: 2
PK$PEAK: m/z int. rel.int.
  155.0613 98240 58
  183.0564 1665905.6 999
//
