ACCESSION: MSBNK-Eawag-EQ00317503
RECORD_TITLE: Propyzamide; LC-ESI-QFT; MS2; CE: 45%; R=15000; [M+H]+
DATE: 2024.06.14
AUTHORS: F. Jud [dtc], K. Arturi [dtc], J. Hollender [dtc], A. Dax [com]
LICENSE: CC BY-SA
COPYRIGHT: Copyright (C) Eawag 2024
COMMENT: CONFIDENCE standard compound
COMMENT: UCHEM_ID 3175
CH$NAME: Propyzamide
CH$NAME: 3,5-dichloro-N-(2-methylbut-3-yn-2-yl)benzamide
CH$COMPOUND_CLASS: N/A
CH$FORMULA: C12H11Cl2NO
CH$EXACT_MASS: 255.0217693
CH$SMILES: CC(C)(NC(=O)C1=CC(Cl)=CC(Cl)=C1)C#C
CH$IUPAC: InChI=1S/C12H11Cl2NO/c1-4-12(2,3)15-11(16)8-5-9(13)7-10(14)6-8/h1,5-7H,2-3H3,(H,15,16)
CH$LINK: CAS 11097-11-3
CH$LINK: CHEBI CHEBI:34935
CH$LINK: KEGG C14333
CH$LINK: PUBCHEM CID:32154
CH$LINK: INCHIKEY PHNUZKMIPFFYSO-UHFFFAOYSA-N
CH$LINK: CHEMSPIDER 29822
AC$INSTRUMENT: Q Exactive Plus
AC$INSTRUMENT_TYPE: LC-ESI-QFT
AC$MASS_SPECTROMETRY: MS_TYPE MS2
AC$MASS_SPECTROMETRY: ION_MODE POSITIVE
AC$MASS_SPECTROMETRY: IONIZATION ESI
AC$MASS_SPECTROMETRY: FRAGMENTATION_MODE HCD
AC$MASS_SPECTROMETRY: COLLISION_ENERGY 45 % (nominal)
AC$MASS_SPECTROMETRY: RESOLUTION 15000
AC$MASS_SPECTROMETRY: MASS_RANGE_M/Z 50-280
AC$CHROMATOGRAPHY: COLUMN_NAME XBridge C18 3.5um, 2.1x50mm, Waters
AC$CHROMATOGRAPHY: FLOW_GRADIENT 90/10 at 0 min, 50/50 at 4 min, 5/95 at 17 min, 5/95 at 25 min, 90/10 at 25.1 min, 90/10 at 30 min
AC$CHROMATOGRAPHY: FLOW_RATE 200 uL/min
AC$CHROMATOGRAPHY: RETENTION_TIME 9.576 min
MS$FOCUSED_ION: BASE_PEAK 256.0291
MS$FOCUSED_ION: PRECURSOR_M/Z 256.029
MS$FOCUSED_ION: PRECURSOR_TYPE [M+H]+
MS$FOCUSED_ION: PRECURSOR_INTENSITY 427532914.61
MS$DATA_PROCESSING: RECALIBRATE loess on assigned fragments and MS1
MS$DATA_PROCESSING: REANALYZE Peaks with additional N2/O included
MS$DATA_PROCESSING: WHOLE RMassBank 3.15.1.1
PK$SPLASH: splash10-00dr-1900000000-35b37f00a1eb6ac20c14
PK$ANNOTATION: m/z tentative_formula formula_count mass error(ppm)
  65.0386 C5H5+ 1 65.0386 0.1
  67.0542 C5H7+ 1 67.0542 0.26
  146.9764 C6H5Cl2+ 1 146.9763 0.53
  162.9709 C6H5Cl2O+ 1 162.9712 -1.8
  172.9555 C7H3Cl2O+ 1 172.9555 -0.31
  189.982 C7H6Cl2NO+ 1 189.9821 -0.24
  256.0289 C12H12Cl2NO+ 1 256.029 -0.59
PK$NUM_PEAK: 7
PK$PEAK: m/z int. rel.int.
  65.0386 3324027 68
  67.0542 12409133 255
  146.9764 4237022 87
  162.9709 521510.2 10
  172.9555 48547692 999
  189.982 45952308 945
  256.0289 1055255 21
//
