ACCESSION: MSBNK-Eawag-EQ342002
RECORD_TITLE: N-desmethylpheniramine; LC-ESI-QFT; MS2; CE: 30; R=35000; [M+H]+
DATE: 2015.08.25
AUTHORS: Beck B, Stravs M, Schymanski E, Singer H, Department of Environmental Chemistry, Eawag
LICENSE: CC BY
COPYRIGHT: Copyright (C) 2015 Eawag, Duebendorf, Switzerland
COMMENT: CONFIDENCE standard compound
COMMENT: EAWAG_UCHEM_ID 3420
CH$NAME: N-desmethylpheniramine
CH$NAME: N-methyl-3-phenyl-3-pyridin-2-ylpropan-1-amine
CH$COMPOUND_CLASS: N/A; Environmental Standard
CH$FORMULA: C15H18N2
CH$EXACT_MASS: 226.14700
CH$SMILES: CNCCC(C1=CC=CC=C1)C2=CC=CC=N2
CH$IUPAC: InChI=1S/C15H18N2/c1-16-12-10-14(13-7-3-2-4-8-13)15-9-5-6-11-17-15/h2-9,11,14,16H,10,12H2,1H3
CH$LINK: PUBCHEM CID:161283
CH$LINK: INCHIKEY GDCVFNAQLOMGMS-UHFFFAOYSA-N
CH$LINK: CHEMSPIDER 141676
CH$LINK: COMPTOX DTXSID60891491
AC$INSTRUMENT: Q Exactive Plus Orbitrap Thermo Scientific
AC$INSTRUMENT_TYPE: LC-ESI-QFT
AC$MASS_SPECTROMETRY: MS_TYPE MS2
AC$MASS_SPECTROMETRY: ION_MODE POSITIVE
AC$MASS_SPECTROMETRY: IONIZATION ESI
AC$MASS_SPECTROMETRY: FRAGMENTATION_MODE HCD
AC$MASS_SPECTROMETRY: COLLISION_ENERGY 30 (nominal)
AC$MASS_SPECTROMETRY: RESOLUTION 35000
AC$CHROMATOGRAPHY: COLUMN_NAME XBridge C18 3.5um, 2.1x50mm, Waters
AC$CHROMATOGRAPHY: FLOW_GRADIENT 90/10 at 0 min, 50/50 at 4 min, 5/95 at 17 min, 5/95 at 25 min, 90/10 at 25.1 min, 90/10 at 30 min
AC$CHROMATOGRAPHY: FLOW_RATE 200 ul/min
AC$CHROMATOGRAPHY: RETENTION_TIME 3.6 min
AC$CHROMATOGRAPHY: SOLVENT A water with 0.1% formic acid
AC$CHROMATOGRAPHY: SOLVENT B methanol with 0.1% formic acid
MS$FOCUSED_ION: BASE_PEAK 227.154
MS$FOCUSED_ION: PRECURSOR_M/Z 227.1543
MS$FOCUSED_ION: PRECURSOR_TYPE [M+H]+
MS$DATA_PROCESSING: RECALIBRATE loess on assigned fragments and MS1
MS$DATA_PROCESSING: REANALYZE Peaks with additional N2/O included
MS$DATA_PROCESSING: WHOLE RMassBank 1.9.6
PK$SPLASH: splash10-0002-0900000000-a1e5e267bd77a9eba0c3
PK$ANNOTATION: m/z tentative_formula formula_count mass error(ppm)
  195.1044 C14H13N+ 1 195.1043 0.71
  196.112 C14H14N+ 1 196.1121 -0.44
  227.1543 C15H19N2+ 1 227.1543 0.15
PK$NUM_PEAK: 3
PK$PEAK: m/z int. rel.int.
  195.1044 1214748.4 1
  196.112 1208954880 999
  227.1543 12636401 10
//
