ACCESSION: MSBNK-Eawag-EA019909
RECORD_TITLE: Trimethoprim; LC-ESI-ITFT; MS2; CE: 30%; R=15000; [M+H]+
DATE: 2014.01.14
AUTHORS: Stravs M, Schymanski E, Singer H, Department of Environmental Chemistry, Eawag
LICENSE: CC BY
COPYRIGHT: Copyright (C) 2012 Eawag, Duebendorf, Switzerland
COMMENT: CONFIDENCE standard compound
COMMENT: EAWAG_UCHEM_ID 199
CH$NAME: Trimethoprim
CH$NAME: 2,4-Diamino-5-(3,4,5-trimethoxybenzyl)pyrimidine
CH$NAME: 5-[(3,4,5-trimethoxyphenyl)methyl]pyrimidine-2,4-diamine
CH$COMPOUND_CLASS: N/A; Environmental Standard
CH$FORMULA: C14H18N4O3
CH$EXACT_MASS: 290.1379
CH$SMILES: c1(Cc2c(nc(N)nc2)N)cc(c(OC)c(c1)OC)OC
CH$IUPAC: InChI=1S/C14H18N4O3/c1-19-10-5-8(6-11(20-2)12(10)21-3)4-9-7-17-14(16)18-13(9)15/h5-7H,4H2,1-3H3,(H4,15,16,17,18)
CH$LINK: CAS 738-70-5
CH$LINK: CHEBI CHEBI:45924
CH$LINK: KEGG C01965
CH$LINK: PUBCHEM CID:5578
CH$LINK: INCHIKEY IEDVJHCEMCRBQM-UHFFFAOYSA-N
CH$LINK: CHEMSPIDER 5376
CH$LINK: COMPTOX DTXSID3023712
AC$INSTRUMENT: LTQ Orbitrap XL Thermo Scientific
AC$INSTRUMENT_TYPE: LC-ESI-ITFT
AC$MASS_SPECTROMETRY: MS_TYPE MS2
AC$MASS_SPECTROMETRY: ION_MODE POSITIVE
AC$MASS_SPECTROMETRY: IONIZATION ESI
AC$MASS_SPECTROMETRY: FRAGMENTATION_MODE HCD
AC$MASS_SPECTROMETRY: COLLISION_ENERGY 30 % (nominal)
AC$MASS_SPECTROMETRY: RESOLUTION 15000
AC$CHROMATOGRAPHY: COLUMN_NAME XBridge C18 3.5um, 2.1x50mm, Waters
AC$CHROMATOGRAPHY: FLOW_GRADIENT 90/10 at 0 min, 50/50 at 4 min, 5/95 at 17 min, 5/95 at 25 min, 90/10 at 25.1 min, 90/10 at 30 min
AC$CHROMATOGRAPHY: FLOW_RATE 200 ul/min
AC$CHROMATOGRAPHY: RETENTION_TIME 3.8 min
AC$CHROMATOGRAPHY: SOLVENT A water with 0.1% formic acid
AC$CHROMATOGRAPHY: SOLVENT B methanol with 0.1% formic acid
MS$FOCUSED_ION: BASE_PEAK 291.1463
MS$FOCUSED_ION: PRECURSOR_M/Z 291.1452
MS$FOCUSED_ION: PRECURSOR_TYPE [M+H]+
MS$DATA_PROCESSING: DEPROFILE Spline
MS$DATA_PROCESSING: RECALIBRATE loess on assigned fragments and MS1
MS$DATA_PROCESSING: REANALYZE Peaks with additional N2/O included
MS$DATA_PROCESSING: WHOLE RMassBank 1.3.1
PK$SPLASH: splash10-0006-0090000000-15d83f92b30f466cd587
PK$ANNOTATION: m/z tentative_formula formula_count mass error(ppm)
  123.0666 C5H7N4+ 1 123.0665 0.71
  230.1163 C12H14N4O+ 1 230.1162 0.29
  245.1027 C12H13N4O2+ 1 245.1033 -2.46
  247.1196 C12H15N4O2+ 2 247.119 2.5
  258.111 C13H14N4O2+ 1 258.1111 -0.65
  261.0981 C12H13N4O3+ 1 261.0982 -0.6
  275.1139 C13H15N4O3+ 1 275.1139 0.23
  276.1215 C13H16N4O3+ 1 276.1217 -0.59
  291.1455 C14H19N4O3+ 1 291.1452 1.25
PK$NUM_PEAK: 9
PK$PEAK: m/z int. rel.int.
  123.0666 54952.8 16
  230.1163 29576 9
  245.1027 20798.5 6
  247.1196 7465.1 2
  258.111 31801.6 9
  261.0981 36430.4 11
  275.1139 27121.2 8
  276.1215 34368.2 10
  291.1455 3272238.1 999
//
