ACCESSION: MSBNK-Eawag-EQ362001
RECORD_TITLE: Sarafloxacin; LC-ESI-QFT; MS2; CE: 15; R=35000; [M+H]+
DATE: 2015.08.25
AUTHORS: Stravs M, Schymanski E, Singer H, Department of Environmental Chemistry, Eawag and Thomaidis N, University of Athens
LICENSE: CC BY
COPYRIGHT: Copyright (C) 2015 Eawag, Duebendorf, Switzerland
COMMENT: CONFIDENCE standard compound
COMMENT: EAWAG_UCHEM_ID 3620
CH$NAME: Sarafloxacin
CH$NAME: 6-fluoro-1-(4-fluorophenyl)-4-oxo-7-piperazin-1-ylquinoline-3-carboxylic acid
CH$COMPOUND_CLASS: N/A; Environmental Standard
CH$FORMULA: C20H17F2N3O3
CH$EXACT_MASS: 385.12380
CH$SMILES: C1CN(CCN1)C2=C(C=C3C(=C2)N(C=C(C3=O)C(=O)O)C4=CC=C(C=C4)F)F
CH$IUPAC: InChI=1S/C20H17F2N3O3/c21-12-1-3-13(4-2-12)25-11-15(20(27)28)19(26)14-9-16(22)18(10-17(14)25)24-7-5-23-6-8-24/h1-4,9-11,23H,5-8H2,(H,27,28)
CH$LINK: CAS 98105-99-8
CH$LINK: PUBCHEM CID:56208
CH$LINK: INCHIKEY XBHBWNFJWIASRO-UHFFFAOYSA-N
CH$LINK: CHEMSPIDER 50727
CH$LINK: COMPTOX DTXSID8048494
AC$INSTRUMENT: Q Exactive Plus Orbitrap Thermo Scientific
AC$INSTRUMENT_TYPE: LC-ESI-QFT
AC$MASS_SPECTROMETRY: MS_TYPE MS2
AC$MASS_SPECTROMETRY: ION_MODE POSITIVE
AC$MASS_SPECTROMETRY: IONIZATION ESI
AC$MASS_SPECTROMETRY: FRAGMENTATION_MODE HCD
AC$MASS_SPECTROMETRY: COLLISION_ENERGY 15 (nominal)
AC$MASS_SPECTROMETRY: RESOLUTION 35000
AC$CHROMATOGRAPHY: COLUMN_NAME XBridge C18 3.5um, 2.1x50mm, Waters
AC$CHROMATOGRAPHY: FLOW_GRADIENT 90/10 at 0 min, 50/50 at 4 min, 5/95 at 17 min, 5/95 at 25 min, 90/10 at 25.1 min, 90/10 at 30 min
AC$CHROMATOGRAPHY: FLOW_RATE 200 ul/min
AC$CHROMATOGRAPHY: RETENTION_TIME 4.7 min
AC$CHROMATOGRAPHY: SOLVENT A water with 0.1% formic acid
AC$CHROMATOGRAPHY: SOLVENT B methanol with 0.1% formic acid
MS$FOCUSED_ION: BASE_PEAK 386.1304
MS$FOCUSED_ION: PRECURSOR_M/Z 386.1311
MS$FOCUSED_ION: PRECURSOR_TYPE [M+H]+
MS$DATA_PROCESSING: RECALIBRATE loess on assigned fragments and MS1
MS$DATA_PROCESSING: REANALYZE Peaks with additional N2/O included
MS$DATA_PROCESSING: WHOLE RMassBank 1.9.6
PK$SPLASH: splash10-000i-0009000000-41d7e30d2cdfe003d56b
PK$ANNOTATION: m/z tentative_formula formula_count mass error(ppm)
  299.097 C20H12FN2+ 1 299.0979 -2.92
  342.1414 C19H18F2N3O+ 1 342.1412 0.45
  368.1202 C20H16F2N3O2+ 1 368.1205 -0.73
  386.131 C20H18F2N3O3+ 1 386.1311 -0.17
PK$NUM_PEAK: 4
PK$PEAK: m/z int. rel.int.
  299.097 225756.4 1
  342.1414 6892147.5 54
  368.1202 2876583.8 22
  386.131 125820712 999
//
