ACCESSION: MSBNK-Eawag-EQ320401
RECORD_TITLE: Metoxuron; LC-ESI-QFT; MS2; CE: 15; R=35000; [M+H]+
DATE: 2015.08.25
AUTHORS: Beck B, Stravs M, Schymanski E, Singer H, Department of Environmental Chemistry, Eawag
LICENSE: CC BY
COPYRIGHT: Copyright (C) 2015 Eawag, Duebendorf, Switzerland
COMMENT: CONFIDENCE standard compound
COMMENT: EAWAG_UCHEM_ID 3204
CH$NAME: Metoxuron
CH$NAME: 3-(3-chloro-4-methoxyphenyl)-1,1-dimethylurea
CH$COMPOUND_CLASS: N/A; Environmental Standard
CH$FORMULA: C10H13ClN2O2
CH$EXACT_MASS: 228.06656
CH$SMILES: Clc1cc(ccc1OC)NC(=O)N(C)C
CH$IUPAC: InChI=1S/C10H13ClN2O2/c1-13(2)10(14)12-7-4-5-9(15-3)8(11)6-7/h4-6H,1-3H3,(H,12,14)
CH$LINK: CAS 19937-59-8
CH$LINK: CHEBI CHEBI:6907
CH$LINK: KEGG C11011
CH$LINK: PUBCHEM CID:29863
CH$LINK: INCHIKEY DSRNRYQBBJQVCW-UHFFFAOYSA-N
CH$LINK: CHEMSPIDER 27749
CH$LINK: COMPTOX DTXSID1042158
AC$INSTRUMENT: Q Exactive Plus Orbitrap Thermo Scientific
AC$INSTRUMENT_TYPE: LC-ESI-QFT
AC$MASS_SPECTROMETRY: MS_TYPE MS2
AC$MASS_SPECTROMETRY: ION_MODE POSITIVE
AC$MASS_SPECTROMETRY: IONIZATION ESI
AC$MASS_SPECTROMETRY: FRAGMENTATION_MODE HCD
AC$MASS_SPECTROMETRY: COLLISION_ENERGY 15 (nominal)
AC$MASS_SPECTROMETRY: RESOLUTION 35000
AC$CHROMATOGRAPHY: COLUMN_NAME XBridge C18 3.5um, 2.1x50mm, Waters
AC$CHROMATOGRAPHY: FLOW_GRADIENT 90/10 at 0 min, 50/50 at 4 min, 5/95 at 17 min, 5/95 at 25 min, 90/10 at 25.1 min, 90/10 at 30 min
AC$CHROMATOGRAPHY: FLOW_RATE 200 ul/min
AC$CHROMATOGRAPHY: RETENTION_TIME 6.1 min
AC$CHROMATOGRAPHY: SOLVENT A water with 0.1% formic acid
AC$CHROMATOGRAPHY: SOLVENT B methanol with 0.1% formic acid
MS$FOCUSED_ION: BASE_PEAK 229.0737
MS$FOCUSED_ION: PRECURSOR_M/Z 229.0738
MS$FOCUSED_ION: PRECURSOR_TYPE [M+H]+
MS$DATA_PROCESSING: RECALIBRATE loess on assigned fragments and MS1
MS$DATA_PROCESSING: REANALYZE Peaks with additional N2/O included
MS$DATA_PROCESSING: WHOLE RMassBank 1.9.6
PK$SPLASH: splash10-004i-2090000000-db4d35117dbec0c421cf
PK$ANNOTATION: m/z tentative_formula formula_count mass error(ppm)
  72.0443 C3H6NO+ 1 72.0444 -1.25
  156.0208 C7H7ClNO+ 2 156.0211 -1.4
  184.0161 C8H7ClNO2+ 1 184.016 0.48
  229.0737 C10H14ClN2O2+ 1 229.0738 -0.4
PK$NUM_PEAK: 4
PK$PEAK: m/z int. rel.int.
  72.0443 223266656 322
  156.0208 1188457.9 1
  184.0161 2384710.2 3
  229.0737 690893248 999
//
