ACCESSION: MSBNK-Eawag-EQ01120406
RECORD_TITLE: Bendiocarb; LC-ESI-QFT; MS2; CE: 90%; R=17500; [M+H]+
DATE: 2023.04.27
AUTHORS: B. Beck [dtc,com], J. Hollender [dtc]
LICENSE: CC BY-SA
COPYRIGHT: Copyright (C) Eawag 2023
COMMENT: CONFIDENCE standard compound
COMMENT: UCHEM_ID 11204
CH$NAME: Bendiocarb
CH$NAME: (2,2-dimethyl-1,3-benzodioxol-4-yl) N-methylcarbamate
CH$COMPOUND_CLASS: N/A; Environmental Standard
CH$FORMULA: C11H13NO4
CH$EXACT_MASS: 223.0845
CH$SMILES: CC1(OC2=C(O1)C(=CC=C2)OC(=O)NC)C
CH$IUPAC: InChI=1S/C11H13NO4/c1-11(2)15-8-6-4-5-7(9(8)16-11)14-10(13)12-3/h4-6H,1-3H3,(H,12,13)
CH$LINK: CAS 23370-76-5
CH$LINK: CHEBI CHEBI:34556
CH$LINK: KEGG C14433
CH$LINK: PUBCHEM CID:2314
CH$LINK: INCHIKEY XEGGRYVFLWGFHI-UHFFFAOYSA-N
CH$LINK: CHEMSPIDER 2224
AC$INSTRUMENT: Exploris 240 Orbitrap Thermo Scientific
AC$INSTRUMENT_TYPE: LC-ESI-QFT
AC$MASS_SPECTROMETRY: MS_TYPE MS2
AC$MASS_SPECTROMETRY: ION_MODE POSITIVE
AC$MASS_SPECTROMETRY: IONIZATION ESI
AC$MASS_SPECTROMETRY: FRAGMENTATION_MODE HCD
AC$MASS_SPECTROMETRY: COLLISION_ENERGY 90 % (nominal)
AC$MASS_SPECTROMETRY: RESOLUTION 17500
AC$MASS_SPECTROMETRY: MASS_RANGE_M/Z 49-250
AC$CHROMATOGRAPHY: COLUMN_NAME XBridge C18 3.5um, 2.1x50mm, Waters
AC$CHROMATOGRAPHY: FLOW_GRADIENT 90/10 at 0 min, 50/50 at 4 min, 5/95 at 17 min, 5/95 at 25 min, 90/10 at 25.1 min, 90/10 at 30 min
AC$CHROMATOGRAPHY: FLOW_RATE 200 uL/min
AC$CHROMATOGRAPHY: RETENTION_TIME 5.784 min
MS$FOCUSED_ION: BASE_PEAK 222.1124
MS$FOCUSED_ION: PRECURSOR_M/Z 224.0917
MS$FOCUSED_ION: PRECURSOR_TYPE [M+H]+
MS$DATA_PROCESSING: RECALIBRATE loess on assigned fragments and MS1
MS$DATA_PROCESSING: REANALYZE Peaks with additional N2/O included
MS$DATA_PROCESSING: WHOLE RMassBank 3.11.0.1
PK$SPLASH: splash10-053r-9200000000-2237bcd368838d3d710b
PK$ANNOTATION: m/z tentative_formula formula_count mass error(ppm)
  53.0386 C4H5+ 1 53.0386 0.1
  55.0179 C3H3O+ 1 55.0178 0.4
  58.0288 C2H4NO+ 1 58.0287 0.83
  59.0491 C3H7O+ 1 59.0491 -0.2
  77.0387 C6H5+ 1 77.0386 2.11
  81.0335 C5H5O+ 1 81.0335 -0.35
  91.0544 C7H7+ 1 91.0542 1.72
  109.0284 C6H5O2+ 1 109.0284 -0.41
  127.0391 C6H7O3+ 1 127.039 1.27
PK$NUM_PEAK: 9
PK$PEAK: m/z int. rel.int.
  53.0386 11872525 119
  55.0179 526188.4 5
  58.0288 558441.8 5
  59.0491 19307830 194
  77.0387 735237.2 7
  81.0335 99225112 999
  91.0544 606960.9 6
  109.0284 41927268 422
  127.0391 1484401.1 14
//
