ACCESSION: MSBNK-Eawag-EQ01154608
RECORD_TITLE: Methyl anthranilate; LC-ESI-QFT; MS2; CE: 150%; R=17500; [M+H]+
DATE: 2024.05.08
AUTHORS: C. Meyer [dtc], B. Beck [dtc,com], J. Hollender [dtc]
LICENSE: CC BY-SA
COPYRIGHT: Copyright (C) Eawag 2023
PUBLICATION: Meyer, C., Stravs, M., Hollender, J.. How Wastewater Reflects Human Metabolism - Suspect Screening of Pharmaceutical Metabolites in Wastewater Influent. doi:10.1021/acs.est.4c00968
COMMENT: CONFIDENCE standard compound
COMMENT: UCHEM_ID 11546
CH$NAME: Methyl anthranilate
CH$NAME: methyl 2-aminobenzoate
CH$COMPOUND_CLASS: N/A; Environmental Standard
CH$FORMULA: C8H9NO2
CH$EXACT_MASS: 151.0633285
CH$SMILES: COC(=O)C1=CC=CC=C1N
CH$IUPAC: InChI=1S/C8H9NO2/c1-11-8(10)6-4-2-3-5-7(6)9/h2-5H,9H2,1H3
CH$LINK: CHEBI CHEBI:73244
CH$LINK: PUBCHEM CID:8635
CH$LINK: INCHIKEY VAMXMNNIEUEQDV-UHFFFAOYSA-N
CH$LINK: CHEMSPIDER 13858096
AC$INSTRUMENT: Exploris 240 Orbitrap Thermo Scientific
AC$INSTRUMENT_TYPE: LC-ESI-QFT
AC$MASS_SPECTROMETRY: MS_TYPE MS2
AC$MASS_SPECTROMETRY: ION_MODE POSITIVE
AC$MASS_SPECTROMETRY: IONIZATION ESI
AC$MASS_SPECTROMETRY: FRAGMENTATION_MODE HCD
AC$MASS_SPECTROMETRY: COLLISION_ENERGY 150 % (nominal)
AC$MASS_SPECTROMETRY: RESOLUTION 17500
AC$MASS_SPECTROMETRY: MASS_RANGE_M/Z 40-176
AC$CHROMATOGRAPHY: COLUMN_NAME XBridge C18 3.5um, 2.1x50mm, Waters
AC$CHROMATOGRAPHY: FLOW_GRADIENT 90/10 at 0 min, 50/50 at 4 min, 5/95 at 17 min, 5/95 at 25 min, 90/10 at 25.1 min, 90/10 at 30 min
AC$CHROMATOGRAPHY: FLOW_RATE 200 uL/min
AC$CHROMATOGRAPHY: RETENTION_TIME 5.714 min
MS$FOCUSED_ION: BASE_PEAK 120.0442
MS$FOCUSED_ION: PRECURSOR_M/Z 152.0706
MS$FOCUSED_ION: PRECURSOR_TYPE [M+H]+
MS$DATA_PROCESSING: RECALIBRATE loess on assigned fragments and MS1
MS$DATA_PROCESSING: REANALYZE Peaks with additional N2/O included
MS$DATA_PROCESSING: WHOLE RMassBank 3.15.1
PK$SPLASH: splash10-014i-9000000000-7824062729b4ba388ad5
PK$ANNOTATION: m/z tentative_formula formula_count mass error(ppm)
  41.0385 C3H5+ 1 41.0386 -2.25
  56.0496 C3H6N+ 1 56.0495 1.45
  63.0228 C5H3+ 1 63.0229 -1.23
  65.0385 C5H5+ 1 65.0386 -0.81
  66.0338 C4H4N+ 1 66.0338 -0.79
  90.0337 C6H4N+ 1 90.0338 -1.92
  92.0494 C6H6N+ 1 92.0495 -0.41
  110.0599 C6H8NO+ 1 110.06 -0.99
  120.0442 C7H6NO+ 1 120.0444 -1.9
PK$NUM_PEAK: 9
PK$PEAK: m/z int. rel.int.
  41.0385 376973.4 2
  56.0496 295847.3 2
  63.0228 428489.4 3
  65.0385 125588968 999
  66.0338 3471960.5 27
  90.0337 440284.9 3
  92.0494 20026158 159
  110.0599 436402 3
  120.0442 840321.6 6
//
