ACCESSION: MSBNK-Eawag-EA029060
RECORD_TITLE: Sulcotrione; LC-ESI-ITFT; MS2; CE: 45%; R=15000; [M-H]-
DATE: 2014.01.14
AUTHORS: Stravs M, Schymanski E, Singer H, Department of Environmental Chemistry, Eawag
LICENSE: CC BY
COPYRIGHT: Copyright (C) 2012 Eawag, Duebendorf, Switzerland
COMMENT: CONFIDENCE standard compound
COMMENT: EAWAG_UCHEM_ID 290
CH$NAME: Sulcotrione
CH$NAME: 2-(2-chloranyl-4-methylsulfonyl-phenyl)carbonylcyclohexane-1,3-dione
CH$COMPOUND_CLASS: N/A; Environmental Standard
CH$FORMULA: C14H13ClO5S
CH$EXACT_MASS: 328.0167
CH$SMILES: O=C1CCCC(=O)C1C(=O)c1ccc(S(=O)(=O)C)cc1Cl
CH$IUPAC: InChI=1S/C14H13ClO5S/c1-21(19,20)8-5-6-9(10(15)7-8)14(18)13-11(16)3-2-4-12(13)17/h5-7,13H,2-4H2,1H3
CH$LINK: CAS 99105-77-8
CH$LINK: PUBCHEM CID:91760
CH$LINK: INCHIKEY PQTBTIFWAXVEPB-UHFFFAOYSA-N
CH$LINK: CHEMSPIDER 82858
CH$LINK: COMPTOX DTXSID9058230
AC$INSTRUMENT: LTQ Orbitrap XL Thermo Scientific
AC$INSTRUMENT_TYPE: LC-ESI-ITFT
AC$MASS_SPECTROMETRY: MS_TYPE MS2
AC$MASS_SPECTROMETRY: ION_MODE NEGATIVE
AC$MASS_SPECTROMETRY: IONIZATION ESI
AC$MASS_SPECTROMETRY: FRAGMENTATION_MODE HCD
AC$MASS_SPECTROMETRY: COLLISION_ENERGY 45 % (nominal)
AC$MASS_SPECTROMETRY: RESOLUTION 15000
AC$CHROMATOGRAPHY: COLUMN_NAME XBridge C18 3.5um, 2.1x50mm, Waters
AC$CHROMATOGRAPHY: FLOW_GRADIENT 90/10 at 0 min, 50/50 at 4 min, 5/95 at 17 min, 5/95 at 25 min, 90/10 at 25.1 min, 90/10 at 30 min
AC$CHROMATOGRAPHY: FLOW_RATE 200 ul/min
AC$CHROMATOGRAPHY: RETENTION_TIME 6.8 min
AC$CHROMATOGRAPHY: SOLVENT A water with 0.1% formic acid
AC$CHROMATOGRAPHY: SOLVENT B methanol with 0.1% formic acid
MS$FOCUSED_ION: BASE_PEAK 327.0087
MS$FOCUSED_ION: PRECURSOR_M/Z 327.0099
MS$FOCUSED_ION: PRECURSOR_TYPE [M-H]-
MS$DATA_PROCESSING: DEPROFILE Spline
MS$DATA_PROCESSING: RECALIBRATE loess on assigned fragments and MS1
MS$DATA_PROCESSING: REANALYZE Peaks with additional N2/O included
MS$DATA_PROCESSING: WHOLE RMassBank 1.3.1
PK$SPLASH: splash10-0006-0090000000-817ed9c170e0ca0fc058
PK$ANNOTATION: m/z tentative_formula formula_count mass error(ppm)
  212.0479 C13H8O3- 1 212.0479 0.03
  215.0344 C12H7O4- 1 215.035 -2.57
  249.0227 C12H9O4S- 1 249.0227 -0.13
  291.0328 C14H11O5S- 1 291.0333 -1.75
PK$NUM_PEAK: 4
PK$PEAK: m/z int. rel.int.
  212.0479 2609.3 100
  215.0344 5883.3 227
  249.0227 6492.9 251
  291.0328 25830 999
//
