ACCESSION: MSBNK-Eawag-EQ315401
RECORD_TITLE: Triethyl phosphate; LC-ESI-QFT; MS2; CE: 15; R=35000; [M+H]+
DATE: 2015.08.25
AUTHORS: Beck B, Stravs M, Schymanski E, Singer H, Department of Environmental Chemistry, Eawag
LICENSE: CC BY
COPYRIGHT: Copyright (C) 2015 Eawag, Duebendorf, Switzerland
COMMENT: CONFIDENCE standard compound
COMMENT: EAWAG_UCHEM_ID 3154
CH$NAME: Triethyl phosphate
CH$NAME: TEP
CH$NAME: Phosphoric acid triethyl ester
CH$COMPOUND_CLASS: N/A; Environmental Standard
CH$FORMULA: C6H15O4P
CH$EXACT_MASS: 182.07080
CH$SMILES: O=P(OCC)(OCC)OCC
CH$IUPAC: InChI=1S/C6H15O4P/c1-4-8-11(7,9-5-2)10-6-3/h4-6H2,1-3H3
CH$LINK: CAS 78-40-0
CH$LINK: PUBCHEM CID:6535
CH$LINK: INCHIKEY DQWPFSLDHJDLRL-UHFFFAOYSA-N
CH$LINK: CHEMSPIDER 6287
CH$LINK: COMPTOX DTXSID8026228
AC$INSTRUMENT: Q Exactive Orbitrap Thermo Scientific
AC$INSTRUMENT_TYPE: LC-ESI-QFT
AC$MASS_SPECTROMETRY: MS_TYPE MS2
AC$MASS_SPECTROMETRY: ION_MODE POSITIVE
AC$MASS_SPECTROMETRY: IONIZATION ESI
AC$MASS_SPECTROMETRY: FRAGMENTATION_MODE HCD
AC$MASS_SPECTROMETRY: COLLISION_ENERGY 15 (nominal)
AC$MASS_SPECTROMETRY: RESOLUTION 35000
AC$CHROMATOGRAPHY: COLUMN_NAME XBridge C18 3.5um, 2.1x50mm, Waters
AC$CHROMATOGRAPHY: FLOW_GRADIENT 90/10 at 0 min, 50/50 at 4 min, 5/95 at 17 min, 5/95 at 25 min, 90/10 at 25.1 min, 90/10 at 30 min
AC$CHROMATOGRAPHY: FLOW_RATE 200 ul/min
AC$CHROMATOGRAPHY: RETENTION_TIME 6.2 min
AC$CHROMATOGRAPHY: SOLVENT A water with 0.1% formic acid
AC$CHROMATOGRAPHY: SOLVENT B methanol with 0.1% formic acid
MS$FOCUSED_ION: BASE_PEAK 183.0782
MS$FOCUSED_ION: PRECURSOR_M/Z 183.0781
MS$FOCUSED_ION: PRECURSOR_TYPE [M+H]+
MS$DATA_PROCESSING: DEPROFILE Spline
MS$DATA_PROCESSING: RECALIBRATE loess on assigned fragments and MS1
MS$DATA_PROCESSING: REANALYZE Peaks with additional N2/O included
MS$DATA_PROCESSING: WHOLE RMassBank 1.9.6
PK$SPLASH: splash10-002b-7900000000-efc6645c041276635924
PK$ANNOTATION: m/z tentative_formula formula_count mass error(ppm)
  80.9733 H2O3P+ 1 80.9736 -3.42
  81.9813 H3O3P+ 1 81.9814 -1.85
  98.9842 H4O4P+ 1 98.9842 0.49
  116.9947 H6O5P+ 1 116.9947 0.12
  127.0155 C2H8O4P+ 1 127.0155 0.3
  145.0263 C2H10O5P+ 1 145.026 1.61
  155.0468 C4H12O4P+ 1 155.0468 0.31
  183.0782 C6H16O4P+ 1 183.0781 0.75
PK$NUM_PEAK: 8
PK$PEAK: m/z int. rel.int.
  80.9733 2769584.6 3
  81.9813 1545106.8 2
  98.9842 757188888.4 999
  116.9947 7248708.3 9
  127.0155 555501337 732
  145.0263 3117622.3 4
  155.0468 254071091.8 335
  183.0782 50205565.1 66
//
