ACCESSION: MSBNK-Eawag-EQ01094754
RECORD_TITLE: Chlorophacinone; LC-ESI-QFT; MS2; CE: 60%; R=17500; [M-H]-
DATE: 2023.06.16
AUTHORS: B. Beck [dtc,com], J. Hollender [dtc]
LICENSE: CC BY-SA
COPYRIGHT: Copyright (C) Eawag 2023
COMMENT: CONFIDENCE standard compound
COMMENT: UCHEM_ID 10947
CH$NAME: Chlorophacinone
CH$NAME: 2-[2-(4-chlorophenyl)-2-phenylacetyl]indene-1,3-dione
CH$COMPOUND_CLASS: N/A; Environmental Standard
CH$FORMULA: C23H15ClO3
CH$EXACT_MASS: 374.0710
CH$SMILES: C1=CC=C(C=C1)C(C2=CC=C(C=C2)Cl)C(=O)C3C(=O)C4=CC=CC=C4C3=O
CH$IUPAC: InChI=1S/C23H15ClO3/c24-16-12-10-15(11-13-16)19(14-6-2-1-3-7-14)23(27)20-21(25)17-8-4-5-9-18(17)22(20)26/h1-13,19-20H
CH$LINK: CAS 3691-35-8
CH$LINK: CHEBI CHEBI:81796
CH$LINK: KEGG C18514
CH$LINK: PUBCHEM CID:19402
CH$LINK: INCHIKEY UDHXJZHVNHGCEC-UHFFFAOYSA-N
CH$LINK: CHEMSPIDER 18286
AC$INSTRUMENT: Exploris 240 Orbitrap Thermo Scientific
AC$INSTRUMENT_TYPE: LC-ESI-QFT
AC$MASS_SPECTROMETRY: MS_TYPE MS2
AC$MASS_SPECTROMETRY: ION_MODE NEGATIVE
AC$MASS_SPECTROMETRY: IONIZATION ESI
AC$MASS_SPECTROMETRY: FRAGMENTATION_MODE HCD
AC$MASS_SPECTROMETRY: COLLISION_ENERGY 60 % (nominal)
AC$MASS_SPECTROMETRY: RESOLUTION 17500
AC$MASS_SPECTROMETRY: MASS_RANGE_M/Z 50-402
AC$CHROMATOGRAPHY: COLUMN_NAME XBridge C18 3.5um, 2.1x50mm, Waters
AC$CHROMATOGRAPHY: FLOW_GRADIENT 90/10 at 0 min, 50/50 at 4 min, 5/95 at 17 min, 5/95 at 25 min, 90/10 at 25.1 min, 90/10 at 30 min
AC$CHROMATOGRAPHY: FLOW_RATE 200 uL/min
AC$CHROMATOGRAPHY: RETENTION_TIME 14.469 min
MS$FOCUSED_ION: BASE_PEAK 373.0634
MS$FOCUSED_ION: PRECURSOR_M/Z 373.0637
MS$FOCUSED_ION: PRECURSOR_TYPE [M-H]-
MS$DATA_PROCESSING: RECALIBRATE loess on assigned fragments and MS1
MS$DATA_PROCESSING: REANALYZE Peaks with additional N2/O included
MS$DATA_PROCESSING: WHOLE RMassBank 3.11.0.1
PK$SPLASH: splash10-0udj-0940000000-f4e5139b719157ded0e6
PK$ANNOTATION: m/z tentative_formula formula_count mass error(ppm)
  92.0268 C6H4O- 1 92.0268 0.03
  116.0268 C8H4O- 1 116.0268 0.31
  144.0216 C9H4O2- 1 144.0217 -0.7
  145.0295 C9H5O2- 1 145.0295 0.16
  172.0163 C10H4O3- 1 172.0166 -1.45
  201.0478 C13H10Cl- 1 201.0477 0.89
PK$NUM_PEAK: 6
PK$PEAK: m/z int. rel.int.
  92.0268 57130.1 23
  116.0268 1164611.4 479
  144.0216 957706.6 394
  145.0295 2355601.5 970
  172.0163 127959.6 52
  201.0478 2425604.8 999
//
