ACCESSION: MSBNK-Eawag-EQ314001
RECORD_TITLE: Nystatin; LC-ESI-QFT; MS2; CE: 15; R=35000; [M+H]+
DATE: 2015.08.25
AUTHORS: Beck B, Stravs M, Schymanski E, Singer H, Department of Environmental Chemistry, Eawag
LICENSE: CC BY
COPYRIGHT: Copyright (C) 2015 Eawag, Duebendorf, Switzerland
COMMENT: CONFIDENCE standard compound
COMMENT: EAWAG_UCHEM_ID 3140
CH$NAME: Nystatin
CH$NAME: (1S,3R,4R,7R,9R,11R,15S,16R,17R,18S,19E,21E,25E,27E,29E,31E,33R,35S,36R,37S)-33-[(3-Amino-3,6-dideoxy-?-D-mannopyranosyl)oxy]-1,3,4,7,9,11,17,37-octahydroxy-15,16,18-trimethyl-13-oxo-14,39-dioxabic yclo[33.3.1]nonatriaconta-19,21,25,27,29,31-hexaene-36-carboxylic acid
CH$COMPOUND_CLASS: N/A; Environmental Standard
CH$FORMULA: C47H75NO17
CH$EXACT_MASS: 925.50350
CH$SMILES: CC1C=CC=CCCC=CC=CC=CC=CC(CC2C(C(CC(O2)(CC(C(CCC(CC(CC(CC(=O)OC(C(C1O)C)C)O)O)O)O)O)O)O)C(=O)O)OC3C(C(C(C(O3)C)O)N)O
CH$IUPAC: InChI=1S/C47H75NO17/c1-27-17-15-13-11-9-7-5-6-8-10-12-14-16-18-34(64-46-44(58)41(48)43(57)30(4)63-46)24-38-40(45(59)60)37(54)26-47(61,65-38)25-36(53)35(52)20-19-31(49)21-32(50)22-33(51)23-39(55)62-29(3)28(2)42(27)56/h5-6,8,10-18,27-38,40-44,46,49-54,56-58,61H,7,9,19-26,48H2,1-4H3,(H,59,60)/b6-5+,10-8+,13-11+,14-12+,17-15+,18-16+/t27-,28-,29-,30+,31+,32+,33+,34-,35+,36+,37-,38-,40+,41-,42+,43+,44-,46-,47+/m0/s1
CH$LINK: PUBCHEM CID:11286230
CH$LINK: INCHIKEY VQOXZBDYSJBXMA-NQTDYLQESA-N
CH$LINK: CHEMSPIDER 23078586
CH$LINK: COMPTOX DTXSID80872323
AC$INSTRUMENT: Q Exactive Orbitrap Thermo Scientific
AC$INSTRUMENT_TYPE: LC-ESI-QFT
AC$MASS_SPECTROMETRY: MS_TYPE MS2
AC$MASS_SPECTROMETRY: ION_MODE POSITIVE
AC$MASS_SPECTROMETRY: IONIZATION ESI
AC$MASS_SPECTROMETRY: FRAGMENTATION_MODE HCD
AC$MASS_SPECTROMETRY: COLLISION_ENERGY 15 (nominal)
AC$MASS_SPECTROMETRY: RESOLUTION 35000
AC$CHROMATOGRAPHY: COLUMN_NAME XBridge C18 3.5um, 2.1x50mm, Waters
AC$CHROMATOGRAPHY: FLOW_GRADIENT 90/10 at 0 min, 50/50 at 4 min, 5/95 at 17 min, 5/95 at 25 min, 90/10 at 25.1 min, 90/10 at 30 min
AC$CHROMATOGRAPHY: FLOW_RATE 200 ul/min
AC$CHROMATOGRAPHY: RETENTION_TIME 11.6 min
AC$CHROMATOGRAPHY: SOLVENT A water with 0.1% formic acid
AC$CHROMATOGRAPHY: SOLVENT B methanol with 0.1% formic acid
MS$FOCUSED_ION: BASE_PEAK 926.5109
MS$FOCUSED_ION: PRECURSOR_M/Z 926.5108
MS$FOCUSED_ION: PRECURSOR_TYPE [M+H]+
MS$DATA_PROCESSING: DEPROFILE Spline
MS$DATA_PROCESSING: RECALIBRATE loess on assigned fragments and MS1
MS$DATA_PROCESSING: REANALYZE Peaks with additional N2/O included
MS$DATA_PROCESSING: WHOLE RMassBank 1.9.6
PK$SPLASH: splash10-0597-0575119400-2b45937b28908c976e87
PK$ANNOTATION: m/z tentative_formula formula_count mass error(ppm)
  67.0542 C5H7+ 1 67.0542 -0.84
  69.0332 C4H5O+ 1 69.0335 -3.49
  69.0698 C5H9+ 1 69.0699 -1.54
  71.0124 C3H3O2+ 1 71.0128 -4.73
  71.049 C4H7O+ 1 71.0491 -1.28
  79.0541 C6H7+ 1 79.0542 -1.85
  81.0334 C5H5O+ 1 81.0335 -1.25
  81.0697 C6H9+ 1 81.0699 -1.56
  83.049 C5H7O+ 1 83.0491 -1.34
  83.0855 C6H11+ 1 83.0855 -0.8
  85.0284 C4H5O2+ 1 85.0284 -0.19
  85.0647 C5H9O+ 1 85.0648 -1.66
  91.054 C7H7+ 1 91.0542 -2.6
  93.0698 C7H9+ 1 93.0699 -1.15
  95.0126 C5H3O2+ 1 95.0128 -2.17
  95.049 C6H7O+ 1 95.0491 -2.01
  95.0855 C7H11+ 1 95.0855 -0.7
  97.0282 C5H5O2+ 1 97.0284 -2.12
  97.0646 C6H9O+ 1 97.0648 -2.38
  97.101 C7H13+ 1 97.1012 -1.72
  99.0439 C5H7O2+ 1 99.0441 -1.88
  105.0699 C8H9+ 1 105.0699 -0.16
  107.049 C7H7O+ 1 107.0491 -1.32
  107.0855 C8H11+ 1 107.0855 -0.25
  109.0647 C7H9O+ 1 109.0648 -1.2
  109.1011 C8H13+ 1 109.1012 -0.43
  110.1046 C3H14N2O2+ 1 110.105 -3.9
  111.0439 C6H7O2+ 1 111.0441 -1.31
  111.0803 C7H11O+ 1 111.0804 -1.54
  113.023 C5H5O3+ 1 113.0233 -3.01
  113.0595 C6H9O2+ 1 113.0597 -1.82
  113.096 C7H13O+ 1 113.0961 -1.07
  117.0697 C9H9+ 1 117.0699 -1.68
  119.0854 C9H11+ 1 119.0855 -0.81
  121.0647 C8H9O+ 1 121.0648 -0.92
  121.1011 C9H13+ 1 121.1012 -0.88
  123.0439 C7H7O2+ 1 123.0441 -1.67
  123.0802 C8H11O+ 1 123.0804 -1.72
  123.1167 C9H15+ 1 123.1168 -0.79
  125.0594 C7H9O2+ 1 125.0597 -2.69
  125.096 C8H13O+ 1 125.0961 -0.89
  127.0752 C7H11O2+ 1 127.0754 -1.39
  129.0544 C6H9O3+ 1 129.0546 -1.4
  129.0697 C10H9+ 1 129.0699 -1.21
  131.0855 C10H11+ 1 131.0855 -0.28
  133.0645 C9H9O+ 1 133.0648 -1.89
  133.1012 C10H13+ 1 133.1012 -0.05
  135.0803 C9H11O+ 1 135.0804 -0.82
  135.1167 C10H15+ 1 135.1168 -0.64
  136.12 C5H16N2O2+ 1 136.1206 -4.84
  137.0596 C8H9O2+ 1 137.0597 -0.48
  137.0959 C9H13O+ 1 137.0961 -1.32
  137.1324 C10H17+ 1 137.1325 -0.42
  139.0387 C7H7O3+ 1 139.039 -1.95
  139.0753 C8H11O2+ 1 139.0754 -0.4
  139.1115 C9H15O+ 1 139.1117 -1.52
  141.0545 C7H9O3+ 1 141.0546 -0.64
  141.0696 C11H9+ 1 141.0699 -1.68
  141.0907 C8H13O2+ 1 141.091 -2.45
  143.0855 C11H11+ 1 143.0855 0.02
  145.0647 C10H9O+ 1 145.0648 -0.91
  145.1012 C11H13+ 1 145.1012 0.02
  146.0815 C6H12NO3+ 1 146.0812 2.06
  147.0441 C9H7O2+ 1 147.0441 0.1
  147.0805 C10H11O+ 1 147.0804 0.33
  147.1168 C11H15+ 1 147.1168 -0.32
  148.1199 C6H16N2O2+ 1 148.1206 -4.86
  149.0596 C9H9O2+ 1 149.0597 -0.58
  149.0961 C10H13O+ 1 149.0961 0.39
  149.1325 C11H17+ 1 149.1325 0.09
  151.0754 C9H11O2+ 1 151.0754 0.29
  151.1117 C10H15O+ 1 151.1117 -0.01
  152.1148 C5H16N2O3+ 1 152.1155 -4.82
  153.0908 C9H13O2+ 1 153.091 -1.48
  153.1272 C10H17O+ 1 153.1274 -1.25
  155.0701 C8H11O3+ 1 155.0703 -1.16
  155.0855 C12H11+ 1 155.0855 -0.3
  157.0648 C11H9O+ 1 157.0648 0.06
  157.0859 C8H13O3+ 1 157.0859 0.06
  157.1011 C12H13+ 1 157.1012 -0.55
  159.065 C7H11O4+ 1 159.0652 -1.48
  159.0802 C11H11O+ 1 159.0804 -1.39
  159.1168 C12H15+ 1 159.1168 -0.42
  161.1324 C12H17+ 1 161.1325 -0.35
  162.1358 C7H18N2O2+ 1 162.1363 -3.14
  163.0753 C10H11O2+ 1 163.0754 -0.53
  163.1115 C11H15O+ 1 163.1117 -1.42
  163.1482 C12H19+ 1 163.1481 0.39
  165.0547 C9H9O3+ 1 165.0546 0.3
  165.0912 C10H13O2+ 1 165.091 1.36
  165.1271 C11H17O+ 1 165.1274 -1.64
  167.0702 C9H11O3+ 1 167.0703 -0.42
  167.0852 C13H11+ 1 167.0855 -2.14
  169.0858 C9H13O3+ 1 169.0859 -0.54
  169.1011 C13H13+ 1 169.1012 -0.57
  171.0797 C12H11O+ 1 171.0804 -4.22
  171.1166 C13H15+ 1 171.1168 -1.15
  173.0959 C12H13O+ 1 173.0961 -1.39
  173.1325 C13H17+ 1 173.1325 0.02
  175.0754 C11H11O2+ 1 175.0754 0.25
  175.1115 C12H15O+ 1 175.1117 -1.09
  175.1481 C13H19+ 1 175.1481 -0.1
  177.0907 C11H13O2+ 1 177.091 -1.5
  177.1273 C12H17O+ 1 177.1274 -0.35
  177.1633 C13H21+ 1 177.1638 -2.86
  179.0705 C10H11O3+ 1 179.0703 1.34
  179.085 C14H11+ 1 179.0855 -3.05
  179.1431 C12H19O+ 1 179.143 0.21
  181.0857 C10H13O3+ 1 181.0859 -0.94
  181.1011 C14H13+ 1 181.1012 -0.37
  183.0799 C13H11O+ 1 183.0804 -3.18
  183.1015 C10H15O3+ 1 183.1016 -0.55
  183.1167 C14H15+ 1 183.1168 -0.75
  184.1212 C9H16N2O2+ 1 184.1206 3.32
  185.0594 C12H9O2+ 1 185.0597 -1.87
  185.0808 C9H13O4+ 1 185.0808 -0.08
  185.0959 C13H13O+ 1 185.0961 -0.82
  185.1325 C14H17+ 1 185.1325 0.02
  187.0758 C12H11O2+ 1 187.0754 2.48
  187.111 C13H15O+ 1 187.1117 -3.75
  187.1481 C14H19+ 1 187.1481 -0.14
  189.0908 C12H13O2+ 1 189.091 -1.14
  189.1273 C13H17O+ 1 189.1274 -0.48
  189.1635 C14H21+ 1 189.1638 -1.68
  191.0701 C11H11O3+ 1 191.0703 -0.95
  191.1066 C12H15O2+ 1 191.1067 -0.19
  193.0861 C11H13O3+ 1 193.0859 1.03
  193.1008 C15H13+ 1 193.1012 -2.06
  195.0654 C10H11O4+ 1 195.0652 1.31
  195.1016 C11H15O3+ 1 195.1016 0.25
  195.1168 C15H15+ 1 195.1168 0.07
  197.0807 C10H13O4+ 1 197.0808 -0.59
  197.0954 C14H13O+ 1 197.0961 -3.61
  197.1326 C15H17+ 1 197.1325 0.42
  199.075 C13H11O2+ 1 199.0754 -1.74
  199.0965 C10H15O4+ 1 199.0965 0.12
  199.1109 C14H15O+ 1 199.1117 -4.03
  199.148 C15H19+ 1 199.1481 -0.74
  201.0907 C13H13O2+ 1 201.091 -1.37
  201.1272 C14H17O+ 1 201.1274 -1.1
  201.1637 C15H21+ 1 201.1638 -0.33
  203.1064 C13H15O2+ 1 203.1067 -1.36
  203.1429 C14H19O+ 1 203.143 -0.89
  203.1795 C15H23+ 1 203.1794 0.11
  205.0861 C12H13O3+ 1 205.0859 0.92
  205.1012 C16H13+ 1 205.1012 0.16
  207.0643 C11H11O4+ 1 207.0652 -4.23
  207.0799 C15H11O+ 1 207.0804 -2.76
  207.1017 C12H15O3+ 1 207.1016 0.72
  207.1169 C16H15+ 1 207.1168 0.3
  209.0809 C11H13O4+ 1 209.0808 0.45
  209.0959 C15H13O+ 1 209.0961 -0.92
  209.117 C12H17O3+ 1 209.1172 -1.01
  209.1325 C16H17+ 1 209.1325 0.16
  211.0752 C14H11O2+ 1 211.0754 -0.98
  211.0964 C11H15O4+ 1 211.0965 -0.64
  211.112 C15H15O+ 1 211.1117 0.99
  211.148 C16H19+ 1 211.1481 -0.51
  213.0912 C14H13O2+ 1 213.091 1.1
  213.1273 C15H17O+ 1 213.1274 -0.43
  213.1638 C16H21+ 1 213.1638 0.34
  215.0916 C10H15O5+ 1 215.0914 0.84
  215.1068 C14H15O2+ 1 215.1067 0.76
  215.1431 C15H19O+ 1 215.143 0.46
  215.1794 C16H23+ 1 215.1794 -0.03
  217.0864 C13H13O3+ 1 217.0859 1.98
  217.1221 C14H17O2+ 1 217.1223 -1.09
  217.1585 C15H21O+ 1 217.1587 -0.93
  219.1014 C13H15O3+ 1 219.1016 -0.73
  219.1172 C17H15+ 1 219.1168 1.47
  221.0798 C12H13O4+ 1 221.0808 -4.59
  221.0963 C16H13O+ 1 221.0961 0.85
  221.1326 C17H17+ 1 221.1325 0.65
  223.0964 C12H15O4+ 1 223.0965 -0.38
  223.1116 C16H15O+ 1 223.1117 -0.5
  223.1485 C17H19+ 1 223.1481 1.49
  224.1513 C12H20N2O2+ 1 224.1519 -2.85
  225.0908 C15H13O2+ 1 225.091 -0.83
  225.1121 C12H17O4+ 1 225.1121 -0.16
  225.1267 C16H17O+ 1 225.1274 -3.29
  225.1638 C17H21+ 1 225.1638 0.06
  226.1155 C7H18N2O6+ 1 226.1159 -1.89
  227.1065 C15H15O2+ 1 227.1067 -0.51
  227.1279 C12H19O4+ 1 227.1278 0.72
  227.1794 C17H23+ 1 227.1794 -0.08
  229.1227 C15H17O2+ 1 229.1223 1.81
  229.1584 C16H21O+ 1 229.1587 -1.14
  229.1949 C17H25+ 1 229.1951 -0.99
  231.1012 C14H15O3+ 1 231.1016 -1.47
  231.1743 C16H23O+ 1 231.1743 -0.35
  233.1172 C14H17O3+ 1 233.1172 -0.05
  233.1321 C18H17+ 1 233.1325 -1.66
  235.0965 C13H15O4+ 1 235.0965 -0.02
  235.1334 C14H19O3+ 1 235.1329 2.42
  235.1476 C18H19+ 1 235.1481 -2.24
  237.1119 C13H17O4+ 1 237.1121 -0.91
  237.1276 C17H17O+ 1 237.1274 0.79
  237.1637 C18H21+ 1 237.1638 -0.16
  239.1065 C16H15O2+ 1 239.1067 -0.49
  239.1434 C17H19O+ 1 239.143 1.41
  239.1794 C18H23+ 1 239.1794 -0.16
  241.0861 C15H13O3+ 1 241.0859 0.58
  241.1221 C16H17O2+ 1 241.1223 -0.73
  241.1587 C17H21O+ 1 241.1587 -0.09
  241.1952 C18H25+ 1 241.1951 0.43
  243.1016 C15H15O3+ 1 243.1016 0.2
  243.1745 C17H23O+ 1 243.1743 0.45
  245.1175 C15H17O3+ 1 245.1172 1.34
  245.1325 C19H17+ 1 245.1325 0.05
  247.0968 C14H15O4+ 1 247.0965 1.15
  247.1479 C19H19+ 1 247.1481 -0.84
  249.0914 C17H13O2+ 1 249.091 1.5
  249.1124 C14H17O4+ 1 249.1121 1.06
  249.1273 C18H17O+ 1 249.1274 -0.29
  249.1638 C19H21+ 1 249.1638 0.29
  251.1069 C17H15O2+ 1 251.1067 0.97
  251.1278 C14H19O4+ 1 251.1278 0.14
  251.1795 C19H23+ 1 251.1794 0.09
  253.1069 C13H17O5+ 1 253.1071 -0.55
  253.1219 C17H17O2+ 1 253.1223 -1.6
  253.1587 C18H21O+ 1 253.1587 -0.09
  253.195 C19H25+ 1 253.1951 -0.42
  255.1019 C16H15O3+ 1 255.1016 1.25
  255.1226 C13H19O5+ 1 255.1227 -0.51
  255.1741 C18H23O+ 1 255.1743 -0.99
  257.117 C16H17O3+ 1 257.1172 -0.74
  257.1539 C17H21O2+ 1 257.1536 1.18
  257.1899 C18H25O+ 1 257.19 -0.2
  259.0971 C15H15O4+ 1 259.0965 2.29
  259.1328 C16H19O3+ 1 259.1329 -0.35
  259.1478 C20H19+ 1 259.1481 -1.11
  261.1121 C15H17O4+ 1 261.1121 -0.29
  261.1636 C20H21+ 1 261.1638 -0.6
  263.1067 C18H15O2+ 1 263.1067 0.13
  263.1279 C15H19O4+ 1 263.1278 0.63
  263.1421 C19H19O+ 1 263.143 -3.43
  263.1789 C20H23+ 1 263.1794 -1.97
  265.1222 C18H17O2+ 1 265.1223 -0.48
  265.1585 C19H21O+ 1 265.1587 -0.8
  265.1954 C20H25+ 1 265.1951 1.18
  267.1014 C17H15O3+ 1 267.1016 -0.6
  267.1229 C14H19O5+ 1 267.1227 0.79
  267.1381 C18H19O2+ 1 267.138 0.39
  267.1744 C19H23O+ 1 267.1743 0.22
  267.2107 C20H27+ 1 267.2107 -0.18
  269.1167 C17H17O3+ 1 269.1172 -1.9
  269.1385 C14H21O5+ 1 269.1384 0.67
  269.1902 C19H25O+ 1 269.19 0.62
  271.1331 C17H19O3+ 1 271.1329 0.92
  271.1478 C21H19+ 1 271.1481 -1.06
  273.1484 C17H21O3+ 1 273.1485 -0.33
  273.1629 C21H21+ 1 273.1638 -3.28
  275.128 C16H19O4+ 1 275.1278 0.74
  275.1422 C20H19O+ 1 275.143 -3.17
  275.1793 C21H23+ 1 275.1794 -0.35
  277.1071 C15H17O5+ 1 277.1071 0.11
  277.1222 C19H17O2+ 1 277.1223 -0.46
  277.1585 C20H21O+ 1 277.1587 -0.69
  277.195 C21H25+ 1 277.1951 -0.24
  279.1228 C15H19O5+ 1 279.1227 0.43
  279.1381 C19H19O2+ 1 279.138 0.34
  280.1257 C22H16+ 1 280.1247 3.56
  281.117 C18H17O3+ 1 281.1172 -0.79
  281.1539 C19H21O2+ 1 281.1536 1.12
  281.1904 C20H25O+ 1 281.19 1.49
  283.1325 C18H19O3+ 1 283.1329 -1.49
  283.1694 C19H23O2+ 1 283.1693 0.58
  283.2057 C20H27O+ 1 283.2056 0.13
  285.112 C17H17O4+ 1 285.1121 -0.33
  285.1485 C18H21O3+ 1 285.1485 -0.11
  285.1634 C22H21+ 1 285.1638 -1.25
  286.1153 C12H18N2O6+ 1 286.1159 -2.19
  287.1282 C17H19O4+ 1 287.1278 1.48
  289.1072 C16H17O5+ 1 289.1071 0.48
  289.1438 C17H21O4+ 1 289.1434 1.12
  289.1585 C21H21O+ 1 289.1587 -0.56
  289.1953 C22H25+ 1 289.1951 0.87
  291.1383 C20H19O2+ 1 291.138 1.18
  291.1745 C21H23O+ 1 291.1743 0.65
  291.2105 C22H27+ 1 291.2107 -0.75
  293.1176 C19H17O3+ 1 293.1172 1.33
  293.1379 C16H21O5+ 1 293.1384 -1.43
  293.1538 C20H21O2+ 1 293.1536 0.49
  293.1897 C21H25O+ 1 293.19 -0.86
  293.2264 C22H29+ 1 293.2264 -0.03
  295.1174 C15H19O6+ 1 295.1176 -0.73
  295.1332 C19H19O3+ 1 295.1329 1.22
  295.1695 C20H23O2+ 1 295.1693 0.83
  295.206 C21H27O+ 1 295.2056 1.25
  297.1333 C15H21O6+ 1 297.1333 0.05
  298.1367 C10H22N2O8+ 1 298.1371 -1.16
  299.1285 C18H19O4+ 1 299.1278 2.29
  299.1791 C23H23+ 1 299.1794 -1.23
  301.1068 C17H17O5+ 1 301.1071 -0.76
  301.1428 C18H21O4+ 1 301.1434 -2.14
  301.1602 C22H21O+ 1 301.1587 4.88
  303.1226 C17H19O5+ 1 303.1227 -0.26
  303.1374 C21H19O2+ 1 303.138 -1.9
  303.1745 C22H23O+ 1 303.1743 0.49
  305.1378 C17H21O5+ 1 305.1384 -1.8
  305.1536 C21H21O2+ 1 305.1536 0.01
  305.1908 C22H25O+ 1 305.19 2.71
  305.2261 C23H29+ 1 305.2264 -0.81
  307.1334 C20H19O3+ 1 307.1329 1.82
  307.1691 C21H23O2+ 1 307.1693 -0.38
  307.2054 C22H27O+ 1 307.2056 -0.79
  309.1487 C20H21O3+ 1 309.1485 0.51
  309.1849 C21H25O2+ 1 309.1849 -0.09
  309.2213 C22H29O+ 1 309.2213 -0.01
  311.1269 C19H19O4+ 1 311.1278 -2.91
  311.1646 C20H23O3+ 1 311.1642 1.54
  311.2002 C21H27O2+ 1 311.2006 -1.21
  311.2372 C22H31O+ 1 311.2369 0.86
  313.1439 C19H21O4+ 1 313.1434 1.58
  313.1962 C24H25+ 1 313.1951 3.52
  317.1375 C18H21O5+ 1 317.1384 -2.52
  317.1906 C23H25O+ 1 317.19 1.89
  317.2262 C24H29+ 1 317.2264 -0.69
  319.1171 C17H19O6+ 1 319.1176 -1.49
  319.1329 C21H19O3+ 1 319.1329 0.25
  319.1697 C22H23O2+ 1 319.1693 1.36
  319.2418 C24H31+ 1 319.242 -0.87
  321.1332 C17H21O6+ 1 321.1333 -0.11
  323.128 C20H19O4+ 1 323.1278 0.69
  323.1645 C21H23O3+ 1 323.1642 0.93
  323.2006 C22H27O2+ 1 323.2006 0.17
  325.1434 C20H21O4+ 1 325.1434 -0.2
  327.1589 C20H23O4+ 1 327.1591 -0.48
  327.1755 C24H23O+ 1 327.1743 3.66
  329.1381 C19H21O5+ 1 329.1384 -0.88
  329.227 C25H29+ 1 329.2264 1.77
  331.1168 C18H19O6+ 1 331.1176 -2.43
  333.1859 C23H25O2+ 1 333.1849 2.92
  333.2209 C24H29O+ 1 333.2213 -1.21
  335.1644 C22H23O3+ 1 335.1642 0.65
  335.237 C24H31O+ 1 335.2369 0.05
  337.1276 C17H21O7+ 1 337.1282 -1.69
  337.144 C21H21O4+ 1 337.1434 1.7
  337.1792 C22H25O3+ 1 337.1798 -1.78
  337.2523 C24H33O+ 1 337.2526 -0.98
  339.1437 C17H23O7+ 1 339.1438 -0.32
  341.1374 C20H21O5+ 1 341.1384 -2.81
  341.1744 C21H25O4+ 1 341.1747 -0.95
  341.2259 C26H29+ 1 341.2264 -1.4
  343.1691 C24H23O2+ 1 343.1693 -0.54
  343.2062 C25H27O+ 1 343.2056 1.68
  343.2412 C26H31+ 1 343.242 -2.53
  345.1513 C26H19N+ 1 345.1512 0.43
  345.1856 C24H25O2+ 1 345.1849 1.92
  345.2199 C25H29O+ 1 345.2213 -4.12
  347.1658 C23H23O3+ 2 347.1642 4.69
  347.2002 C24H27O2+ 1 347.2006 -1
  349.1277 C18H21O7+ 1 349.1282 -1.49
  349.18 C23H25O3+ 1 349.1798 0.37
  349.2154 C24H29O2+ 1 349.2162 -2.42
  350.1325 C13H22N2O9+ 1 350.132 1.45
  351.1602 C22H23O4+ 2 351.1591 3.09
  353.1747 C22H25O4+ 1 353.1747 -0.19
  353.2473 C24H33O2+ 1 353.2475 -0.67
  355.2426 C27H31+ 1 355.242 1.58
  357.1332 C20H21O6+ 1 357.1333 -0.27
  359.1671 C27H21N+ 1 359.1669 0.55
  359.2004 C25H27O2+ 1 359.2006 -0.38
  359.2366 C26H31O+ 1 359.2369 -0.95
  361.1809 C24H25O3+ 2 361.1798 3.04
  361.2169 C25H29O2+ 1 361.2162 1.81
  361.2526 C26H33O+ 1 361.2526 -0.01
  363.1601 C23H23O4+ 2 363.1591 2.9
  363.1959 C24H27O3+ 1 363.1955 1.32
  365.175 C23H25O4+ 1 365.1747 0.59
  367.138 C18H23O8+ 1 367.1387 -2.03
  369.2222 C27H29O+ 1 369.2213 2.59
  371.2009 C26H27O2+ 1 371.2006 0.79
  373.1791 C25H25O3+ 1 373.1798 -1.88
  373.2163 C26H29O2+ 1 373.2162 0.28
  375.1955 C25H27O3+ 1 375.1955 -0.03
  375.2322 C26H31O2+ 1 375.2319 0.81
  377.2474 C26H33O2+ 1 377.2475 -0.28
  379.1544 C23H23O5+ 1 379.154 0.95
  379.19 C24H27O4+ 1 379.1904 -0.91
  379.2623 C26H35O2+ 1 379.2632 -2.36
  381.1689 C23H25O5+ 1 381.1697 -1.86
  385.2544 C28H33O+ 1 385.2526 4.59
  387.1959 C26H27O3+ 1 387.1955 1.13
  387.232 C27H31O2+ 1 387.2319 0.37
  389.247 C27H33O2+ 1 389.2475 -1.33
  391.154 C24H23O5+ 1 391.154 0.1
  391.1919 C25H27O4+ 2 391.1904 3.77
  393.2074 C25H29O4+ 2 393.206 3.49
  393.2414 C26H33O3+ 1 393.2424 -2.57
  397.1639 C23H25O6+ 1 397.1646 -1.72
  397.2187 C16H33N2O9+ 1 397.2181 1.64
  397.2538 C29H33O+ 1 397.2526 2.94
  399.2317 C28H31O2+ 1 399.2319 -0.29
  399.2678 C29H35O+ 1 399.2682 -1.16
  401.2138 C30H27N+ 1 401.2138 -0.05
  401.2482 C28H33O2+ 1 401.2475 1.7
  403.2258 C27H31O3+ 1 403.2268 -2.38
  403.2631 C28H35O2+ 1 403.2632 -0.19
  405.1681 C25H25O5+ 1 405.1697 -3.9
  405.2421 C27H33O3+ 1 405.2424 -0.92
  413.2108 C28H29O3+ 1 413.2111 -0.7
  413.2464 C29H33O2+ 1 413.2475 -2.56
  415.2255 C28H31O3+ 1 415.2268 -3.13
  423.1789 C25H27O6+ 1 423.1802 -3.01
  425.2478 C30H33O2+ 1 425.2475 0.74
  427.2632 C30H35O2+ 1 427.2632 0.01
  429.1894 C24H29O7+ 1 429.1908 -3.17
  429.2789 C30H37O2+ 1 429.2788 0.24
  431.2212 C28H31O4+ 1 431.2217 -1.13
  431.258 C29H35O3+ 1 431.2581 -0.1
  439.2627 C31H35O2+ 1 439.2632 -0.99
  441.2422 C30H33O3+ 1 441.2424 -0.48
  443.2567 C30H35O3+ 1 443.2581 -3.09
  445.1849 C24H29O8+ 1 445.1857 -1.81
  445.2734 C30H37O3+ 1 445.2737 -0.77
  453.2767 C32H37O2+ 1 453.2788 -4.54
  455.2565 C31H35O3+ 1 455.2581 -3.43
  455.2931 C32H39O2+ 1 455.2945 -3.05
  459.2535 C30H35O4+ 2 459.253 1.05
  471.2536 C31H35O4+ 2 471.253 1.32
  475.2116 C29H31O6+ 1 475.2115 0.2
  475.2838 C31H39O4+ 1 475.2843 -1.09
  477.2291 C32H31NO3+ 2 477.2298 -1.52
  477.2632 C30H37O5+ 1 477.2636 -0.73
  481.2731 C33H37O3+ 1 481.2737 -1.25
  483.2535 C32H35O4+ 2 483.253 1.08
  483.2883 C33H39O3+ 1 483.2894 -2.11
  485.2678 C32H37O4+ 1 485.2686 -1.7
  493.2208 C29H33O7+ 1 493.2221 -2.64
  499.2857 C33H39O4+ 2 499.2843 2.83
  501.2996 C33H41O4+ 1 501.2999 -0.69
  507.2872 C20H45NO13+ 2 507.2885 -2.63
  509.3039 C35H41O3+ 1 509.305 -2.18
  515.2437 C32H35O6+ 2 515.2428 1.64
  517.2938 C33H41O5+ 1 517.2949 -1.97
  525.2994 C35H41O4+ 1 525.2999 -1.12
  527.3166 C35H43O4+ 2 527.3156 1.92
  535.2812 C21H45NO14+ 1 535.2835 -4.29
  537.2995 C21H47NO14+ 2 537.2991 0.66
  543.3106 C35H43O5+ 2 543.3105 0.15
  553.295 C36H41O5+ 3 553.2949 0.34
  555.3125 C39H41NO2+ 2 555.3132 -1.23
  571.3057 C36H43O6+ 2 571.3054 0.45
  581.2867 C22H47NO16+ 2 581.2889 -3.92
  589.3154 C36H45O7+ 1 589.316 -1.05
  601.3294 C26H51NO14+ 2 601.3304 -1.61
  611.335 C24H53NO16+ 2 611.3359 -1.48
  627.3671 C40H51O6+ 1 627.368 -1.41
  629.3853 C43H51NO3+ 2 629.3863 -1.6
  673.3732 C41H53O8+ 2 673.3735 -0.48
  674.3764 C33H56NO13+ 1 674.3746 2.72
  691.3838 C41H55O9+ 2 691.3841 -0.32
PK$NUM_PEAK: 478
PK$PEAK: m/z int. rel.int.
  67.0542 134946.2 9
  69.0332 33286.3 2
  69.0698 95766.1 6
  71.0124 28130.1 1
  71.049 293548 19
  79.0541 167547 11
  81.0334 227640.3 15
  81.0697 211542.1 14
  83.049 48429.3 3
  83.0855 31460 2
  85.0284 42313.7 2
  85.0647 110505.1 7
  91.054 253733 17
  93.0698 430791.2 29
  95.0126 35831.5 2
  95.049 224993.6 15
  95.0855 343905.5 23
  97.0282 53402.1 3
  97.0646 133305.7 9
  97.101 164623.6 11
  99.0439 134505.7 9
  105.0699 336304.9 22
  107.049 49082.6 3
  107.0855 744642 50
  109.0647 97578.7 6
  109.1011 1212312.7 82
  110.1046 34771.3 2
  111.0439 37883 2
  111.0803 261946.4 17
  113.023 28807.2 1
  113.0595 126848.6 8
  113.096 464964.6 31
  117.0697 346697.5 23
  119.0854 528118.3 35
  121.0647 146396.2 9
  121.1011 708424.6 48
  123.0439 145755.9 9
  123.0802 255198.1 17
  123.1167 556828.6 37
  125.0594 93961 6
  125.096 1613128 109
  127.0752 40756 2
  129.0544 110393.7 7
  129.0697 203539.7 13
  131.0855 479151.4 32
  133.0645 160205.9 10
  133.1012 464956.8 31
  135.0803 228583.2 15
  135.1167 1149460 78
  136.12 27725.1 1
  137.0596 46642.7 3
  137.0959 150084.1 10
  137.1324 94602.1 6
  139.0387 119315.1 8
  139.0753 207713.5 14
  139.1115 191294.4 12
  141.0545 193437.5 13
  141.0696 86047.2 5
  141.0907 43766 2
  143.0855 216973.2 14
  145.0647 90978.2 6
  145.1012 474769.4 32
  146.0815 26086.5 1
  147.0441 32798.3 2
  147.0805 104803.3 7
  147.1168 429706.9 29
  148.1199 32698.6 2
  149.0596 35892.5 2
  149.0961 157300.5 10
  149.1325 166390.8 11
  151.0754 236253.5 16
  151.1117 1537160 104
  152.1148 44031 2
  153.0908 196527.6 13
  153.1272 42229.6 2
  155.0701 208351.8 14
  155.0855 226993.5 15
  157.0648 33869.5 2
  157.0859 49377.1 3
  157.1011 308142.6 20
  159.065 109807.5 7
  159.0802 90981.2 6
  159.1168 511529.3 34
  161.1324 1085697.5 73
  162.1358 28850.9 1
  163.0753 246811.5 16
  163.1115 111228.1 7
  163.1482 85585.4 5
  165.0547 29113.6 1
  165.0912 170022.7 11
  165.1271 27978.4 1
  167.0702 483689.9 32
  167.0852 114950.5 7
  169.0858 212692.7 14
  169.1011 272022.7 18
  171.0797 35794.8 2
  171.1166 372276.3 25
  173.0959 143662.1 9
  173.1325 551726.7 37
  175.0754 196232.4 13
  175.1115 53193.8 3
  175.1481 415472.9 28
  177.0907 109254.8 7
  177.1273 141116.8 9
  177.1633 20875.7 1
  179.0705 243957.9 16
  179.085 64323.7 4
  179.1431 286918.6 19
  181.0857 550022.1 37
  181.1011 169207.3 11
  183.0799 33922 2
  183.1015 42111.7 2
  183.1167 250647.9 17
  184.1212 27016.7 1
  185.0594 25840.6 1
  185.0808 155830.5 10
  185.0959 87300.1 5
  185.1325 492644.6 33
  187.0758 87057.2 5
  187.111 43745.4 2
  187.1481 381576 25
  189.0908 195954.7 13
  189.1273 41092.3 2
  189.1635 154181.2 10
  191.0701 92985 6
  191.1066 207763.6 14
  193.0861 297156.4 20
  193.1008 37921.2 2
  195.0654 45445.6 3
  195.1016 117232.3 7
  195.1168 251567.2 17
  197.0807 680730.5 46
  197.0954 58581.6 3
  197.1326 327347.4 22
  199.075 79283.6 5
  199.0965 714347 48
  199.1109 157906.8 10
  199.148 622962.6 42
  201.0907 201445.7 13
  201.1272 89693.2 6
  201.1637 495709.9 33
  203.1064 46626.7 3
  203.1429 130491.7 8
  203.1795 121018.5 8
  205.0861 111273.7 7
  205.1012 28014.5 1
  207.0643 29074.7 1
  207.0799 21533.9 1
  207.1017 365541.7 24
  207.1169 166724.4 11
  209.0809 231288.9 15
  209.0959 35645.6 2
  209.117 40057 2
  209.1325 208800.5 14
  211.0752 28311.8 1
  211.0964 296680.1 20
  211.112 38095.6 2
  211.148 312714.1 21
  213.0912 91445 6
  213.1273 141721.6 9
  213.1638 639174.5 43
  215.0916 438598.6 29
  215.1068 188643.6 12
  215.1431 100929.3 6
  215.1794 335493.3 22
  217.0864 185216 12
  217.1221 43924.7 2
  217.1585 310003.8 21
  219.1014 162979.4 11
  219.1172 109436.5 7
  221.0798 19985.8 1
  221.0963 30699.8 2
  221.1326 192473.4 13
  223.0964 30797.1 2
  223.1116 109472.7 7
  223.1485 203671.8 13
  224.1513 24491.9 1
  225.0908 49127.9 3
  225.1121 855200.6 58
  225.1267 90319.8 6
  225.1638 403134.3 27
  226.1155 53406.3 3
  227.1065 81154.6 5
  227.1279 123432.6 8
  227.1794 414020.6 28
  229.1071 560215.72 38
  229.1227 38039.4 2
  229.1584 98855.4 6
  229.1949 61742.8 4
  231.1012 138186.1 9
  231.1743 335630.3 22
  233.1172 216700.5 14
  233.1321 123259.4 8
  235.0965 238853.3 16
  235.1334 23272.6 1
  235.1476 171776.1 11
  237.1119 151317.7 10
  237.1276 106501 7
  237.1637 285811.8 19
  239.1065 28206.2 1
  239.1434 39535.7 2
  239.1794 414349.1 28
  241.0861 28321.5 1
  241.1221 107404 7
  241.1587 106815.1 7
  241.1952 341327.7 23
  243.1016 186047.1 12
  243.1745 192083 13
  245.1175 108053 7
  245.1325 36984.3 2
  247.0968 43194.6 2
  247.1479 106497.3 7
  249.0914 27983.3 1
  249.1124 125059.4 8
  249.1273 98209 6
  249.1638 180667.4 12
  251.1069 42465.3 2
  251.1278 373158.5 25
  251.1795 295091.9 20
  253.1069 515736.8 35
  253.1219 101688 6
  253.1587 33072.2 2
  253.195 243823.1 16
  255.1019 49058.7 3
  255.1226 306770.2 20
  255.1741 118412.4 8
  257.117 102746.7 6
  257.1539 23873.2 1
  257.1899 205755.1 13
  259.0971 23569.1 1
  259.1328 60645.5 4
  259.1478 30582.5 2
  261.1121 362294.8 24
  261.1636 118563.8 8
  263.1067 27606 1
  263.1279 115596.2 7
  263.1421 47271.7 3
  263.1789 189222.7 12
  265.1222 90924.1 6
  265.1585 89160.1 6
  265.1954 281901.9 19
  267.1014 108027.8 7
  267.1229 237762.6 16
  267.1381 137386.6 9
  267.1744 136679.5 9
  267.2107 272573.2 18
  269.1167 109762.8 7
  269.1385 1385078.5 94
  269.1902 308732.5 20
  271.1331 92187.5 6
  271.1478 29680.6 2
  273.1484 73443 4
  273.1629 64054.5 4
  275.128 184571.2 12
  275.1422 57409.3 3
  275.1793 97671.1 6
  277.1071 117055.8 7
  277.1222 86378.3 5
  277.1585 33561.4 2
  277.195 88710.6 6
  279.1228 2578513.3 175
  279.1381 146533 9
  280.1257 172355.1 11
  281.117 74376.9 5
  281.1539 134891.2 9
  281.1904 111596.6 7
  283.1325 99054 6
  283.1694 43888.3 2
  283.2057 243193.5 16
  285.112 248753.7 16
  285.1485 38416.9 2
  285.1634 38890.5 2
  286.1153 36261.5 2
  287.1282 113973.9 7
  289.1072 44482.7 3
  289.1438 115838.8 7
  289.1585 45033 3
  289.1953 115653 7
  291.1383 93009.4 6
  291.1745 47180.8 3
  291.2105 297100.8 20
  293.1176 42107.1 2
  293.1379 77625.9 5
  293.1538 115357.7 7
  293.1897 47566.5 3
  293.2264 160669.6 10
  295.1174 149643.9 10
  295.1332 94423.3 6
  295.1695 27096.3 1
  295.206 50341.3 3
  297.1333 11378421 773
  298.1367 651769.6 44
  299.1285 36402.7 2
  299.1791 42929.5 2
  301.1068 82743.2 5
  301.1428 84175.1 5
  301.1602 91996.4 6
  303.1226 816622.6 55
  303.1374 73103 4
  303.1745 51315.2 3
  305.1378 110192.8 7
  305.1536 129909.6 8
  305.1908 45773.9 3
  305.2261 43050.2 2
  307.1334 42104.3 2
  307.1691 86928.8 5
  307.2054 84286.7 5
  309.1487 138276.6 9
  309.1849 94581.7 6
  309.2213 253931.2 17
  311.1269 38717.6 2
  311.1646 94268.7 6
  311.2002 31659.9 2
  311.2372 104083.2 7
  313.1439 95169.4 6
  313.1962 42664.4 2
  315.1438 3902767.086 265
  317.1375 105853.5 7
  317.1906 43695 2
  317.2262 216251.1 14
  319.1171 379792.3 25
  319.1329 39863.1 2
  319.1697 104138.7 7
  319.2418 40241.7 2
  321.1332 3969187.4 269
  323.128 29757.7 2
  323.1645 75580.6 5
  323.2006 26267.9 1
  325.1434 50265 3
  327.1589 106208 7
  327.1755 27945.8 1
  329.1381 124187.6 8
  329.227 43806.6 2
  331.1168 419699.3 28
  333.1859 62656 4
  333.2209 114818.5 7
  335.1644 112447.6 7
  335.237 775942.4 52
  337.1276 633238.3 43
  337.144 63685.8 4
  337.1792 61727.8 4
  337.2523 144866.8 9
  339.1437 5621509.3 381
  341.1374 39643.8 2
  341.1744 79492.7 5
  341.2259 44520.2 3
  343.1691 96877.9 6
  343.2062 49100.5 3
  343.2412 32035.8 2
  345.1513 35124.7 2
  345.1856 52056.6 3
  345.2199 26743.7 1
  347.1658 32079.3 2
  347.2002 80807.5 5
  349.1277 608713.8 41
  349.18 112841 7
  349.2154 44231.1 3
  350.1325 41896.6 2
  351.1602 37434.9 2
  353.1747 137111.6 9
  353.2473 2096479 142
  355.1381 1108563.459 75
  355.2426 66846.7 4
  357.1332 101885.5 6
  359.1671 33376 2
  359.2004 103292.9 7
  359.2366 254066.5 17
  361.1809 48581.2 3
  361.2169 93174.3 6
  361.2526 124919.2 8
  363.1601 53390.5 3
  363.1959 34178 2
  365.175 111294.1 7
  367.138 839232.4 57
  369.2222 102074.5 6
  371.2009 84090.7 5
  373.1791 93081.1 6
  373.2163 84482.3 5
  375.1955 45802.6 3
  375.2322 44038.7 2
  377.2474 1513278.6 102
  379.1544 37823.6 2
  379.19 100924 6
  379.2623 168432.2 11
  381.1689 112275.6 7
  385.2544 31599.6 2
  387.1959 99500.5 6
  387.232 300342 20
  389.247 32544.2 2
  391.154 36119.3 2
  391.1919 40133.2 2
  393.2074 38415.9 2
  393.2414 94828.4 6
  395.2578 1027960.848 69
  397.1639 166571.5 11
  397.2187 27067.8 1
  397.2538 33848.3 2
  399.2317 87666.8 5
  399.2678 47637.9 3
  401.2138 29992.2 2
  401.2482 179784.9 12
  403.2258 38441.5 2
  403.2631 142359.8 9
  405.1681 73905.4 5
  405.2421 646248.5 43
  413.2108 26771.8 1
  413.2464 78446.2 5
  415.2255 48864.9 3
  423.1789 94168.3 6
  425.2478 115085 7
  427.2632 133135.8 9
  429.1894 438816.7 29
  429.2789 27392.5 1
  431.2212 41344.2 2
  431.258 86352.6 5
  433.1859 581897.2238 39
  439.2627 53372.7 3
  441.2422 139765.2 9
  443.2567 265504.8 18
  445.1849 483344.3 32
  445.2734 314257.6 21
  453.2767 29876.8 2
  455.2565 38360.6 2
  455.2931 87647 5
  459.2535 179600.6 12
  463.2839 580312.0405 39
  471.2536 38234.2 2
  475.2116 104595.2 7
  475.2838 253086.3 17
  477.2291 40840.5 2
  477.2632 184491.9 12
  481.2731 121593 8
  483.2535 26458.3 1
  483.2883 112956.2 7
  485.2678 83430.8 5
  493.2208 196734 13
  499.2857 251834.8 17
  501.2996 288012.1 19
  507.2872 313527.8 21
  509.3039 50407.5 3
  515.2437 131806.1 8
  517.2938 185777.1 12
  525.2994 365730.5 24
  527.3166 148873.8 10
  535.2812 226786.4 15
  537.2995 39301.8 2
  543.3106 495096.9 33
  553.295 541715.5 36
  555.3125 36504.6 2
  571.3057 916517.1 62
  581.2867 291348.8 19
  589.3154 956929.8 65
  593.3232 302700.8062 20
  599.2995 504559.1266 34
  601.3294 339060 23
  607.3264 851940.1638 57
  609.358 457505.0556 31
  611.335 815077.2 55
  611.3754 350082.3997 23
  617.3107 693810.9571 47
  619.3415 855908.593 58
  627.3671 488072.7 33
  629.3853 640762.4 43
  637.3522 2416347.877 164
  647.3559 1011159.894 68
  655.3629 6453819.674 438
  673.3732 13289425.1 902
  674.3764 2583755.8 175
  691.3838 14704370 999
  692.3873 2722320.969 184
  709.3944 8757818.728 594
  710.3975 1666606.32 113
  727.4051 8332937.09 566
  728.4087 1774008.48 120
  745.4155 2072103.603 140
  890.4901 523050.2722 35
  908.5004 2677111.917 181
  909.5051 639269.9728 43
//
