ACCESSION: MSBNK-Eawag-EA066708
RECORD_TITLE: Simeton; LC-ESI-ITFT; MS2; CE: 15%; R=15000; [M+H]+
DATE: 2014.01.14
AUTHORS: Stravs M, Schymanski E, Singer H, Department of Environmental Chemistry, Eawag
LICENSE: CC BY
COPYRIGHT: Copyright (C) 2012 Eawag, Duebendorf, Switzerland
COMMENT: CONFIDENCE standard compound
COMMENT: EAWAG_UCHEM_ID 667
CH$NAME: Simeton
CH$NAME: 2-N,4-N-diethyl-6-methoxy-1,3,5-triazine-2,4-diamine
CH$COMPOUND_CLASS: N/A; Environmental Standard
CH$FORMULA: C8H15N5O
CH$EXACT_MASS: 197.1271
CH$SMILES: c1(nc(nc(n1)OC)NCC)NCC
CH$IUPAC: InChI=1S/C8H15N5O/c1-4-9-6-11-7(10-5-2)13-8(12-6)14-3/h4-5H2,1-3H3,(H2,9,10,11,12,13)
CH$LINK: CAS 673-04-1
CH$LINK: CHEBI CHEBI:30264
CH$LINK: PUBCHEM CID:12654
CH$LINK: INCHIKEY HKAMKLBXTLTVCN-UHFFFAOYSA-N
CH$LINK: CHEMSPIDER 12133
CH$LINK: COMPTOX DTXSID9042388
AC$INSTRUMENT: LTQ Orbitrap XL Thermo Scientific
AC$INSTRUMENT_TYPE: LC-ESI-ITFT
AC$MASS_SPECTROMETRY: MS_TYPE MS2
AC$MASS_SPECTROMETRY: ION_MODE POSITIVE
AC$MASS_SPECTROMETRY: IONIZATION ESI
AC$MASS_SPECTROMETRY: FRAGMENTATION_MODE HCD
AC$MASS_SPECTROMETRY: COLLISION_ENERGY 15 % (nominal)
AC$MASS_SPECTROMETRY: RESOLUTION 15000
AC$CHROMATOGRAPHY: COLUMN_NAME XBridge C18 3.5um, 2.1x50mm, Waters
AC$CHROMATOGRAPHY: FLOW_GRADIENT 90/10 at 0 min, 50/50 at 4 min, 5/95 at 17 min, 5/95 at 25 min, 90/10 at 25.1 min, 90/10 at 30 min
AC$CHROMATOGRAPHY: FLOW_RATE 200 ul/min
AC$CHROMATOGRAPHY: RETENTION_TIME 4.9 min
AC$CHROMATOGRAPHY: SOLVENT A water with 0.1% formic acid
AC$CHROMATOGRAPHY: SOLVENT B methanol with 0.1% formic acid
MS$FOCUSED_ION: BASE_PEAK 198.1352
MS$FOCUSED_ION: PRECURSOR_M/Z 198.1349
MS$FOCUSED_ION: PRECURSOR_TYPE [M+H]+
MS$DATA_PROCESSING: DEPROFILE Spline
MS$DATA_PROCESSING: RECALIBRATE loess on assigned fragments and MS1
MS$DATA_PROCESSING: REANALYZE Peaks with additional N2/O included
MS$DATA_PROCESSING: WHOLE RMassBank 1.3.1
PK$SPLASH: splash10-0002-0900000000-d0e5d58d00680cb42f29
PK$ANNOTATION: m/z tentative_formula formula_count mass error(ppm)
  183.1115 C7H13N5O+ 1 183.1115 0.27
  198.135 C8H16N5O+ 1 198.1349 0.22
PK$NUM_PEAK: 2
PK$PEAK: m/z int. rel.int.
  183.1115 23742.4 1
  198.135 12727376.9 999
//
