ACCESSION: MSBNK-Eawag-EQ362451
RECORD_TITLE: Phenobarbital; LC-ESI-QFT; MS2; CE: 15; R=35000; [M-H]-
DATE: 2015.08.26
AUTHORS: Stravs M, Schymanski E, Singer H, Department of Environmental Chemistry, Eawag and Thomaidis N, University of Athens
LICENSE: CC BY
COPYRIGHT: Copyright (C) 2015 Eawag, Duebendorf, Switzerland
COMMENT: CONFIDENCE standard compound
COMMENT: EAWAG_UCHEM_ID 3624
CH$NAME: Phenobarbital
CH$NAME: 5-ethyl-5-phenyl-1,3-diazinane-2,4,6-trione
CH$COMPOUND_CLASS: N/A; Environmental Standard
CH$FORMULA: C12H12N2O3
CH$EXACT_MASS: 232.08479
CH$SMILES: CCC1(C(=O)NC(=O)NC1=O)C2=CC=CC=C2
CH$IUPAC: InChI=1S/C12H12N2O3/c1-2-12(8-6-4-3-5-7-8)9(15)13-11(17)14-10(12)16/h3-7H,2H2,1H3,(H2,13,14,15,16,17)
CH$LINK: CAS 11097-06-6
CH$LINK: CHEBI CHEBI:8069
CH$LINK: KEGG C07434
CH$LINK: PUBCHEM CID:4763
CH$LINK: INCHIKEY DDBREPKUVSBGFI-UHFFFAOYSA-N
CH$LINK: CHEMSPIDER 4599
CH$LINK: COMPTOX DTXSID5021122
AC$INSTRUMENT: Q Exactive Plus Orbitrap Thermo Scientific
AC$INSTRUMENT_TYPE: LC-ESI-QFT
AC$MASS_SPECTROMETRY: MS_TYPE MS2
AC$MASS_SPECTROMETRY: ION_MODE NEGATIVE
AC$MASS_SPECTROMETRY: IONIZATION ESI
AC$MASS_SPECTROMETRY: FRAGMENTATION_MODE HCD
AC$MASS_SPECTROMETRY: COLLISION_ENERGY 15 (nominal)
AC$MASS_SPECTROMETRY: RESOLUTION 35000
AC$CHROMATOGRAPHY: COLUMN_NAME XBridge C18 3.5um, 2.1x50mm, Waters
AC$CHROMATOGRAPHY: FLOW_GRADIENT 90/10 at 0 min, 50/50 at 4 min, 5/95 at 17 min, 5/95 at 25 min, 90/10 at 25.1 min, 90/10 at 30 min
AC$CHROMATOGRAPHY: FLOW_RATE 200 ul/min
AC$CHROMATOGRAPHY: RETENTION_TIME 6.0 min
AC$CHROMATOGRAPHY: SOLVENT A water with 0.1% formic acid
AC$CHROMATOGRAPHY: SOLVENT B methanol with 0.1% formic acid
MS$FOCUSED_ION: BASE_PEAK 231.0771
MS$FOCUSED_ION: PRECURSOR_M/Z 231.0775
MS$FOCUSED_ION: PRECURSOR_TYPE [M-H]-
MS$DATA_PROCESSING: RECALIBRATE loess on assigned fragments and MS1
MS$DATA_PROCESSING: REANALYZE Peaks with additional N2/O included
MS$DATA_PROCESSING: WHOLE RMassBank 1.9.6
PK$SPLASH: splash10-001i-0190000000-8cf53cd66a890256ea98
PK$ANNOTATION: m/z tentative_formula formula_count mass error(ppm)
  85.0043 C2HN2O2- 1 85.0044 -0.83
  144.0818 C10H10N- 1 144.0819 -0.64
  188.0717 C11H10NO2- 1 188.0717 -0.22
  231.0774 C12H11N2O3- 1 231.0775 -0.37
PK$NUM_PEAK: 4
PK$PEAK: m/z int. rel.int.
  85.0043 843649.8 35
  144.0818 103978.6 4
  188.0717 3003072.5 125
  231.0774 23868300 999
//
