ACCESSION: MSBNK-Eawag-EQ01142507
RECORD_TITLE: Pyrithione; LC-ESI-QFT; MS2; CE: 120%; R=17500; [M+H]+
DATE: 2023.08.10
AUTHORS: B. Beck [dtc,com], J. Hollender [dtc]
LICENSE: CC BY-SA
COPYRIGHT: Copyright (C) Eawag 2023
COMMENT: CONFIDENCE standard compound
COMMENT: UCHEM_ID 11425
CH$NAME: Pyrithione
CH$NAME: 1-hydroxypyridine-2-thione
CH$COMPOUND_CLASS: N/A; Environmental Standard
CH$FORMULA: C5H5NOS
CH$EXACT_MASS: 127.0092
CH$SMILES: C1=CC(=S)N(C=C1)O
CH$IUPAC: InChI=1S/C5H5NOS/c7-6-4-2-1-3-5(6)8/h1-4,7H
CH$LINK: CAS 1121-30-8
CH$LINK: CHEBI CHEBI:36578
CH$LINK: PUBCHEM CID:1570
CH$LINK: INCHIKEY YBBJKCMMCRQZMA-UHFFFAOYSA-N
CH$LINK: CHEMSPIDER 1514
AC$INSTRUMENT: Exploris 240 Orbitrap Thermo Scientific
AC$INSTRUMENT_TYPE: LC-ESI-QFT
AC$MASS_SPECTROMETRY: MS_TYPE MS2
AC$MASS_SPECTROMETRY: ION_MODE POSITIVE
AC$MASS_SPECTROMETRY: IONIZATION ESI
AC$MASS_SPECTROMETRY: FRAGMENTATION_MODE HCD
AC$MASS_SPECTROMETRY: COLLISION_ENERGY 120 % (nominal)
AC$MASS_SPECTROMETRY: RESOLUTION 17500
AC$MASS_SPECTROMETRY: MASS_RANGE_M/Z 40-152
AC$CHROMATOGRAPHY: COLUMN_NAME XBridge C18 3.5um, 2.1x50mm, Waters
AC$CHROMATOGRAPHY: FLOW_GRADIENT 90/10 at 0 min, 50/50 at 4 min, 5/95 at 17 min, 5/95 at 25 min, 90/10 at 25.1 min, 90/10 at 30 min
AC$CHROMATOGRAPHY: FLOW_RATE 200 uL/min
AC$CHROMATOGRAPHY: RETENTION_TIME 2.993 min
MS$FOCUSED_ION: BASE_PEAK 128.0164
MS$FOCUSED_ION: PRECURSOR_M/Z 128.0165
MS$FOCUSED_ION: PRECURSOR_TYPE [M+H]+
MS$DATA_PROCESSING: RECALIBRATE loess on assigned fragments and MS1
MS$DATA_PROCESSING: REANALYZE Peaks with additional N2/O included
MS$DATA_PROCESSING: WHOLE RMassBank 3.11.0.1
PK$SPLASH: splash10-014i-9100000000-d76e31c7c594835336c8
PK$ANNOTATION: m/z tentative_formula formula_count mass error(ppm)
  41.0261 C2H3N+ 1 41.026 1.71
  44.9793 CHS+ 1 44.9793 -0.33
  51.0229 C4H3+ 1 51.0229 -0.61
  52.0183 C3H2N+ 1 52.0182 2.28
  56.0494 C3H6N+ 1 56.0495 -0.71
  66.0338 C4H4N+ 1 66.0338 0.26
  67.0417 C4H5N+ 1 67.0417 0.22
  68.9794 C3HS+ 1 68.9793 0.18
  78.0338 C5H4N+ 1 78.0338 0.29
  82.995 C4H3S+ 1 82.995 0.24
  83.9902 C3H2NS+ 1 83.9902 -0.31
  84.0029 C4H4S+ 1 84.0028 1.2
  96.0444 C5H6NO+ 1 96.0444 0.09
  110.0059 C5H4NS+ 1 110.0059 0.17
  111.0137 C5H5NS+ 1 111.0137 -0.05
  128.0166 C5H6NOS+ 1 128.0165 1.26
PK$NUM_PEAK: 16
PK$PEAK: m/z int. rel.int.
  41.0261 238132.6 3
  44.9793 358140.1 5
  51.0229 826516.7 13
  52.0183 281780.7 4
  56.0494 356226.1 5
  66.0338 1734909.8 27
  67.0417 62870648 999
  68.9794 2553909.2 40
  78.0338 3689267.2 58
  82.995 16852620 267
  83.9902 1428878.2 22
  84.0029 160721.2 2
  96.0444 3492953.2 55
  110.0059 8328082 132
  111.0137 9848965 156
  128.0166 1669995.8 26
//
