ACCESSION: MSBNK-Eawag-EA295510
RECORD_TITLE: Thiacloprid-amide; LC-ESI-ITFT; MS2; CE: 45%; R=15000; [M+H]+
DATE: 2014.01.14
AUTHORS: Stravs M, Schymanski E, Singer H, Department of Environmental Chemistry, Eawag
LICENSE: CC BY
COPYRIGHT: Copyright (C) 2012 Eawag, Duebendorf, Switzerland
COMMENT: CONFIDENCE standard compound
COMMENT: EAWAG_UCHEM_ID 2955
CH$NAME: Thiacloprid-amide
CH$NAME: [3-(6-Chloro-3-pyridylmethyl)thiazolidin-2-ylidene]urea
CH$COMPOUND_CLASS: N/A; Environmental Standard
CH$FORMULA: C10H11ClN4OS
CH$EXACT_MASS: 270.0342
CH$SMILES: Clc1ncc(cc1)CN2C(=N/C(=O)N)/SCC2
CH$IUPAC: InChI=1S/C10H11ClN4OS/c11-8-2-1-7(5-13-8)6-15-3-4-17-10(15)14-9(12)16/h1-2,5H,3-4,6H2,(H2,12,16)/b14-10-
CH$LINK: CAS 676228-91-4
CH$LINK: PUBCHEM SID:57648931
CH$LINK: INCHIKEY LEZHOZPJYAQQNU-UVTDQMKNSA-N
CH$LINK: CHEMSPIDER 17340044
CH$LINK: COMPTOX DTXSID60583566
AC$INSTRUMENT: LTQ Orbitrap XL Thermo Scientific
AC$INSTRUMENT_TYPE: LC-ESI-ITFT
AC$MASS_SPECTROMETRY: MS_TYPE MS2
AC$MASS_SPECTROMETRY: ION_MODE POSITIVE
AC$MASS_SPECTROMETRY: IONIZATION ESI
AC$MASS_SPECTROMETRY: FRAGMENTATION_MODE HCD
AC$MASS_SPECTROMETRY: COLLISION_ENERGY 45 % (nominal)
AC$MASS_SPECTROMETRY: RESOLUTION 15000
AC$CHROMATOGRAPHY: COLUMN_NAME XBridge C18 3.5um, 2.1x50mm, Waters
AC$CHROMATOGRAPHY: FLOW_GRADIENT 90/10 at 0 min, 50/50 at 4 min, 5/95 at 17 min, 5/95 at 25 min, 90/10 at 25.1 min, 90/10 at 30 min
AC$CHROMATOGRAPHY: FLOW_RATE 200 ul/min
AC$CHROMATOGRAPHY: RETENTION_TIME 4.6 min
AC$CHROMATOGRAPHY: SOLVENT A water with 0.1% formic acid
AC$CHROMATOGRAPHY: SOLVENT B methanol with 0.1% formic acid
MS$FOCUSED_ION: BASE_PEAK 271.0418
MS$FOCUSED_ION: PRECURSOR_M/Z 271.0415
MS$FOCUSED_ION: PRECURSOR_TYPE [M+H]+
MS$DATA_PROCESSING: DEPROFILE Spline
MS$DATA_PROCESSING: RECALIBRATE loess on assigned fragments and MS1
MS$DATA_PROCESSING: REANALYZE Peaks with additional N2/O included
MS$DATA_PROCESSING: WHOLE RMassBank 1.3.1
PK$SPLASH: splash10-004i-0920000000-9d2c085640d82e9a6819
PK$ANNOTATION: m/z tentative_formula formula_count mass error(ppm)
  90.0338 C6H4N+ 1 90.0338 0.16
  101.0169 C3H5N2S+ 1 101.0168 0.84
  103.0325 C3H7N2S+ 1 103.0324 0.53
  126.0106 C6H5ClN+ 2 126.0105 0.61
  129.0117 C4H5N2OS+ 2 129.0117 -0.39
  132.0556 C7H6N3+ 1 132.0556 -0.03
  144.021 C6H7ClNO+ 1 144.0211 -0.33
  165.0481 C8H9N2S+ 1 165.0481 0.33
  168.0324 C7H7ClN3+ 2 168.0323 0.59
  186.014 C8H9ClNS+ 1 186.0139 0.51
  192.0591 C9H10N3S+ 1 192.059 0.39
  211.009 C9H8ClN2S+ 1 211.0091 -0.63
  228.0357 C9H11ClN3S+ 1 228.0357 -0.1
  229.0197 C9H10ClN2OS+ 1 229.0197 0.27
  254.0151 C10H9ClN3OS+ 1 254.0149 0.68
  271.0421 C10H12ClN4OS+ 1 271.0415 2.26
PK$NUM_PEAK: 16
PK$PEAK: m/z int. rel.int.
  90.0338 29170.5 4
  101.0169 85478.3 12
  103.0325 44270.8 6
  126.0106 7091360.7 999
  129.0117 32200.3 4
  132.0556 35916.2 5
  144.021 10653.8 1
  165.0481 23172.2 3
  168.0324 56464.3 7
  186.014 178087.4 25
  192.0591 215990.5 30
  211.009 28514.8 4
  228.0357 1958181.6 275
  229.0197 8369.2 1
  254.0151 331415.9 46
  271.0421 11247.4 1
//
