ACCESSION: MSBNK-Eawag-EA070102
RECORD_TITLE: Ritalinic acid; LC-ESI-ITFT; MS2; CE: 15%; R=7500; [M+H]+
DATE: 2014.01.14
AUTHORS: Stravs M, Schymanski E, Singer H, Department of Environmental Chemistry, Eawag
LICENSE: CC BY
COPYRIGHT: Copyright (C) 2012 Eawag, Duebendorf, Switzerland
COMMENT: CONFIDENCE standard compound
COMMENT: EAWAG_UCHEM_ID 701
CH$NAME: Ritalinic acid
CH$NAME: 2-phenyl-2-(2-piperidinyl)acetic acid
CH$COMPOUND_CLASS: N/A; Environmental Standard
CH$FORMULA: C13H17NO2
CH$EXACT_MASS: 219.1259
CH$SMILES: c(ccc1C(C(=O)O)C(NCC2)CC2)cc1
CH$IUPAC: InChI=1S/C13H17NO2/c15-13(16)12(10-6-2-1-3-7-10)11-8-4-5-9-14-11/h1-3,6-7,11-12,14H,4-5,8-9H2,(H,15,16)
CH$LINK: CAS 19395-41-6
CH$LINK: PUBCHEM CID:86863
CH$LINK: INCHIKEY INGSNVSERUZOAK-UHFFFAOYSA-N
CH$LINK: CHEMSPIDER 78360
CH$LINK: COMPTOX DTXSID20864888
AC$INSTRUMENT: LTQ Orbitrap XL Thermo Scientific
AC$INSTRUMENT_TYPE: LC-ESI-ITFT
AC$MASS_SPECTROMETRY: MS_TYPE MS2
AC$MASS_SPECTROMETRY: ION_MODE POSITIVE
AC$MASS_SPECTROMETRY: IONIZATION ESI
AC$MASS_SPECTROMETRY: FRAGMENTATION_MODE HCD
AC$MASS_SPECTROMETRY: COLLISION_ENERGY 15 % (nominal)
AC$MASS_SPECTROMETRY: RESOLUTION 7500
AC$CHROMATOGRAPHY: COLUMN_NAME XBridge C18 3.5um, 2.1x50mm, Waters
AC$CHROMATOGRAPHY: FLOW_GRADIENT 90/10 at 0 min, 50/50 at 4 min, 5/95 at 17 min, 5/95 at 25 min, 90/10 at 25.1 min, 90/10 at 30 min
AC$CHROMATOGRAPHY: FLOW_RATE 200 ul/min
AC$CHROMATOGRAPHY: RETENTION_TIME 4.7 min
AC$CHROMATOGRAPHY: SOLVENT A water with 0.1% formic acid
AC$CHROMATOGRAPHY: SOLVENT B methanol with 0.1% formic acid
MS$FOCUSED_ION: BASE_PEAK 220.1341
MS$FOCUSED_ION: PRECURSOR_M/Z 220.1332
MS$FOCUSED_ION: PRECURSOR_TYPE [M+H]+
MS$DATA_PROCESSING: DEPROFILE Spline
MS$DATA_PROCESSING: RECALIBRATE loess on assigned fragments and MS1
MS$DATA_PROCESSING: REANALYZE Peaks with additional N2/O included
MS$DATA_PROCESSING: WHOLE RMassBank 1.3.1
PK$SPLASH: splash10-00di-0090000000-000b03fadb8e0e2d157f
PK$ANNOTATION: m/z tentative_formula formula_count mass error(ppm)
  84.0808 C5H10N+ 1 84.0808 -0.19
  220.1335 C13H18NO2+ 1 220.1332 1.2
PK$NUM_PEAK: 2
PK$PEAK: m/z int. rel.int.
  84.0808 375283.9 30
  220.1335 12211707.9 999
//
