ACCESSION: MSBNK-Eawag-EQ316402
RECORD_TITLE: Tetraglyme; LC-ESI-QFT; MS2; CE: 30; R=35000; [M+H]+
DATE: 2015.08.25
AUTHORS: Beck B, Stravs M, Schymanski E, Singer H, Department of Environmental Chemistry, Eawag
LICENSE: CC BY
COPYRIGHT: Copyright (C) 2015 Eawag, Duebendorf, Switzerland
COMMENT: CONFIDENCE standard compound
COMMENT: EAWAG_UCHEM_ID 3164
CH$NAME: Tetraglyme
CH$NAME: 1-methoxy-2-[2-[2-(2-methoxyethoxy)ethoxy]ethoxy]ethane
CH$COMPOUND_CLASS: N/A; Environmental Standard
CH$FORMULA: C10H22O5
CH$EXACT_MASS: 222.14672
CH$SMILES: COCCOCCOCCOCCOC
CH$IUPAC: InChI=1S/C10H22O5/c1-11-3-5-13-7-9-15-10-8-14-6-4-12-2/h3-10H2,1-2H3
CH$LINK: CAS 143-24-8
CH$LINK: CHEBI CHEBI:46785
CH$LINK: PUBCHEM CID:8925
CH$LINK: INCHIKEY ZUHZGEOKBKGPSW-UHFFFAOYSA-N
CH$LINK: CHEMSPIDER 13835433
CH$LINK: COMPTOX DTXSID7044396
AC$INSTRUMENT: Q Exactive Plus Orbitrap Thermo Scientific
AC$INSTRUMENT_TYPE: LC-ESI-QFT
AC$MASS_SPECTROMETRY: MS_TYPE MS2
AC$MASS_SPECTROMETRY: ION_MODE POSITIVE
AC$MASS_SPECTROMETRY: IONIZATION ESI
AC$MASS_SPECTROMETRY: FRAGMENTATION_MODE HCD
AC$MASS_SPECTROMETRY: COLLISION_ENERGY 30 (nominal)
AC$MASS_SPECTROMETRY: RESOLUTION 35000
AC$CHROMATOGRAPHY: COLUMN_NAME XBridge C18 3.5um, 2.1x50mm, Waters
AC$CHROMATOGRAPHY: FLOW_GRADIENT 90/10 at 0 min, 50/50 at 4 min, 5/95 at 17 min, 5/95 at 25 min, 90/10 at 25.1 min, 90/10 at 30 min
AC$CHROMATOGRAPHY: FLOW_RATE 200 ul/min
AC$CHROMATOGRAPHY: RETENTION_TIME 4.5 min
AC$CHROMATOGRAPHY: SOLVENT A water with 0.1% formic acid
AC$CHROMATOGRAPHY: SOLVENT B methanol with 0.1% formic acid
MS$FOCUSED_ION: BASE_PEAK 223.1539
MS$FOCUSED_ION: PRECURSOR_M/Z 223.154
MS$FOCUSED_ION: PRECURSOR_TYPE [M+H]+
MS$DATA_PROCESSING: RECALIBRATE loess on assigned fragments and MS1
MS$DATA_PROCESSING: REANALYZE Peaks with additional N2/O included
MS$DATA_PROCESSING: WHOLE RMassBank 1.9.6
PK$SPLASH: splash10-0pb9-9700000000-93a9e5aca8fc576be4b4
PK$ANNOTATION: m/z tentative_formula formula_count mass error(ppm)
  59.0491 C3H7O+ 1 59.0491 -0.19
  73.0647 C4H9O+ 1 73.0648 -0.98
  89.0597 C4H9O2+ 1 89.0597 -0.29
  103.0753 C5H11O2+ 1 103.0754 -0.25
  133.0859 C6H13O3+ 1 133.0859 0.07
  147.1016 C7H15O3+ 1 147.1016 -0.07
PK$NUM_PEAK: 6
PK$PEAK: m/z int. rel.int.
  59.0491 315254848 999
  73.0647 861582.3 2
  89.0597 10308780 32
  103.0753 260739072 826
  133.0859 2690593.2 8
  147.1016 8973215 28
//
