ACCESSION: MSBNK-Eawag-EQ372504
RECORD_TITLE: Triallate; LC-ESI-QFT; MS2; CE: 60; R=35000; [M+H]+
DATE: 2015.08.25
AUTHORS: Stravs M, Schymanski E, Singer H, Department of Environmental Chemistry, Eawag and Thomaidis N, University of Athens
LICENSE: CC BY
COPYRIGHT: Copyright (C) 2015 Eawag, Duebendorf, Switzerland
COMMENT: CONFIDENCE standard compound
COMMENT: EAWAG_UCHEM_ID 3725
CH$NAME: Triallate
CH$NAME: S-(2,3,3-trichloroprop-2-enyl) N,N-di(propan-2-yl)carbamothioate
CH$COMPOUND_CLASS: N/A; Environmental Standard
CH$FORMULA: C10H16Cl3NOS
CH$EXACT_MASS: 303.00182
CH$SMILES: CC(C)N(C(C)C)C(=O)SCC(=C(Cl)Cl)Cl
CH$IUPAC: InChI=1S/C10H16Cl3NOS/c1-6(2)14(7(3)4)10(15)16-5-8(11)9(12)13/h6-7H,5H2,1-4H3
CH$LINK: CAS 2303-17-5
CH$LINK: CHEBI CHEBI:81978
CH$LINK: KEGG C18813
CH$LINK: PUBCHEM CID:5543
CH$LINK: INCHIKEY MWBPRDONLNQCFV-UHFFFAOYSA-N
CH$LINK: CHEMSPIDER 5342
CH$LINK: COMPTOX DTXSID5024344
AC$INSTRUMENT: Q Exactive Plus Orbitrap Thermo Scientific
AC$INSTRUMENT_TYPE: LC-ESI-QFT
AC$MASS_SPECTROMETRY: MS_TYPE MS2
AC$MASS_SPECTROMETRY: ION_MODE POSITIVE
AC$MASS_SPECTROMETRY: IONIZATION ESI
AC$MASS_SPECTROMETRY: FRAGMENTATION_MODE HCD
AC$MASS_SPECTROMETRY: COLLISION_ENERGY 60 (nominal)
AC$MASS_SPECTROMETRY: RESOLUTION 35000
AC$CHROMATOGRAPHY: COLUMN_NAME XBridge C18 3.5um, 2.1x50mm, Waters
AC$CHROMATOGRAPHY: FLOW_GRADIENT 90/10 at 0 min, 50/50 at 4 min, 5/95 at 17 min, 5/95 at 25 min, 90/10 at 25.1 min, 90/10 at 30 min
AC$CHROMATOGRAPHY: FLOW_RATE 200 ul/min
AC$CHROMATOGRAPHY: RETENTION_TIME 15.9 min
AC$CHROMATOGRAPHY: SOLVENT A water with 0.1% formic acid
AC$CHROMATOGRAPHY: SOLVENT B methanol with 0.1% formic acid
MS$FOCUSED_ION: BASE_PEAK 279.1584
MS$FOCUSED_ION: PRECURSOR_M/Z 304.0091
MS$FOCUSED_ION: PRECURSOR_TYPE [M+H]+
MS$DATA_PROCESSING: RECALIBRATE loess on assigned fragments and MS1
MS$DATA_PROCESSING: REANALYZE Peaks with additional N2/O included
MS$DATA_PROCESSING: WHOLE RMassBank 1.9.6
PK$SPLASH: splash10-0006-3900000000-69e7379d313d4d611749
PK$ANNOTATION: m/z tentative_formula formula_count mass error(ppm)
  53.0022 C3HO+ 1 53.0022 0.36
  53.9975 C2NO+ 1 53.9974 0.37
  55.0543 C4H7+ 1 55.0542 0.61
  57.0698 C4H9+ 1 57.0699 -0.99
  58.0651 C3H8N+ 1 58.0651 -0.1
  69.0698 C5H9+ 1 69.0699 -0.53
  72.9838 C3H2Cl+ 1 72.984 -2.39
  78.9403 CClS+ 1 78.9404 -0.44
  80.0494 C5H6N+ 1 80.0495 -0.57
  80.956 CH2ClS+ 1 80.956 0.18
  82.9449 CHCl2+ 1 82.945 -0.5
  86.06 C4H8NO+ 1 86.06 -0.47
  88.0756 C4H10NO+ 1 88.0757 -1.25
  91.0542 C7H7+ 1 91.0542 0.26
  96.9607 C2H3Cl2+ 1 96.9606 0.19
  104.956 C3H2ClS+ 1 104.956 0.05
  111.1168 C8H15+ 1 111.1168 -0.51
  118.0321 C4H8NOS+ 1 118.0321 0.07
  128.107 C7H14NO+ 1 128.107 0
  140.9327 C3H3Cl2S+ 1 140.9327 0.19
  142.9217 C3H2Cl3+ 1 142.9217 0.07
  160.0791 C7H14NOS+ 1 160.0791 0.49
  176.9092 C3H4Cl3S+ 1 176.9094 -0.74
PK$NUM_PEAK: 23
PK$PEAK: m/z int. rel.int.
  53.0022 24174 12
  53.9975 4662.7 2
  55.0543 5463.3 2
  57.0698 3180.4 1
  58.0651 72046.7 38
  69.0698 37090.9 19
  72.9838 2861.8 1
  78.9403 13739.4 7
  80.0494 1999 1
  80.956 11070.5 5
  82.9449 471383.2 253
  86.06 134841.5 72
  88.0756 2013.9 1
  91.0542 18211.4 9
  96.9607 38397 20
  104.956 20111.9 10
  111.1168 3136 1
  118.0321 21913.8 11
  128.107 3431.3 1
  140.9327 152617.7 81
  142.9217 1860132.6 999
  160.0791 12355.2 6
  176.9092 4493.3 2
//
