ACCESSION: MSBNK-Eawag-EA033104
RECORD_TITLE: N'-(2,4-Dimethylphenyl)-N-methylformamidine; LC-ESI-ITFT; MS2; CE: 45%; R=7500; [M+H]+
DATE: 2014.01.14
AUTHORS: Stravs M, Schymanski E, Singer H, Department of Environmental Chemistry, Eawag
LICENSE: CC BY
COPYRIGHT: Copyright (C) 2012 Eawag, Duebendorf, Switzerland
COMMENT: CONFIDENCE standard compound
COMMENT: EAWAG_UCHEM_ID 331
CH$NAME: N'-(2,4-Dimethylphenyl)-N-methylformamidine
CH$NAME: Methanimidamide, N-(2,4-dimethylphenyl)-N'-methyl-
CH$NAME: N-(2,4-dimethylphenyl)-N'-methyl-formamidine
CH$COMPOUND_CLASS: N/A; Environmental Standard
CH$FORMULA: C10H14N2
CH$EXACT_MASS: 162.1157
CH$SMILES: C(=NC)Nc1c(cc(cc1)C)C
CH$IUPAC: InChI=1S/C10H14N2/c1-8-4-5-10(9(2)6-8)12-7-11-3/h4-7H,1-3H3,(H,11,12)
CH$LINK: CAS 33089-74-6
CH$LINK: PUBCHEM CID:36326
CH$LINK: INCHIKEY JIIOLEGNERQDIP-UHFFFAOYSA-N
CH$LINK: CHEMSPIDER 33406
CH$LINK: COMPTOX DTXSID1037696
AC$INSTRUMENT: LTQ Orbitrap XL Thermo Scientific
AC$INSTRUMENT_TYPE: LC-ESI-ITFT
AC$MASS_SPECTROMETRY: MS_TYPE MS2
AC$MASS_SPECTROMETRY: ION_MODE POSITIVE
AC$MASS_SPECTROMETRY: IONIZATION ESI
AC$MASS_SPECTROMETRY: FRAGMENTATION_MODE HCD
AC$MASS_SPECTROMETRY: COLLISION_ENERGY 45 % (nominal)
AC$MASS_SPECTROMETRY: RESOLUTION 7500
AC$CHROMATOGRAPHY: COLUMN_NAME XBridge C18 3.5um, 2.1x50mm, Waters
AC$CHROMATOGRAPHY: FLOW_GRADIENT 90/10 at 0 min, 50/50 at 4 min, 5/95 at 17 min, 5/95 at 25 min, 90/10 at 25.1 min, 90/10 at 30 min
AC$CHROMATOGRAPHY: FLOW_RATE 200 ul/min
AC$CHROMATOGRAPHY: RETENTION_TIME 4.5 min
AC$CHROMATOGRAPHY: SOLVENT A water with 0.1% formic acid
AC$CHROMATOGRAPHY: SOLVENT B methanol with 0.1% formic acid
MS$FOCUSED_ION: BASE_PEAK 163.1229
MS$FOCUSED_ION: PRECURSOR_M/Z 163.123
MS$FOCUSED_ION: PRECURSOR_TYPE [M+H]+
MS$DATA_PROCESSING: DEPROFILE Spline
MS$DATA_PROCESSING: RECALIBRATE loess on assigned fragments and MS1
MS$DATA_PROCESSING: REANALYZE Peaks with additional N2/O included
MS$DATA_PROCESSING: WHOLE RMassBank 1.3.1
PK$SPLASH: splash10-03di-0900000000-c412967ee5d3f3058b0f
PK$ANNOTATION: m/z tentative_formula formula_count mass error(ppm)
  105.0698 C8H9+ 1 105.0699 -0.63
  107.073 C7H9N+ 1 107.073 0.65
  117.0573 C8H7N+ 1 117.0573 -0.26
  120.0808 C8H10N+ 1 120.0808 -0.13
  122.0964 C8H12N+ 1 122.0964 0.03
  132.0808 C9H10N+ 1 132.0808 0.03
  136.1124 C9H14N+ 1 136.1121 2.23
  163.1229 C10H15N2+ 1 163.123 -0.21
PK$NUM_PEAK: 8
PK$PEAK: m/z int. rel.int.
  105.0698 381870 4
  107.073 709618.9 8
  117.0573 706828.4 8
  120.0808 656397.4 7
  122.0964 15118833.3 178
  132.0808 8218056.4 97
  136.1124 111196.7 1
  163.1229 84516157.3 999
//
