ACCESSION: MSBNK-Eawag-EQ01163704
RECORD_TITLE: Pramiracetam; LC-ESI-QFT; MS2; CE: 60%; R=17500; [M+H]+
DATE: 2024.01.16
AUTHORS: B. Beck [dtc,com], J. Hollender [dtc]
LICENSE: CC BY-SA
COPYRIGHT: Copyright (C) Eawag 2023
COMMENT: CONFIDENCE standard compound
COMMENT: UCHEM_ID 11637
CH$NAME: Pramiracetam
CH$NAME: N-[2-[di(propan-2-yl)amino]ethyl]-2-(2-oxopyrrolidin-1-yl)acetamide
CH$COMPOUND_CLASS: N/A; Environmental Standard
CH$FORMULA: C14H27N3O2
CH$EXACT_MASS: 269.210327104
CH$SMILES: CC(C)N(CCNC(=O)CN1CCCC1=O)C(C)C
CH$IUPAC: InChI=1S/C14H27N3O2/c1-11(2)17(12(3)4)9-7-15-13(18)10-16-8-5-6-14(16)19/h11-12H,5-10H2,1-4H3,(H,15,18)
CH$LINK: CHEBI CHEBI:135110
CH$LINK: PUBCHEM CID:51712
CH$LINK: INCHIKEY ZULJGOSFKWFVRX-UHFFFAOYSA-N
CH$LINK: CHEMSPIDER 46801
AC$INSTRUMENT: Exploris 240 Orbitrap Thermo Scientific
AC$INSTRUMENT_TYPE: LC-ESI-QFT
AC$MASS_SPECTROMETRY: MS_TYPE MS2
AC$MASS_SPECTROMETRY: ION_MODE POSITIVE
AC$MASS_SPECTROMETRY: IONIZATION ESI
AC$MASS_SPECTROMETRY: FRAGMENTATION_MODE HCD
AC$MASS_SPECTROMETRY: COLLISION_ENERGY 60 % (nominal)
AC$MASS_SPECTROMETRY: RESOLUTION 17500
AC$MASS_SPECTROMETRY: MASS_RANGE_M/Z 50-297
AC$CHROMATOGRAPHY: COLUMN_NAME XBridge C18 3.5um, 2.1x50mm, Waters
AC$CHROMATOGRAPHY: FLOW_GRADIENT 90/10 at 0 min, 50/50 at 4 min, 5/95 at 17 min, 5/95 at 25 min, 90/10 at 25.1 min, 90/10 at 30 min
AC$CHROMATOGRAPHY: FLOW_RATE 200 uL/min
AC$CHROMATOGRAPHY: RETENTION_TIME 1.856 min
MS$FOCUSED_ION: BASE_PEAK 270.2173
MS$FOCUSED_ION: PRECURSOR_M/Z 270.2176
MS$FOCUSED_ION: PRECURSOR_TYPE [M+H]+
MS$DATA_PROCESSING: RECALIBRATE loess on assigned fragments and MS1
MS$DATA_PROCESSING: REANALYZE Peaks with additional N2/O included
MS$DATA_PROCESSING: WHOLE RMassBank 3.11.2
PK$SPLASH: splash10-00kb-9500000000-91888c1c1885ba2a2347
PK$ANNOTATION: m/z tentative_formula formula_count mass error(ppm)
  69.0336 C4H5O+ 1 69.0335 1.77
  70.065 C4H8N+ 1 70.0651 -1.53
  86.0963 C5H12N+ 1 86.0964 -0.93
  98.06 C5H8NO+ 1 98.06 -0.72
  102.1274 C6H16N+ 1 102.1277 -2.82
  103.1229 C5H15N2+ 1 103.123 -0.24
  125.0707 C6H9N2O+ 1 125.0709 -2.08
  126.0552 C6H8NO2+ 1 126.055 1.76
  128.1432 C8H18N+ 1 128.1434 -1.33
  168.1136 C8H14N3O+ 1 168.1131 2.61
  169.0971 C8H13N2O2+ 1 169.0972 -0.53
  210.1602 C11H20N3O+ 1 210.1601 0.59
  270.2173 C14H28N3O2+ 1 270.2176 -1.17
PK$NUM_PEAK: 13
PK$PEAK: m/z int. rel.int.
  69.0336 1484438.4 5
  70.065 9054791 34
  86.0963 8900549 33
  98.06 263937216 999
  102.1274 4116429 15
  103.1229 1394093.1 5
  125.0707 2736145.5 10
  126.0552 4547376.5 17
  128.1432 10818117 40
  168.1136 2892796 10
  169.0971 132312840 500
  210.1602 1262336 4
  270.2173 2311310.5 8
//
