ACCESSION: MSBNK-Eawag-EQ00294601
RECORD_TITLE: Triclopyr; LC-ESI-QFT; MS2; CE: 15%; R=15000; [M+H]+
DATE: 2024.06.14
AUTHORS: F. Jud [dtc], K. Arturi [dtc], J. Hollender [dtc], A. Dax [com]
LICENSE: CC BY-SA
COPYRIGHT: Copyright (C) Eawag 2024
COMMENT: CONFIDENCE standard compound
COMMENT: UCHEM_ID 2946
CH$NAME: Triclopyr
CH$NAME: 2-(3,5,6-trichloropyridin-2-yl)oxyacetic acid
CH$COMPOUND_CLASS: N/A
CH$FORMULA: C7H4Cl3NO3
CH$EXACT_MASS: 254.925676
CH$SMILES: OC(=O)COC1=C(Cl)C=C(Cl)C(Cl)=N1
CH$IUPAC: InChI=1S/C7H4Cl3NO3/c8-3-1-4(9)7(11-6(3)10)14-2-5(12)13/h1H,2H2,(H,12,13)
CH$LINK: CAS 55335-06-3
CH$LINK: CHEBI CHEBI:9682
CH$LINK: KEGG C11032
CH$LINK: PUBCHEM CID:41428
CH$LINK: INCHIKEY REEQLXCGVXDJSQ-UHFFFAOYSA-N
CH$LINK: CHEMSPIDER 37801
AC$INSTRUMENT: Q Exactive Plus
AC$INSTRUMENT_TYPE: LC-ESI-QFT
AC$MASS_SPECTROMETRY: MS_TYPE MS2
AC$MASS_SPECTROMETRY: ION_MODE POSITIVE
AC$MASS_SPECTROMETRY: IONIZATION ESI
AC$MASS_SPECTROMETRY: FRAGMENTATION_MODE HCD
AC$MASS_SPECTROMETRY: COLLISION_ENERGY 15 % (nominal)
AC$MASS_SPECTROMETRY: RESOLUTION 15000
AC$MASS_SPECTROMETRY: MASS_RANGE_M/Z 50-280
AC$CHROMATOGRAPHY: COLUMN_NAME XBridge C18 3.5um, 2.1x50mm, Waters
AC$CHROMATOGRAPHY: FLOW_GRADIENT 90/10 at 0 min, 50/50 at 4 min, 5/95 at 17 min, 5/95 at 25 min, 90/10 at 25.1 min, 90/10 at 30 min
AC$CHROMATOGRAPHY: FLOW_RATE 200 uL/min
AC$CHROMATOGRAPHY: RETENTION_TIME 9.064 min
MS$FOCUSED_ION: BASE_PEAK 164.9845
MS$FOCUSED_ION: PRECURSOR_M/Z 255.933
MS$FOCUSED_ION: PRECURSOR_TYPE [M+H]+
MS$FOCUSED_ION: PRECURSOR_INTENSITY 4419539.74
MS$DATA_PROCESSING: RECALIBRATE loess on assigned fragments and MS1
MS$DATA_PROCESSING: REANALYZE Peaks with additional N2/O included
MS$DATA_PROCESSING: WHOLE RMassBank 3.15.1.1
PK$SPLASH: splash10-0a4s-0390000000-8cdfd41f89068e4f60f9
PK$ANNOTATION: m/z tentative_formula formula_count mass error(ppm)
  197.9274 C5H3Cl3NO+ 1 197.9275 -0.12
  209.9274 C6H3Cl3NO+ 1 209.9275 -0.21
  237.9223 C7H3Cl3NO2+ 1 237.9224 -0.51
  255.9328 C7H5Cl3NO3+ 1 255.933 -0.74
PK$NUM_PEAK: 4
PK$PEAK: m/z int. rel.int.
  197.9274 585294.1 999
  209.9274 565940.5 965
  237.9223 463681 791
  255.9328 358219.1 611
//
