ACCESSION: MSBNK-Eawag-EQ369452
RECORD_TITLE: 1-Chlorobenzotriazole; LC-ESI-QFT; MS2; CE: 30; R=35000; [M-H]-
DATE: 2015.08.26
AUTHORS: Stravs M, Schymanski E, Singer H, Department of Environmental Chemistry, Eawag and Thomaidis N, University of Athens
LICENSE: CC BY
COPYRIGHT: Copyright (C) 2015 Eawag, Duebendorf, Switzerland
COMMENT: CONFIDENCE standard compound
COMMENT: EAWAG_UCHEM_ID 3694
CH$NAME: 1-Chlorobenzotriazole
CH$NAME: 1-chloro-benzotriazole
CH$NAME: Chlorobenzotriazole
CH$COMPOUND_CLASS: N/A; Environmental Standard
CH$FORMULA: C6H4ClN3
CH$EXACT_MASS: 153.00937
CH$SMILES: C1=CC=C2C(=C1)N=NN2Cl
CH$IUPAC: InChI=1S/C6H4ClN3/c7-10-6-4-2-1-3-5(6)8-9-10/h1-4H
CH$LINK: CAS 21050-95-3
CH$LINK: PUBCHEM CID:88761
CH$LINK: INCHIKEY INOGLHRUEYDAHX-UHFFFAOYSA-N
CH$LINK: CHEMSPIDER 80093
CH$LINK: COMPTOX DTXSID50175272
AC$INSTRUMENT: Q Exactive Plus Orbitrap Thermo Scientific
AC$INSTRUMENT_TYPE: LC-ESI-QFT
AC$MASS_SPECTROMETRY: MS_TYPE MS2
AC$MASS_SPECTROMETRY: ION_MODE NEGATIVE
AC$MASS_SPECTROMETRY: IONIZATION ESI
AC$MASS_SPECTROMETRY: FRAGMENTATION_MODE HCD
AC$MASS_SPECTROMETRY: COLLISION_ENERGY 30 (nominal)
AC$MASS_SPECTROMETRY: RESOLUTION 35000
AC$CHROMATOGRAPHY: COLUMN_NAME XBridge C18 3.5um, 2.1x50mm, Waters
AC$CHROMATOGRAPHY: FLOW_GRADIENT 90/10 at 0 min, 50/50 at 4 min, 5/95 at 17 min, 5/95 at 25 min, 90/10 at 25.1 min, 90/10 at 30 min
AC$CHROMATOGRAPHY: FLOW_RATE 200 ul/min
AC$CHROMATOGRAPHY: RETENTION_TIME 6.3 min
AC$CHROMATOGRAPHY: SOLVENT A water with 0.1% formic acid
AC$CHROMATOGRAPHY: SOLVENT B methanol with 0.1% formic acid
MS$FOCUSED_ION: BASE_PEAK 152.0019
MS$FOCUSED_ION: PRECURSOR_M/Z 152.0021
MS$FOCUSED_ION: PRECURSOR_TYPE [M-H]-
MS$DATA_PROCESSING: RECALIBRATE loess on assigned fragments and MS1
MS$DATA_PROCESSING: REANALYZE Peaks with additional N2/O included
MS$DATA_PROCESSING: WHOLE RMassBank 1.9.6
PK$SPLASH: splash10-0udi-0900000000-30c90f7454d834add7e3
PK$ANNOTATION: m/z tentative_formula formula_count mass error(ppm)
  88.0192 C6H2N- 1 88.0193 -0.48
  116.0256 C6H2N3- 1 116.0254 1.8
  152.002 C6H3ClN3- 1 152.0021 -0.52
PK$NUM_PEAK: 3
PK$PEAK: m/z int. rel.int.
  88.0192 6736095 13
  116.0256 591806.8 1
  152.002 504550880 999
//
