ACCESSION: MSBNK-Eawag-EA276114
RECORD_TITLE: Dimethoate; LC-ESI-ITFT; MS2; CE: 35%; R=15000; [M+H]+
DATE: 2014.01.14
AUTHORS: Stravs M, Schymanski E, Singer H, Department of Environmental Chemistry, Eawag
LICENSE: CC BY
COPYRIGHT: Copyright (C) 2012 Eawag, Duebendorf, Switzerland
COMMENT: CONFIDENCE standard compound
COMMENT: EAWAG_UCHEM_ID 2761
CH$NAME: Dimethoate
CH$NAME: 2-(dimethoxyphosphinothioylthio)-N-methylacetamide
CH$COMPOUND_CLASS: N/A; Environmental Standard
CH$FORMULA: C5H12NO3PS2
CH$EXACT_MASS: 228.9996
CH$SMILES: P(SCC(NC)=O)(OC)(OC)=S
CH$IUPAC: InChI=1S/C5H12NO3PS2/c1-6-5(7)4-12-10(11,8-2)9-3/h4H2,1-3H3,(H,6,7)
CH$LINK: CAS 60-51-5
CH$LINK: CHEBI CHEBI:34714
CH$LINK: KEGG C14326
CH$LINK: PUBCHEM CID:3082
CH$LINK: INCHIKEY MCWXGJITAZMZEV-UHFFFAOYSA-N
CH$LINK: CHEMSPIDER 2973
CH$LINK: COMPTOX DTXSID7020479
AC$INSTRUMENT: LTQ Orbitrap XL Thermo Scientific
AC$INSTRUMENT_TYPE: LC-ESI-ITFT
AC$MASS_SPECTROMETRY: MS_TYPE MS2
AC$MASS_SPECTROMETRY: ION_MODE POSITIVE
AC$MASS_SPECTROMETRY: IONIZATION ESI
AC$MASS_SPECTROMETRY: FRAGMENTATION_MODE CID
AC$MASS_SPECTROMETRY: COLLISION_ENERGY 35 % (nominal)
AC$MASS_SPECTROMETRY: RESOLUTION 15000
AC$CHROMATOGRAPHY: COLUMN_NAME XBridge C18 3.5um, 2.1x50mm, Waters
AC$CHROMATOGRAPHY: FLOW_GRADIENT 90/10 at 0 min, 50/50 at 4 min, 5/95 at 17 min, 5/95 at 25 min, 90/10 at 25.1 min, 90/10 at 30 min
AC$CHROMATOGRAPHY: FLOW_RATE 200 ul/min
AC$CHROMATOGRAPHY: RETENTION_TIME 5.2 min
AC$CHROMATOGRAPHY: SOLVENT A water with 0.1% formic acid
AC$CHROMATOGRAPHY: SOLVENT B methanol with 0.1% formic acid
MS$FOCUSED_ION: BASE_PEAK 230.007
MS$FOCUSED_ION: PRECURSOR_M/Z 230.0069
MS$FOCUSED_ION: PRECURSOR_TYPE [M+H]+
MS$DATA_PROCESSING: DEPROFILE Spline
MS$DATA_PROCESSING: RECALIBRATE loess on assigned fragments and MS1
MS$DATA_PROCESSING: REANALYZE Peaks with additional N2/O included
MS$DATA_PROCESSING: WHOLE RMassBank 1.3.1
PK$SPLASH: splash10-0002-0900000000-3ba92d233910573c9c42
PK$ANNOTATION: m/z tentative_formula formula_count mass error(ppm)
  88.0215 C3H6NS+ 1 88.0215 -0.08
  124.9819 C2H6O2PS+ 1 124.9821 -1.39
  156.9539 C2H6O2PS2+ 1 156.9541 -1.69
  170.9698 C3H8O2PS2+ 1 170.9698 -0.03
  197.9807 C4H9NO2PS2+ 1 197.9807 0.08
  198.9648 C4H8O3PS2+ 1 198.9647 0.41
PK$NUM_PEAK: 6
PK$PEAK: m/z int. rel.int.
  88.0215 743170.8 8
  124.9819 660323.2 7
  156.9539 111943.5 1
  170.9698 5191368.6 59
  197.9807 850570.1 9
  198.9648 86807597.2 999
//
