ACCESSION: MSBNK-Eawag-EQ01155304
RECORD_TITLE: Phenylephrine 3-O-sulfate; LC-ESI-QFT; MS2; CE: 60%; R=17500; [M+H]+
DATE: 2024.05.08
AUTHORS: C. Meyer [dtc], B. Beck [dtc,com], J. Hollender [dtc]
LICENSE: CC BY-SA
COPYRIGHT: Copyright (C) Eawag 2023
PUBLICATION: Meyer, C., Stravs, M., Hollender, J.. How Wastewater Reflects Human Metabolism - Suspect Screening of Pharmaceutical Metabolites in Wastewater Influent. doi:10.1021/acs.est.4c00968
COMMENT: CONFIDENCE standard compound
COMMENT: UCHEM_ID 11553
CH$NAME: Phenylephrine 3-O-sulfate
CH$NAME: [3-[1-hydroxy-2-(methylamino)ethyl]phenyl] hydrogen sulfate
CH$COMPOUND_CLASS: N/A; Environmental Standard
CH$FORMULA: C9H13NO5S
CH$EXACT_MASS: 247.0514435
CH$SMILES: CNCC(C1=CC(=CC=C1)OS(=O)(=O)O)O
CH$IUPAC: InChI=1S/C9H13NO5S/c1-10-6-9(11)7-3-2-4-8(5-7)15-16(12,13)14/h2-5,9-11H,6H2,1H3,(H,12,13,14)
CH$LINK: PUBCHEM CID:139600527
CH$LINK: INCHIKEY RNPCQQLCTVIPNU-UHFFFAOYSA-N
CH$LINK: CHEMSPIDER 64880266
AC$INSTRUMENT: Exploris 240 Orbitrap Thermo Scientific
AC$INSTRUMENT_TYPE: LC-ESI-QFT
AC$MASS_SPECTROMETRY: MS_TYPE MS2
AC$MASS_SPECTROMETRY: ION_MODE POSITIVE
AC$MASS_SPECTROMETRY: IONIZATION ESI
AC$MASS_SPECTROMETRY: FRAGMENTATION_MODE HCD
AC$MASS_SPECTROMETRY: COLLISION_ENERGY 60 % (nominal)
AC$MASS_SPECTROMETRY: RESOLUTION 17500
AC$MASS_SPECTROMETRY: MASS_RANGE_M/Z 50-274
AC$CHROMATOGRAPHY: COLUMN_NAME XBridge C18 3.5um, 2.1x50mm, Waters
AC$CHROMATOGRAPHY: FLOW_GRADIENT 90/10 at 0 min, 50/50 at 4 min, 5/95 at 17 min, 5/95 at 25 min, 90/10 at 25.1 min, 90/10 at 30 min
AC$CHROMATOGRAPHY: FLOW_RATE 200 uL/min
AC$CHROMATOGRAPHY: RETENTION_TIME 1.038 min
MS$FOCUSED_ION: BASE_PEAK 144.9877
MS$FOCUSED_ION: PRECURSOR_M/Z 248.0587
MS$FOCUSED_ION: PRECURSOR_TYPE [M+H]+
MS$DATA_PROCESSING: RECALIBRATE loess on assigned fragments and MS1
MS$DATA_PROCESSING: REANALYZE Peaks with additional N2/O included
MS$DATA_PROCESSING: WHOLE RMassBank 3.15.1
PK$SPLASH: splash10-0udi-0900000000-511b50fc7545a453781c
PK$ANNOTATION: m/z tentative_formula formula_count mass error(ppm)
  57.0572 C3H7N+ 1 57.0573 -1.25
  81.0699 C6H9+ 1 81.0699 0.17
  91.0542 C7H7+ 1 91.0542 -0.55
  107.0493 C7H7O+ 1 107.0491 1.02
  109.0647 C7H9O+ 1 109.0648 -0.63
  117.0571 C8H7N+ 1 117.0573 -1.57
  119.0492 C8H7O+ 1 119.0491 0.09
  121.0645 C8H9O+ 1 121.0648 -2.32
  122.0963 C8H12N+ 1 122.0964 -1.27
  132.0809 C9H10N+ 1 132.0808 1.04
  135.0678 C8H9NO+ 1 135.0679 -0.33
  149.0834 C9H11NO+ 1 149.0835 -0.93
  150.0912 C9H12NO+ 1 150.0913 -0.81
PK$NUM_PEAK: 13
PK$PEAK: m/z int. rel.int.
  57.0572 29818.7 9
  81.0699 21589 6
  91.0542 359445 115
  107.0493 20014 6
  109.0647 415435.8 132
  117.0571 27212.2 8
  119.0492 197532.5 63
  121.0645 94806.6 30
  122.0963 30648 9
  132.0809 35145.5 11
  135.0678 315205.4 100
  149.0834 15969.9 5
  150.0912 3121755.5 999
//
