ACCESSION: MSBNK-Eawag-EQ367303
RECORD_TITLE: Dimethyl-phthalate; LC-ESI-QFT; MS2; CE: 45; R=35000; [M+H]+
DATE: 2015.08.25
AUTHORS: Stravs M, Schymanski E, Singer H, Department of Environmental Chemistry, Eawag and Thomaidis N, University of Athens
LICENSE: CC BY
COPYRIGHT: Copyright (C) 2015 Eawag, Duebendorf, Switzerland
COMMENT: CONFIDENCE standard compound
COMMENT: EAWAG_UCHEM_ID 3673
CH$NAME: Dimethyl-phthalate
CH$NAME: Dimethyl phthalate
CH$NAME: Dimethyl benzene-1,2-dicarboxylate
CH$COMPOUND_CLASS: N/A; Environmental Standard
CH$FORMULA: C10H10O4
CH$EXACT_MASS: 194.05791
CH$SMILES: COC(=O)C1=CC=CC=C1C(=O)OC
CH$IUPAC: InChI=1S/C10H10O4/c1-13-9(11)7-5-3-4-6-8(7)10(12)14-2/h3-6H,1-2H3
CH$LINK: CAS 131-11-3
CH$LINK: CHEBI CHEBI:4609
CH$LINK: KEGG C11233
CH$LINK: PUBCHEM CID:8554
CH$LINK: INCHIKEY NIQCNGHVCWTJSM-UHFFFAOYSA-N
CH$LINK: CHEMSPIDER 13837329
CH$LINK: COMPTOX DTXSID3022455
AC$INSTRUMENT: Q Exactive Plus Orbitrap Thermo Scientific
AC$INSTRUMENT_TYPE: LC-ESI-QFT
AC$MASS_SPECTROMETRY: MS_TYPE MS2
AC$MASS_SPECTROMETRY: ION_MODE POSITIVE
AC$MASS_SPECTROMETRY: IONIZATION ESI
AC$MASS_SPECTROMETRY: FRAGMENTATION_MODE HCD
AC$MASS_SPECTROMETRY: COLLISION_ENERGY 45 (nominal)
AC$MASS_SPECTROMETRY: RESOLUTION 35000
AC$CHROMATOGRAPHY: COLUMN_NAME XBridge C18 3.5um, 2.1x50mm, Waters
AC$CHROMATOGRAPHY: FLOW_GRADIENT 90/10 at 0 min, 50/50 at 4 min, 5/95 at 17 min, 5/95 at 25 min, 90/10 at 25.1 min, 90/10 at 30 min
AC$CHROMATOGRAPHY: FLOW_RATE 200 ul/min
AC$CHROMATOGRAPHY: RETENTION_TIME 6.5 min
AC$CHROMATOGRAPHY: SOLVENT A water with 0.1% formic acid
AC$CHROMATOGRAPHY: SOLVENT B methanol with 0.1% formic acid
MS$FOCUSED_ION: BASE_PEAK 163.0386
MS$FOCUSED_ION: PRECURSOR_M/Z 195.0652
MS$FOCUSED_ION: PRECURSOR_TYPE [M+H]+
MS$DATA_PROCESSING: RECALIBRATE loess on assigned fragments and MS1
MS$DATA_PROCESSING: REANALYZE Peaks with additional N2/O included
MS$DATA_PROCESSING: WHOLE RMassBank 1.9.6
PK$SPLASH: splash10-03di-0900000000-b83c6a1b33adc5b2b008
PK$ANNOTATION: m/z tentative_formula formula_count mass error(ppm)
  77.0383 C6H5+ 1 77.0386 -4.11
  79.0542 C6H7+ 1 79.0542 -0.46
  95.0491 C6H7O+ 1 95.0491 0.09
  105.0448 C6H5N2+ 1 105.0447 0.43
  107.0491 C7H7O+ 1 107.0491 -0.67
  133.0285 C8H5O2+ 1 133.0284 0.41
  135.0441 C8H7O2+ 1 135.0441 0.03
  163.039 C9H7O3+ 1 163.039 -0.06
PK$NUM_PEAK: 8
PK$PEAK: m/z int. rel.int.
  77.0383 1452371 3
  79.0542 1500726.1 3
  95.0491 1057942.6 2
  105.0448 700938.6 1
  107.0491 499382.6 1
  133.0285 22145396 51
  135.0441 15574590 36
  163.039 429494880 999
//
