ACCESSION: MSBNK-Eawag-EA025513
RECORD_TITLE: Tebutam; LC-ESI-ITFT; MS2; CE: 90%; R=30000; [M+H]+
DATE: 2014.01.14
AUTHORS: Stravs M, Schymanski E, Singer H, Department of Environmental Chemistry, Eawag
LICENSE: CC BY
COPYRIGHT: Copyright (C) 2012 Eawag, Duebendorf, Switzerland
COMMENT: CONFIDENCE standard compound
COMMENT: EAWAG_UCHEM_ID 255
CH$NAME: Tebutam
CH$NAME: 2,2-dimethyl-N-(phenylmethyl)-N-propan-2-yl-propanamide
CH$NAME: N-Benzyl-N-isopropylpivalamide
CH$COMPOUND_CLASS: N/A; Environmental Standard
CH$FORMULA: C15H23NO
CH$EXACT_MASS: 233.1774
CH$SMILES: c1ccccc1CN(C(=O)C(C)(C)C)C(C)C
CH$IUPAC: InChI=1S/C15H23NO/c1-12(2)16(14(17)15(3,4)5)11-13-9-7-6-8-10-13/h6-10,12H,11H2,1-5H3
CH$LINK: CAS 35256-85-0
CH$LINK: PUBCHEM CID:92299
CH$LINK: INCHIKEY RJKCKKDSSSRYCB-UHFFFAOYSA-N
CH$LINK: CHEMSPIDER 83330
CH$LINK: COMPTOX DTXSID5041691
AC$INSTRUMENT: LTQ Orbitrap XL Thermo Scientific
AC$INSTRUMENT_TYPE: LC-ESI-ITFT
AC$MASS_SPECTROMETRY: MS_TYPE MS2
AC$MASS_SPECTROMETRY: ION_MODE POSITIVE
AC$MASS_SPECTROMETRY: IONIZATION ESI
AC$MASS_SPECTROMETRY: FRAGMENTATION_MODE HCD
AC$MASS_SPECTROMETRY: COLLISION_ENERGY 90 % (nominal)
AC$MASS_SPECTROMETRY: RESOLUTION 30000
AC$CHROMATOGRAPHY: COLUMN_NAME XBridge C18 3.5um, 2.1x50mm, Waters
AC$CHROMATOGRAPHY: FLOW_GRADIENT 90/10 at 0 min, 50/50 at 4 min, 5/95 at 17 min, 5/95 at 25 min, 90/10 at 25.1 min, 90/10 at 30 min
AC$CHROMATOGRAPHY: FLOW_RATE 200 ul/min
AC$CHROMATOGRAPHY: RETENTION_TIME 11.7 min
AC$CHROMATOGRAPHY: SOLVENT A water with 0.1% formic acid
AC$CHROMATOGRAPHY: SOLVENT B methanol with 0.1% formic acid
MS$FOCUSED_ION: BASE_PEAK 234.1857
MS$FOCUSED_ION: PRECURSOR_M/Z 234.1852
MS$FOCUSED_ION: PRECURSOR_TYPE [M+H]+
MS$DATA_PROCESSING: DEPROFILE Spline
MS$DATA_PROCESSING: RECALIBRATE loess on assigned fragments and MS1
MS$DATA_PROCESSING: REANALYZE Peaks with additional N2/O included
MS$DATA_PROCESSING: WHOLE RMassBank 1.3.1
PK$SPLASH: splash10-0006-9000000000-f1a126aa64a8129a6ef1
PK$ANNOTATION: m/z tentative_formula formula_count mass error(ppm)
  57.0698 C4H9+ 1 57.0699 -0.64
  58.0651 C3H8N+ 1 58.0651 -0.61
  65.0386 C5H5+ 1 65.0386 -0.1
  91.0543 C7H7+ 1 91.0542 1.03
  105.0699 C8H9+ 1 105.0699 0.32
  133.1012 C10H13+ 1 133.1012 0.32
PK$NUM_PEAK: 6
PK$PEAK: m/z int. rel.int.
  57.0698 60802.2 8
  58.0651 21034.6 2
  65.0386 113174.6 14
  91.0543 7590859.4 999
  105.0699 49594.2 6
  133.1012 33507.5 4
//
