ACCESSION: MSBNK-Eawag-EQ357858
RECORD_TITLE: Aspirin; LC-ESI-QFT; MS2; CE: 150; R=35000; [M-H]-
DATE: 2015.08.26
AUTHORS: Stravs M, Schymanski E, Singer H, Department of Environmental Chemistry, Eawag and Thomaidis N, University of Athens
LICENSE: CC BY
COPYRIGHT: Copyright (C) 2015 Eawag, Duebendorf, Switzerland
COMMENT: CONFIDENCE standard compound
COMMENT: EAWAG_UCHEM_ID 3578
CH$NAME: Aspirin
CH$NAME: Acetyl salicilic acid
CH$NAME: 2-acetyloxybenzoic acid
CH$COMPOUND_CLASS: N/A; Environmental Standard
CH$FORMULA: C9H8O4
CH$EXACT_MASS: 180.04226
CH$SMILES: CC(=O)OC1=CC=CC=C1C(=O)O
CH$IUPAC: InChI=1S/C9H8O4/c1-6(10)13-8-5-3-2-4-7(8)9(11)12/h2-5H,1H3,(H,11,12)
CH$LINK: CAS 11126-35-5
CH$LINK: CHEBI CHEBI:15365
CH$LINK: KEGG C01405
CH$LINK: PUBCHEM CID:2244
CH$LINK: INCHIKEY BSYNRYMUTXBXSQ-UHFFFAOYSA-N
CH$LINK: CHEMSPIDER 2157
CH$LINK: COMPTOX DTXSID5020108
AC$INSTRUMENT: Q Exactive Plus Orbitrap Thermo Scientific
AC$INSTRUMENT_TYPE: LC-ESI-QFT
AC$MASS_SPECTROMETRY: MS_TYPE MS2
AC$MASS_SPECTROMETRY: ION_MODE NEGATIVE
AC$MASS_SPECTROMETRY: IONIZATION ESI
AC$MASS_SPECTROMETRY: FRAGMENTATION_MODE HCD
AC$MASS_SPECTROMETRY: COLLISION_ENERGY 150 (nominal)
AC$MASS_SPECTROMETRY: RESOLUTION 35000
AC$CHROMATOGRAPHY: COLUMN_NAME XBridge C18 3.5um, 2.1x50mm, Waters
AC$CHROMATOGRAPHY: FLOW_GRADIENT 90/10 at 0 min, 50/50 at 4 min, 5/95 at 17 min, 5/95 at 25 min, 90/10 at 25.1 min, 90/10 at 30 min
AC$CHROMATOGRAPHY: FLOW_RATE 200 ul/min
AC$CHROMATOGRAPHY: RETENTION_TIME 5.5 min
AC$CHROMATOGRAPHY: SOLVENT A water with 0.1% formic acid
AC$CHROMATOGRAPHY: SOLVENT B methanol with 0.1% formic acid
MS$FOCUSED_ION: BASE_PEAK 137.0242
MS$FOCUSED_ION: PRECURSOR_M/Z 179.035
MS$FOCUSED_ION: PRECURSOR_TYPE [M-H]-
MS$DATA_PROCESSING: RECALIBRATE loess on assigned fragments and MS1
MS$DATA_PROCESSING: REANALYZE Peaks with additional N2/O included
MS$DATA_PROCESSING: WHOLE RMassBank 1.9.6
PK$SPLASH: splash10-00kf-9000000000-4611655c6aff89d706eb
PK$ANNOTATION: m/z tentative_formula formula_count mass error(ppm)
  59.0138 C2H3O2- 1 59.0139 -0.22
  65.0397 C5H5- 1 65.0397 -0.06
  67.0189 C4H3O- 1 67.0189 -0.12
  75.024 C6H3- 1 75.024 0.22
  93.0346 C6H5O- 1 93.0346 -0.3
  94.038 CH6N2O3- 1 94.0384 -3.83
PK$NUM_PEAK: 6
PK$PEAK: m/z int. rel.int.
  59.0138 30376.4 318
  65.0397 62184.9 651
  67.0189 1767.4 18
  75.024 7555.6 79
  93.0346 95389.8 999
  94.038 515.6 5
//
