ACCESSION: MSBNK-Eawag-EA013208
RECORD_TITLE: Prometon; LC-ESI-ITFT; MS2; CE: 15%; R=15000; [M+H]+
DATE: 2014.01.14
AUTHORS: Stravs M, Schymanski E, Singer H, Department of Environmental Chemistry, Eawag
LICENSE: CC BY
COPYRIGHT: Copyright (C) 2012 Eawag, Duebendorf, Switzerland
COMMENT: CONFIDENCE standard compound
COMMENT: EAWAG_UCHEM_ID 132
CH$NAME: Prometon
CH$NAME: 6-methoxy-2-N,4-N-di(propan-2-yl)-1,3,5-triazine-2,4-diamine
CH$COMPOUND_CLASS: N/A; Environmental Standard
CH$FORMULA: C10H19N5O
CH$EXACT_MASS: 225.1584
CH$SMILES: c1(nc(NC(C)C)nc(n1)OC)NC(C)C
CH$IUPAC: InChI=1S/C10H19N5O/c1-6(2)11-8-13-9(12-7(3)4)15-10(14-8)16-5/h6-7H,1-5H3,(H2,11,12,13,14,15)
CH$LINK: CAS 1610-18-0
CH$LINK: CHEBI CHEBI:34934
CH$LINK: KEGG C14186
CH$LINK: PUBCHEM CID:4928
CH$LINK: INCHIKEY ISEUFVQQFVOBCY-UHFFFAOYSA-N
CH$LINK: CHEMSPIDER 4759
CH$LINK: COMPTOX DTXSID6022341
AC$INSTRUMENT: LTQ Orbitrap XL Thermo Scientific
AC$INSTRUMENT_TYPE: LC-ESI-ITFT
AC$MASS_SPECTROMETRY: MS_TYPE MS2
AC$MASS_SPECTROMETRY: ION_MODE POSITIVE
AC$MASS_SPECTROMETRY: IONIZATION ESI
AC$MASS_SPECTROMETRY: FRAGMENTATION_MODE HCD
AC$MASS_SPECTROMETRY: COLLISION_ENERGY 15 % (nominal)
AC$MASS_SPECTROMETRY: RESOLUTION 15000
AC$CHROMATOGRAPHY: COLUMN_NAME XBridge C18 3.5um, 2.1x50mm, Waters
AC$CHROMATOGRAPHY: FLOW_GRADIENT 90/10 at 0 min, 50/50 at 4 min, 5/95 at 17 min, 5/95 at 25 min, 90/10 at 25.1 min, 90/10 at 30 min
AC$CHROMATOGRAPHY: FLOW_RATE 200 ul/min
AC$CHROMATOGRAPHY: RETENTION_TIME 6.7 min
AC$CHROMATOGRAPHY: SOLVENT A water with 0.1% formic acid
AC$CHROMATOGRAPHY: SOLVENT B methanol with 0.1% formic acid
MS$FOCUSED_ION: BASE_PEAK 226.1662
MS$FOCUSED_ION: PRECURSOR_M/Z 226.1662
MS$FOCUSED_ION: PRECURSOR_TYPE [M+H]+
MS$DATA_PROCESSING: DEPROFILE Spline
MS$DATA_PROCESSING: RECALIBRATE loess on assigned fragments and MS1
MS$DATA_PROCESSING: REANALYZE Peaks with additional N2/O included
MS$DATA_PROCESSING: WHOLE RMassBank 1.3.1
PK$SPLASH: splash10-004i-0090000000-0ab2c390a2b71fcd27f4
PK$ANNOTATION: m/z tentative_formula formula_count mass error(ppm)
  184.1195 C7H14N5O+ 1 184.1193 0.89
  211.1418 C9H17N5O+ 1 211.1428 -4.41
  226.1662 C10H20N5O+ 1 226.1662 -0.03
PK$NUM_PEAK: 3
PK$PEAK: m/z int. rel.int.
  184.1195 113021.7 3
  211.1418 45096.3 1
  226.1662 35878251.3 999
//
