ACCESSION: MSBNK-Eawag-EQ364203
RECORD_TITLE: Flumequine; LC-ESI-QFT; MS2; CE: 45; R=35000; [M+H]+
DATE: 2015.08.25
AUTHORS: Stravs M, Schymanski E, Singer H, Department of Environmental Chemistry, Eawag and Thomaidis N, University of Athens
LICENSE: CC BY
COPYRIGHT: Copyright (C) 2015 Eawag, Duebendorf, Switzerland
COMMENT: CONFIDENCE standard compound
COMMENT: EAWAG_UCHEM_ID 3642
CH$NAME: Flumequine
CH$NAME: 9-Fluoro-5-methyl-1-oxo-6,7-dihydro-1H,5H-pyrido[3,2,1-ij]quinoline-2-carboxylic acid
CH$COMPOUND_CLASS: N/A; Environmental Standard
CH$FORMULA: C14H12FNO3
CH$EXACT_MASS: 261.08012
CH$SMILES: CC1CCC2=C3N1C=C(C(=O)C3=CC(=C2)F)C(=O)O
CH$IUPAC: InChI=1S/C14H12FNO3/c1-7-2-3-8-4-9(15)5-10-12(8)16(7)6-11(13(10)17)14(18)19/h4-7H,2-3H2,1H3,(H,18,19)
CH$LINK: CAS 143984-63-8
CH$LINK: PUBCHEM CID:3374
CH$LINK: INCHIKEY DPSPPJIUMHPXMA-UHFFFAOYSA-N
CH$LINK: CHEMSPIDER 3257
CH$LINK: COMPTOX DTXSID5045623
AC$INSTRUMENT: Q Exactive Plus Orbitrap Thermo Scientific
AC$INSTRUMENT_TYPE: LC-ESI-QFT
AC$MASS_SPECTROMETRY: MS_TYPE MS2
AC$MASS_SPECTROMETRY: ION_MODE POSITIVE
AC$MASS_SPECTROMETRY: IONIZATION ESI
AC$MASS_SPECTROMETRY: FRAGMENTATION_MODE HCD
AC$MASS_SPECTROMETRY: COLLISION_ENERGY 45 (nominal)
AC$MASS_SPECTROMETRY: RESOLUTION 35000
AC$CHROMATOGRAPHY: COLUMN_NAME XBridge C18 3.5um, 2.1x50mm, Waters
AC$CHROMATOGRAPHY: FLOW_GRADIENT 90/10 at 0 min, 50/50 at 4 min, 5/95 at 17 min, 5/95 at 25 min, 90/10 at 25.1 min, 90/10 at 30 min
AC$CHROMATOGRAPHY: FLOW_RATE 200 ul/min
AC$CHROMATOGRAPHY: RETENTION_TIME 7.3 min
AC$CHROMATOGRAPHY: SOLVENT A water with 0.1% formic acid
AC$CHROMATOGRAPHY: SOLVENT B methanol with 0.1% formic acid
MS$FOCUSED_ION: BASE_PEAK 262.0868
MS$FOCUSED_ION: PRECURSOR_M/Z 262.0874
MS$FOCUSED_ION: PRECURSOR_TYPE [M+H]+
MS$DATA_PROCESSING: RECALIBRATE loess on assigned fragments and MS1
MS$DATA_PROCESSING: REANALYZE Peaks with additional N2/O included
MS$DATA_PROCESSING: WHOLE RMassBank 1.9.6
PK$SPLASH: splash10-01ox-0090000000-13657a0f167139ce56f3
PK$ANNOTATION: m/z tentative_formula formula_count mass error(ppm)
  174.0345 C10H5FNO+ 2 174.035 -2.81
  176.0864 C11H11FN+ 1 176.087 -3.43
  202.0298 C11H5FNO2+ 1 202.0299 -0.51
  220.0405 C11H7FNO3+ 1 220.0404 0.33
  238.0509 C14H8NO3+ 1 238.0499 4.16
  244.0768 C14H11FNO2+ 1 244.0768 -0.14
  262.0873 C14H13FNO3+ 1 262.0874 -0.26
  264.0916 C13H13FN2O3+ 1 264.0905 4.39
PK$NUM_PEAK: 9
PK$PEAK: m/z int. rel.int.
  174.0345 205052.1 1
  176.0864 309167.7 1
  202.0298 7112237 37
  220.0405 5742287 30
  238.0509 911837.7 4
  244.0768 190045152 999
  262.0873 146962656 772
  264.0916 347457 1
  276.1029 3355819.75 17
//
