ACCESSION: MSBNK-Eawag-EQ01094301
RECORD_TITLE: Flocoumafen; LC-ESI-QFT; MS2; CE: 15%; R=17500; [M+H]+
DATE: 2023.06.16
AUTHORS: B. Beck [dtc,com], J. Hollender [dtc]
LICENSE: CC BY-SA
COPYRIGHT: Copyright (C) Eawag 2023
COMMENT: CONFIDENCE standard compound
COMMENT: UCHEM_ID 10943
CH$NAME: Flocoumafen
CH$NAME: 4-hydroxy-3-[3-[4-[[4-(trifluoromethyl)phenyl]methoxy]phenyl]-1,2,3,4-tetrahydronaphthalen-1-yl]chromen-2-one
CH$COMPOUND_CLASS: N/A; Environmental Standard
CH$FORMULA: C33H25F3O4
CH$EXACT_MASS: 542.1705
CH$SMILES: C1C(CC2=CC=CC=C2C1C3=C(C4=CC=CC=C4OC3=O)O)C5=CC=C(C=C5)OCC6=CC=C(C=C6)C(F)(F)F
CH$IUPAC: InChI=1S/C33H25F3O4/c34-33(35,36)24-13-9-20(10-14-24)19-39-25-15-11-21(12-16-25)23-17-22-5-1-2-6-26(22)28(18-23)30-31(37)27-7-3-4-8-29(27)40-32(30)38/h1-16,23,28,37H,17-19H2
CH$LINK: CAS 90035-08-8
CH$LINK: CHEBI CHEBI:81894
CH$LINK: KEGG C18696
CH$LINK: PUBCHEM CID:54698175
CH$LINK: INCHIKEY KKBGNYHHEIAGOH-UHFFFAOYSA-N
CH$LINK: CHEMSPIDER 10469214
AC$INSTRUMENT: Exploris 240 Orbitrap Thermo Scientific
AC$INSTRUMENT_TYPE: LC-ESI-QFT
AC$MASS_SPECTROMETRY: MS_TYPE MS2
AC$MASS_SPECTROMETRY: ION_MODE POSITIVE
AC$MASS_SPECTROMETRY: IONIZATION ESI
AC$MASS_SPECTROMETRY: FRAGMENTATION_MODE HCD
AC$MASS_SPECTROMETRY: COLLISION_ENERGY 15 % (nominal)
AC$MASS_SPECTROMETRY: RESOLUTION 17500
AC$MASS_SPECTROMETRY: MASS_RANGE_M/Z 57-575
AC$CHROMATOGRAPHY: COLUMN_NAME XBridge C18 3.5um, 2.1x50mm, Waters
AC$CHROMATOGRAPHY: FLOW_GRADIENT 90/10 at 0 min, 50/50 at 4 min, 5/95 at 17 min, 5/95 at 25 min, 90/10 at 25.1 min, 90/10 at 30 min
AC$CHROMATOGRAPHY: FLOW_RATE 200 uL/min
AC$CHROMATOGRAPHY: RETENTION_TIME 15.796 min
MS$FOCUSED_ION: BASE_PEAK 543.1776
MS$FOCUSED_ION: PRECURSOR_M/Z 543.1778
MS$FOCUSED_ION: PRECURSOR_TYPE [M+H]+
MS$DATA_PROCESSING: RECALIBRATE loess on assigned fragments and MS1
MS$DATA_PROCESSING: REANALYZE Peaks with additional N2/O included
MS$DATA_PROCESSING: WHOLE RMassBank 3.11.0.1
PK$SPLASH: splash10-0006-0000090000-5e84c303838e9f00d69d
PK$ANNOTATION: m/z tentative_formula formula_count mass error(ppm)
  291.1018 C19H15O3+ 2 291.1016 0.83
  503.1642 C33H24FO4+ 1 503.1653 -2.31
  543.1776 C33H26F3O4+ 1 543.1778 -0.29
PK$NUM_PEAK: 3
PK$PEAK: m/z int. rel.int.
  291.1018 2158716.5 55
  503.1642 418033.2 10
  543.1776 38968708 999
//
