ACCESSION: MSBNK-Eawag-EA013504
RECORD_TITLE: Metalaxyl; LC-ESI-ITFT; MS2; CE: 45%; R=7500; [M+H]+
DATE: 2014.01.14
AUTHORS: Stravs M, Schymanski E, Singer H, Department of Environmental Chemistry, Eawag
LICENSE: CC BY
COPYRIGHT: Copyright (C) 2012 Eawag, Duebendorf, Switzerland
COMMENT: CONFIDENCE standard compound
COMMENT: EAWAG_UCHEM_ID 135
CH$NAME: Metalaxyl
CH$NAME: 2-(N-(2-methoxy-1-oxoethyl)-2,6-dimethylanilino)propanoic acid methyl ester
CH$COMPOUND_CLASS: N/A; Environmental Standard
CH$FORMULA: C15H21NO4
CH$EXACT_MASS: 279.1465
CH$SMILES: CC1=C(C(=CC=C1)C)N(C(C)C(=O)OC)C(=O)COC
CH$IUPAC: InChI=1S/C15H21NO4/c1-10-7-6-8-11(2)14(10)16(13(17)9-19-4)12(3)15(18)20-5/h6-8,12H,9H2,1-5H3
CH$LINK: CAS 57837-19-1
CH$LINK: KEGG C10947
CH$LINK: PUBCHEM CID:42856
CH$LINK: INCHIKEY ZQEIXNIJLIKNTD-UHFFFAOYSA-N
CH$LINK: CHEMSPIDER 38839
CH$LINK: COMPTOX DTXSID6024175
AC$INSTRUMENT: LTQ Orbitrap XL Thermo Scientific
AC$INSTRUMENT_TYPE: LC-ESI-ITFT
AC$MASS_SPECTROMETRY: MS_TYPE MS2
AC$MASS_SPECTROMETRY: ION_MODE POSITIVE
AC$MASS_SPECTROMETRY: IONIZATION ESI
AC$MASS_SPECTROMETRY: FRAGMENTATION_MODE HCD
AC$MASS_SPECTROMETRY: COLLISION_ENERGY 45 % (nominal)
AC$MASS_SPECTROMETRY: RESOLUTION 7500
AC$CHROMATOGRAPHY: COLUMN_NAME XBridge C18 3.5um, 2.1x50mm, Waters
AC$CHROMATOGRAPHY: FLOW_GRADIENT 90/10 at 0 min, 50/50 at 4 min, 5/95 at 17 min, 5/95 at 25 min, 90/10 at 25.1 min, 90/10 at 30 min
AC$CHROMATOGRAPHY: FLOW_RATE 200 ul/min
AC$CHROMATOGRAPHY: RETENTION_TIME 8.7 min
AC$CHROMATOGRAPHY: SOLVENT A water with 0.1% formic acid
AC$CHROMATOGRAPHY: SOLVENT B methanol with 0.1% formic acid
MS$FOCUSED_ION: BASE_PEAK 302.1365
MS$FOCUSED_ION: PRECURSOR_M/Z 280.1543
MS$FOCUSED_ION: PRECURSOR_TYPE [M+H]+
MS$DATA_PROCESSING: DEPROFILE Spline
MS$DATA_PROCESSING: RECALIBRATE loess on assigned fragments and MS1
MS$DATA_PROCESSING: REANALYZE Peaks with additional N2/O included
MS$DATA_PROCESSING: WHOLE RMassBank 1.3.1
PK$SPLASH: splash10-01ox-0910000000-33ece08e09c98f660242
PK$ANNOTATION: m/z tentative_formula formula_count mass error(ppm)
  121.0883 C8H11N+ 1 121.0886 -2.81
  132.0809 C9H10N+ 1 132.0808 0.71
  133.0886 C9H11N+ 1 133.0886 0.14
  134.0963 C9H12N+ 1 134.0964 -0.71
  145.0888 C10H11N+ 1 145.0886 1.37
  146.0963 C10H12N+ 1 146.0964 -0.59
  148.112 C10H14N+ 1 148.1121 -0.31
  158.0964 C11H12N+ 1 158.0964 -0.04
  160.1121 C11H14N+ 1 160.1121 0.21
  162.1277 C11H16N+ 1 162.1277 -0.41
  165.1146 C10H15NO+ 1 165.1148 -1.12
  188.1071 C12H14NO+ 1 188.107 0.64
  192.1383 C12H18NO+ 1 192.1383 0.26
  208.1327 C12H18NO2+ 1 208.1332 -2.62
  220.1331 C13H18NO2+ 1 220.1332 -0.52
PK$NUM_PEAK: 15
PK$PEAK: m/z int. rel.int.
  121.0883 10907 3
  132.0809 26189 8
  133.0886 99866.5 31
  134.0963 163116.7 50
  145.0888 43846 13
  146.0963 147650.1 45
  148.112 491079.6 152
  158.0964 10422.4 3
  160.1121 2235358.4 694
  162.1277 350019.6 108
  165.1146 124650.2 38
  188.1071 36914.5 11
  192.1383 3216876.7 999
  208.1327 13807.8 4
  220.1331 839064.2 260
//
