ACCESSION: MSBNK-Eawag-EA273402
RECORD_TITLE: Azoxystrobin (free acid); LC-ESI-ITFT; MS2; CE: 15%; R=7500; [M+H]+
DATE: 2014.01.14
AUTHORS: Stravs M, Schymanski E, Singer H, Department of Environmental Chemistry, Eawag
LICENSE: CC BY
COPYRIGHT: Copyright (C) 2012 Eawag, Duebendorf, Switzerland
COMMENT: CONFIDENCE standard compound
COMMENT: EAWAG_UCHEM_ID 2734
CH$NAME: Azoxystrobin (free acid)
CH$COMPOUND_CLASS: N/A; Environmental Standard
CH$FORMULA: C21H15N3O5
CH$EXACT_MASS: 389.1012
CH$SMILES: O=C(O)/C(=C\OC)c3ccccc3Oc2cc(Oc1ccccc1C#N)ncn2
CH$IUPAC: InChI=1S/C21H15N3O5/c1-27-12-16(21(25)26)15-7-3-5-9-18(15)29-20-10-19(23-13-24-20)28-17-8-4-2-6-14(17)11-22/h2-10,12-13H,1H3,(H,25,26)/b16-12-
CH$LINK: CAS 1185255-09-7
CH$LINK: PUBCHEM CID:21584515
CH$LINK: INCHIKEY IKCXDZCEWZARFL-VBKFSLOCSA-N
CH$LINK: CHEMSPIDER 28184900
AC$INSTRUMENT: LTQ Orbitrap XL Thermo Scientific
AC$INSTRUMENT_TYPE: LC-ESI-ITFT
AC$MASS_SPECTROMETRY: MS_TYPE MS2
AC$MASS_SPECTROMETRY: ION_MODE POSITIVE
AC$MASS_SPECTROMETRY: IONIZATION ESI
AC$MASS_SPECTROMETRY: FRAGMENTATION_MODE HCD
AC$MASS_SPECTROMETRY: COLLISION_ENERGY 15 % (nominal)
AC$MASS_SPECTROMETRY: RESOLUTION 7500
AC$CHROMATOGRAPHY: COLUMN_NAME XBridge C18 3.5um, 2.1x50mm, Waters
AC$CHROMATOGRAPHY: FLOW_GRADIENT 90/10 at 0 min, 50/50 at 4 min, 5/95 at 17 min, 5/95 at 25 min, 90/10 at 25.1 min, 90/10 at 30 min
AC$CHROMATOGRAPHY: FLOW_RATE 200 ul/min
AC$CHROMATOGRAPHY: RETENTION_TIME 8.8 min
AC$CHROMATOGRAPHY: SOLVENT A water with 0.1% formic acid
AC$CHROMATOGRAPHY: SOLVENT B methanol with 0.1% formic acid
MS$FOCUSED_ION: BASE_PEAK 390.1088
MS$FOCUSED_ION: PRECURSOR_M/Z 390.1084
MS$FOCUSED_ION: PRECURSOR_TYPE [M+H]+
MS$DATA_PROCESSING: DEPROFILE Spline
MS$DATA_PROCESSING: RECALIBRATE loess on assigned fragments and MS1
MS$DATA_PROCESSING: REANALYZE Peaks with additional N2/O included
MS$DATA_PROCESSING: WHOLE RMassBank 1.3.1
PK$SPLASH: splash10-00di-0009000000-713b29d7ce4e5efc5ef7
PK$ANNOTATION: m/z tentative_formula formula_count mass error(ppm)
  344.1024 C20H14N3O3+ 1 344.103 -1.71
  346.1189 C20H16N3O3+ 1 346.1186 0.87
  372.0983 C21H14N3O4+ 1 372.0979 1.01
  373.0698 C20H11N3O5+ 1 373.0693 1.34
  390.1089 C21H16N3O5+ 1 390.1084 1.24
PK$NUM_PEAK: 5
PK$PEAK: m/z int. rel.int.
  344.1024 86175.2 1
  346.1189 1060662.8 18
  372.0983 57208799.8 999
  373.0698 59733.7 1
  390.1089 6496739.6 113
//
