ACCESSION: MSBNK-Eawag-EQ417002
RECORD_TITLE: Metalaxyl-M-TP CGA108906; LC-ESI-QFT; MS2; CE: 30%; R=17500; [M+H]+
DATE: 2019.12.03
AUTHORS: K. Kiefer [dtc], J. Hollender [dtc], H. Singer [dtc], M. Stravs [com]
LICENSE: CC BY-SA
COPYRIGHT: Copyright (C) Eawag 2019
PUBLICATION: Kiefer, K.; Mueller, A.; Singer, H.; Hollender, J. New relevant pesticide transformation products in groundwater detected using target and suspect screening for agricultural and urban micropollutants with LC-HRMS. Water Research 2019, 165. DOI: https://doi.org/10.1016/j.watres.2019.114972
COMMENT: CONFIDENCE standard compound
COMMENT: UCHEM_ID 4170
CH$NAME: Metalaxyl-M-TP CGA108906
CH$NAME: 2-[1-carboxyethyl-(2-methoxyacetyl)amino]-3-methylbenzoic acid
CH$COMPOUND_CLASS: N/A; Environmental Standard
CH$FORMULA: C14H17NO6
CH$EXACT_MASS: 295.1056
CH$SMILES: COCC(=O)N(C(C)C(O)=O)C1=C(C=CC=C1C)C(O)=O
CH$IUPAC: InChI=1S/C14H17NO6/c1-8-5-4-6-10(14(19)20)12(8)15(9(2)13(17)18)11(16)7-21-3/h4-6,9H,7H2,1-3H3,(H,17,18)(H,19,20)
CH$LINK: PUBCHEM CID:117065479
CH$LINK: INCHIKEY WFTHOCDLKYPFJX-UHFFFAOYSA-N
CH$LINK: CHEMSPIDER 48062958
AC$INSTRUMENT: Q Exactive Plus Orbitrap Thermo Scientific
AC$INSTRUMENT_TYPE: LC-ESI-QFT
AC$MASS_SPECTROMETRY: MS_TYPE MS2
AC$MASS_SPECTROMETRY: ION_MODE POSITIVE
AC$MASS_SPECTROMETRY: IONIZATION ESI
AC$MASS_SPECTROMETRY: FRAGMENTATION_MODE HCD
AC$MASS_SPECTROMETRY: COLLISION_ENERGY 30 % (nominal)
AC$MASS_SPECTROMETRY: RESOLUTION 17500
AC$CHROMATOGRAPHY: COLUMN_NAME XBridge C18 3.5um, 2.1x50mm, Waters
AC$CHROMATOGRAPHY: FLOW_GRADIENT 90/10 at 0 min, 50/50 at 4 min, 5/95 at 17 min, 5/95 at 25 min, 90/10 at 25.1 min, 90/10 at 30 min
AC$CHROMATOGRAPHY: FLOW_RATE 200 uL/min
AC$CHROMATOGRAPHY: RETENTION_TIME 5.723 min
AC$CHROMATOGRAPHY: SOLVENT A water with 0.1% formic acid
AC$CHROMATOGRAPHY: SOLVENT B MeOH with 0.1% formic acid
MS$FOCUSED_ION: BASE_PEAK 296.1129
MS$FOCUSED_ION: PRECURSOR_M/Z 296.1129
MS$FOCUSED_ION: PRECURSOR_TYPE [M+H]+
MS$DATA_PROCESSING: RECALIBRATE loess on assigned fragments and MS1
MS$DATA_PROCESSING: REANALYZE Peaks with additional N2/O included
MS$DATA_PROCESSING: WHOLE RMassBank 2.99.1
PK$SPLASH: splash10-03di-0910000000-442c1e8475398feccbe2
PK$ANNOTATION: m/z tentative_formula formula_count mass error(ppm)
  91.0544 C7H7+ 1 91.0542 1.7
  146.06 C9H8NO+ 1 146.06 -0.31
  160.0757 C10H10NO+ 1 160.0757 0.28
  162.0913 C10H12NO+ 1 162.0913 -0.04
  172.0753 C11H10NO+ 1 172.0757 -2.53
  178.0863 C10H12NO2+ 1 178.0863 0.14
  188.0703 C11H10NO2+ 1 188.0706 -1.81
  190.0862 C11H12NO2+ 1 190.0863 -0.31
  192.1014 C11H14NO2+ 1 192.1019 -2.82
  204.1017 C12H14NO2+ 1 204.1019 -0.82
  206.0813 C11H12NO3+ 1 206.0812 0.6
  208.0965 C11H14NO3+ 1 208.0968 -1.72
  218.0818 C12H12NO3+ 1 218.0812 2.88
  222.1125 C12H16NO3+ 1 222.1125 0.31
  224.0922 C11H14NO4+ 1 224.0917 2.22
  236.0917 C12H14NO4+ 1 236.0917 0.01
  246.0765 C13H12NO4+ 1 246.0761 1.87
  250.1075 C13H16NO4+ 1 250.1074 0.64
  278.1024 C14H16NO5+ 1 278.1023 0.34
PK$NUM_PEAK: 20
PK$PEAK: m/z int. rel.int.
  91.0544 408339.8 2
  96.7387 288437.9 1
  146.06 6972959.5 39
  160.0757 178363776 999
  162.0913 865013 4
  172.0753 678180.8 3
  178.0863 81009976 453
  188.0703 1545449.5 8
  190.0862 44353768 248
  192.1014 1421344.5 7
  204.1017 490170 2
  206.0813 8016556 44
  208.0965 2681384.8 15
  218.0818 361981.9 2
  222.1125 7429299.5 41
  224.0922 265198.6 1
  236.0917 29945132 167
  246.0765 433261.7 2
  250.1075 8851547 49
  278.1024 1587852.6 8
//
