ACCESSION: MSBNK-Eawag-EQ418052
RECORD_TITLE: Metolachlor-TP CGA 368208; LC-ESI-QFT; MS2; CE: 30%; R=17500; [M-H]-
DATE: 2019.12.03
AUTHORS: K. Kiefer [dtc], J. Hollender [dtc], H. Singer [dtc], M. Stravs [com]
LICENSE: CC BY-SA
COPYRIGHT: Copyright (C) Eawag 2019
PUBLICATION: Kiefer, K.; Mueller, A.; Singer, H.; Hollender, J. New relevant pesticide transformation products in groundwater detected using target and suspect screening for agricultural and urban micropollutants with LC-HRMS. Water Research 2019, 165. DOI: https://doi.org/10.1016/j.watres.2019.114972
COMMENT: CONFIDENCE standard compound
COMMENT: UCHEM_ID 4180
CH$NAME: Metolachlor-TP CGA 368208
CH$NAME: 2-(2-ethyl-6-methylanilino)-2-oxoethanesulfonic acid
CH$NAME: Acetochlor sulfonic acid
CH$COMPOUND_CLASS: N/A; Environmental Standard
CH$FORMULA: C11H15NO4S
CH$EXACT_MASS: 257.0722
CH$SMILES: CCC1=C(NC(=O)CS(O)(=O)=O)C(C)=CC=C1
CH$IUPAC: InChI=1S/C11H15NO4S/c1-3-9-6-4-5-8(2)11(9)12-10(13)7-17(14,15)16/h4-6H,3,7H2,1-2H3,(H,12,13)(H,14,15,16)
CH$LINK: PUBCHEM CID:71312480
CH$LINK: INCHIKEY QPVPJECIHVSBLZ-UHFFFAOYSA-N
CH$LINK: CHEMSPIDER 28274751
AC$INSTRUMENT: Q Exactive Orbitrap Thermo Scientific
AC$INSTRUMENT_TYPE: LC-ESI-QFT
AC$MASS_SPECTROMETRY: MS_TYPE MS2
AC$MASS_SPECTROMETRY: ION_MODE NEGATIVE
AC$MASS_SPECTROMETRY: IONIZATION ESI
AC$MASS_SPECTROMETRY: FRAGMENTATION_MODE HCD
AC$MASS_SPECTROMETRY: COLLISION_ENERGY 30 % (nominal)
AC$MASS_SPECTROMETRY: RESOLUTION 17500
AC$CHROMATOGRAPHY: COLUMN_NAME XBridge C18 3.5um, 2.1x50mm, Waters
AC$CHROMATOGRAPHY: FLOW_GRADIENT 90/10 at 0 min, 50/50 at 4 min, 5/95 at 17 min, 5/95 at 25 min, 90/10 at 25.1 min, 90/10 at 30 min
AC$CHROMATOGRAPHY: FLOW_RATE 200 uL/min
AC$CHROMATOGRAPHY: RETENTION_TIME 3.940 min
AC$CHROMATOGRAPHY: SOLVENT A water with 0.1% formic acid
AC$CHROMATOGRAPHY: SOLVENT B MeOH with 0.1% formic acid
MS$FOCUSED_ION: BASE_PEAK 256.0649
MS$FOCUSED_ION: PRECURSOR_M/Z 256.0649
MS$FOCUSED_ION: PRECURSOR_TYPE [M-H]-
MS$DATA_PROCESSING: RECALIBRATE loess on assigned fragments and MS1
MS$DATA_PROCESSING: REANALYZE Peaks with additional N2/O included
MS$DATA_PROCESSING: WHOLE RMassBank 2.99.1
PK$SPLASH: splash10-0a4i-2390000000-f3bf978f1627649e333c
PK$ANNOTATION: m/z tentative_formula formula_count mass error(ppm)
  76.9703 CHO2S- 1 76.9703 0.03
  79.9573 O3S- 1 79.9574 -0.33
  94.9809 CH3O3S- 1 94.9808 0.59
  120.9601 C2HO4S- 1 120.9601 0.31
  134.0976 C9H12N- 1 134.0975 0.72
  192.1036 C11H14NO2- 1 192.103 3.33
  256.065 C11H14NO4S- 1 256.0649 0.32
PK$NUM_PEAK: 7
PK$PEAK: m/z int. rel.int.
  76.9703 3709376 26
  79.9573 16063968 114
  94.9809 24146716 171
  120.9601 46329196 329
  134.0976 921174.8 6
  192.1036 1972802 14
  256.065 140385440 999
//
