ACCESSION: MSBNK-Eawag-EQ338156
RECORD_TITLE: Cetirizine N-Oxide; LC-ESI-QFT; MS2; CE: 90; R=35000; [M-H]-
DATE: 2015.08.26
AUTHORS: Beck B, Stravs M, Schymanski E, Singer H, Department of Environmental Chemistry, Eawag
LICENSE: CC BY
COPYRIGHT: Copyright (C) 2015 Eawag, Duebendorf, Switzerland
COMMENT: CONFIDENCE standard compound
COMMENT: EAWAG_UCHEM_ID 3381
CH$NAME: Cetirizine N-Oxide
CH$NAME: (R)-Cetirizine N-Oxide
CH$NAME: 2-[2-[4-[(4-chlorophenyl)-phenylmethyl]-1-oxidopiperazin-1-ium-1-yl]ethoxy]acetic acid
CH$COMPOUND_CLASS: N/A; Environmental Standard
CH$FORMULA: C21H25ClN2O4
CH$EXACT_MASS: 404.15028
CH$SMILES: C1C[N+](CCN1C(C2=CC=CC=C2)C3=CC=C(C=C3)Cl)(CCOCC(=O)O)[O-]
CH$IUPAC: InChI=1S/C21H25ClN2O4/c22-19-8-6-18(7-9-19)21(17-4-2-1-3-5-17)23-10-12-24(27,13-11-23)14-15-28-16-20(25)26/h1-9,21H,10-16H2,(H,25,26)
CH$LINK: CAS 1076199-80-8
CH$LINK: PUBCHEM CID:45038602
CH$LINK: INCHIKEY IVDOUUOLLFEMJQ-UHFFFAOYSA-N
CH$LINK: CHEMSPIDER 21896624
CH$LINK: COMPTOX DTXSID90891484
AC$INSTRUMENT: Q Exactive Plus Orbitrap Thermo Scientific
AC$INSTRUMENT_TYPE: LC-ESI-QFT
AC$MASS_SPECTROMETRY: MS_TYPE MS2
AC$MASS_SPECTROMETRY: ION_MODE NEGATIVE
AC$MASS_SPECTROMETRY: IONIZATION ESI
AC$MASS_SPECTROMETRY: FRAGMENTATION_MODE HCD
AC$MASS_SPECTROMETRY: COLLISION_ENERGY 90 (nominal)
AC$MASS_SPECTROMETRY: RESOLUTION 35000
AC$CHROMATOGRAPHY: COLUMN_NAME XBridge C18 3.5um, 2.1x50mm, Waters
AC$CHROMATOGRAPHY: FLOW_GRADIENT 90/10 at 0 min, 50/50 at 4 min, 5/95 at 17 min, 5/95 at 25 min, 90/10 at 25.1 min, 90/10 at 30 min
AC$CHROMATOGRAPHY: FLOW_RATE 200 ul/min
AC$CHROMATOGRAPHY: RETENTION_TIME 9.6 min
AC$CHROMATOGRAPHY: SOLVENT A water with 0.1% formic acid
AC$CHROMATOGRAPHY: SOLVENT B methanol with 0.1% formic acid
MS$FOCUSED_ION: BASE_PEAK 403.1428
MS$FOCUSED_ION: PRECURSOR_M/Z 403.143
MS$FOCUSED_ION: PRECURSOR_TYPE [M-H]-
MS$DATA_PROCESSING: RECALIBRATE loess on assigned fragments and MS1
MS$DATA_PROCESSING: REANALYZE Peaks with additional N2/O included
MS$DATA_PROCESSING: WHOLE RMassBank 1.9.6
PK$SPLASH: splash10-00di-9000000000-03c00fd84fb32d66af0b
PK$ANNOTATION: m/z tentative_formula formula_count mass error(ppm)
  55.0189 C3H3O- 1 55.0189 -1.24
  57.0346 C3H5O- 1 57.0346 -0.15
  58.006 C2H2O2- 1 58.006 -0.14
  59.0139 C2H3O2- 1 59.0139 0.12
  59.9853 CO3- 1 59.9853 0.63
  67.0301 C3H3N2- 1 67.0302 -0.62
  70.0299 C3H4NO- 1 70.0298 1.61
  72.9933 C2HO3- 1 72.9931 1.82
  75.0088 C2H3O3- 1 75.0088 1.1
  101.0245 C4H5O3- 1 101.0244 0.82
  103.0402 C4H7O3- 1 103.0401 1.38
  192.0822 C14H10N- 1 192.0819 1.81
PK$NUM_PEAK: 12
PK$PEAK: m/z int. rel.int.
  55.0189 28523.6 6
  57.0346 12313.2 2
  58.006 141850.8 31
  59.0139 92399.8 20
  59.9853 119996.9 26
  67.0301 9975.4 2
  70.0299 13876.3 3
  72.9933 4503334 999
  75.0088 2026873.5 449
  101.0245 81741 18
  103.0402 39213.4 8
  192.0822 7256.3 1
//
