ACCESSION: MSBNK-Eawag-EQ00309301
RECORD_TITLE: Fluazifop-butyl; LC-ESI-QFT; MS2; CE: 15%; R=15000; [M+H]+
DATE: 2024.06.14
AUTHORS: F. Jud [dtc], K. Arturi [dtc], J. Hollender [dtc], A. Dax [com]
LICENSE: CC BY-SA
COPYRIGHT: Copyright (C) Eawag 2024
COMMENT: CONFIDENCE standard compound
COMMENT: UCHEM_ID 3093
CH$NAME: Fluazifop-butyl
CH$NAME: butyl 2-[4-[5-(trifluoromethyl)pyridin-2-yl]oxyphenoxy]propanoate
CH$COMPOUND_CLASS: N/A
CH$FORMULA: C19H20F3NO4
CH$EXACT_MASS: 383.1344428
CH$SMILES: CCCCOC(=O)C(C)OC1=CC=C(OC2=CC=C(C=N2)C(F)(F)F)C=C1
CH$IUPAC: InChI=1S/C19H20F3NO4/c1-3-4-11-25-18(24)13(2)26-15-6-8-16(9-7-15)27-17-10-5-14(12-23-17)19(20,21)22/h5-10,12-13H,3-4,11H2,1-2H3
CH$LINK: CAS 79241-46-6
CH$LINK: CHEBI CHEBI:5097
CH$LINK: KEGG C11029
CH$LINK: PUBCHEM CID:50897
CH$LINK: INCHIKEY VAIZTNZGPYBOGF-UHFFFAOYSA-N
CH$LINK: CHEMSPIDER 46142
AC$INSTRUMENT: Q Exactive Plus
AC$INSTRUMENT_TYPE: LC-ESI-QFT
AC$MASS_SPECTROMETRY: MS_TYPE MS2
AC$MASS_SPECTROMETRY: ION_MODE POSITIVE
AC$MASS_SPECTROMETRY: IONIZATION ESI
AC$MASS_SPECTROMETRY: FRAGMENTATION_MODE HCD
AC$MASS_SPECTROMETRY: COLLISION_ENERGY 15 % (nominal)
AC$MASS_SPECTROMETRY: RESOLUTION 15000
AC$MASS_SPECTROMETRY: MASS_RANGE_M/Z 50-410
AC$CHROMATOGRAPHY: COLUMN_NAME XBridge C18 3.5um, 2.1x50mm, Waters
AC$CHROMATOGRAPHY: FLOW_GRADIENT 90/10 at 0 min, 50/50 at 4 min, 5/95 at 17 min, 5/95 at 25 min, 90/10 at 25.1 min, 90/10 at 30 min
AC$CHROMATOGRAPHY: FLOW_RATE 200 uL/min
AC$CHROMATOGRAPHY: RETENTION_TIME 13.597 min
MS$FOCUSED_ION: BASE_PEAK 384.142
MS$FOCUSED_ION: PRECURSOR_M/Z 384.1417
MS$FOCUSED_ION: PRECURSOR_TYPE [M+H]+
MS$FOCUSED_ION: PRECURSOR_INTENSITY 286626437.05
MS$DATA_PROCESSING: RECALIBRATE loess on assigned fragments and MS1
MS$DATA_PROCESSING: REANALYZE Peaks with additional N2/O included
MS$DATA_PROCESSING: WHOLE RMassBank 3.15.1.1
PK$SPLASH: splash10-001i-0019000000-a18ee5670fc464f5f72d
PK$ANNOTATION: m/z tentative_formula formula_count mass error(ppm)
  282.0736 C14H11F3NO2+ 2 282.0736 -0.1
  328.0791 C15H13F3NO4+ 2 328.0791 -0.11
  384.1418 C19H21F3NO4+ 1 384.1417 0.14
PK$NUM_PEAK: 3
PK$PEAK: m/z int. rel.int.
  282.0736 20178826 196
  328.0791 26758786 261
  384.1418 102365200 999
//
