ACCESSION: MSBNK-Eawag-EQ01101006
RECORD_TITLE: Nintedanib; LC-ESI-QFT; MS2; CE: 90%; R=15000; [M+H]+
DATE: 2024.06.14
AUTHORS: E. Ceppi [dtc], K. Fenner [dtc], A. Dax [com]
LICENSE: CC BY-SA
COPYRIGHT: Copyright (C) Eawag 2024
COMMENT: CONFIDENCE standard compound
COMMENT: UCHEM_ID 11010
CH$NAME: Nintedanib
CH$NAME: methyl 2-hydroxy-3-[N-[4-[methyl-[2-(4-methylpiperazin-1-yl)acetyl]amino]phenyl]-C-phenylcarbonimidoyl]-1H-indole-6-carboxylate
CH$NAME: methyl 3-[N-[4-[methyl-[2-(4-methylpiperazin-1-yl)ethanoyl]amino]phenyl]-C-phenyl-carbonimidoyl]-2-oxidanyl-1H-indole-6-carboxylate
CH$COMPOUND_CLASS: N/A
CH$FORMULA: C31H33N5O4
CH$EXACT_MASS: 539.2532545
CH$SMILES: CN1CCN(CC1)CC(=O)N(C)C2=CC=C(C=C2)N=C(C3=CC=CC=C3)C4=C(NC5=C4C=CC(=C5)C(=O)OC)O
CH$IUPAC: InChI=1S/C31H33N5O4/c1-34-15-17-36(18-16-34)20-27(37)35(2)24-12-10-23(11-13-24)32-29(21-7-5-4-6-8-21)28-25-14-9-22(31(39)40-3)19-26(25)33-30(28)38/h4-14,19,33,38H,15-18,20H2,1-3H3
CH$LINK: CHEBI CHEBI:85164
CH$LINK: PUBCHEM CID:135423438
CH$LINK: INCHIKEY CPMDPSXJELVGJG-UHFFFAOYSA-N
AC$INSTRUMENT: Q Exactive
AC$INSTRUMENT_TYPE: LC-ESI-QFT
AC$MASS_SPECTROMETRY: MS_TYPE MS2
AC$MASS_SPECTROMETRY: ION_MODE POSITIVE
AC$MASS_SPECTROMETRY: IONIZATION ESI
AC$MASS_SPECTROMETRY: FRAGMENTATION_MODE HCD
AC$MASS_SPECTROMETRY: COLLISION_ENERGY 90 % (nominal)
AC$MASS_SPECTROMETRY: RESOLUTION 15000
AC$MASS_SPECTROMETRY: MASS_RANGE_M/Z 50-570
AC$CHROMATOGRAPHY: COLUMN_NAME XBridge C18 3.5um, 2.1x50mm, Waters
AC$CHROMATOGRAPHY: FLOW_GRADIENT 90/10 at 0 min, 50/50 at 4 min, 5/95 at 17 min, 5/95 at 25 min, 90/10 at 25.1 min, 100/0 at 29.5 min
AC$CHROMATOGRAPHY: FLOW_RATE 200 uL/min
AC$CHROMATOGRAPHY: RETENTION_TIME 7.411 min
MS$FOCUSED_ION: BASE_PEAK 540.2603
MS$FOCUSED_ION: PRECURSOR_M/Z 540.2605
MS$FOCUSED_ION: PRECURSOR_TYPE [M+H]+
MS$FOCUSED_ION: PRECURSOR_INTENSITY 2345675397.16
MS$DATA_PROCESSING: RECALIBRATE loess on assigned fragments and MS1
MS$DATA_PROCESSING: REANALYZE Peaks with additional N2/O included
MS$DATA_PROCESSING: WHOLE RMassBank 3.15.1.1
PK$SPLASH: splash10-00di-9000000000-4dbe5796b543e9edb7f5
PK$ANNOTATION: m/z tentative_formula formula_count mass error(ppm)
  70.0651 C4H8N+ 1 70.0651 -0.33
  97.0762 C5H9N2+ 1 97.076 1.54
  98.0838 C5H10N2+ 1 98.0838 -0.08
PK$NUM_PEAK: 3
PK$PEAK: m/z int. rel.int.
  70.0651 231442848 999
  97.0762 3328629.8 14
  98.0838 31287430 135
//
