ACCESSION: MSBNK-Eawag-EA070112
RECORD_TITLE: Ritalinic acid; LC-ESI-ITFT; MS2; CE: 75%; R=15000; [M+H]+
DATE: 2014.01.14
AUTHORS: Stravs M, Schymanski E, Singer H, Department of Environmental Chemistry, Eawag
LICENSE: CC BY
COPYRIGHT: Copyright (C) 2012 Eawag, Duebendorf, Switzerland
COMMENT: CONFIDENCE standard compound
COMMENT: EAWAG_UCHEM_ID 701
CH$NAME: Ritalinic acid
CH$NAME: 2-phenyl-2-(2-piperidinyl)acetic acid
CH$COMPOUND_CLASS: N/A; Environmental Standard
CH$FORMULA: C13H17NO2
CH$EXACT_MASS: 219.1259
CH$SMILES: c(ccc1C(C(=O)O)C(NCC2)CC2)cc1
CH$IUPAC: InChI=1S/C13H17NO2/c15-13(16)12(10-6-2-1-3-7-10)11-8-4-5-9-14-11/h1-3,6-7,11-12,14H,4-5,8-9H2,(H,15,16)
CH$LINK: CAS 19395-41-6
CH$LINK: PUBCHEM CID:86863
CH$LINK: INCHIKEY INGSNVSERUZOAK-UHFFFAOYSA-N
CH$LINK: CHEMSPIDER 78360
CH$LINK: COMPTOX DTXSID20864888
AC$INSTRUMENT: LTQ Orbitrap XL Thermo Scientific
AC$INSTRUMENT_TYPE: LC-ESI-ITFT
AC$MASS_SPECTROMETRY: MS_TYPE MS2
AC$MASS_SPECTROMETRY: ION_MODE POSITIVE
AC$MASS_SPECTROMETRY: IONIZATION ESI
AC$MASS_SPECTROMETRY: FRAGMENTATION_MODE HCD
AC$MASS_SPECTROMETRY: COLLISION_ENERGY 75 % (nominal)
AC$MASS_SPECTROMETRY: RESOLUTION 15000
AC$CHROMATOGRAPHY: COLUMN_NAME XBridge C18 3.5um, 2.1x50mm, Waters
AC$CHROMATOGRAPHY: FLOW_GRADIENT 90/10 at 0 min, 50/50 at 4 min, 5/95 at 17 min, 5/95 at 25 min, 90/10 at 25.1 min, 90/10 at 30 min
AC$CHROMATOGRAPHY: FLOW_RATE 200 ul/min
AC$CHROMATOGRAPHY: RETENTION_TIME 4.7 min
AC$CHROMATOGRAPHY: SOLVENT A water with 0.1% formic acid
AC$CHROMATOGRAPHY: SOLVENT B methanol with 0.1% formic acid
MS$FOCUSED_ION: BASE_PEAK 220.1341
MS$FOCUSED_ION: PRECURSOR_M/Z 220.1332
MS$FOCUSED_ION: PRECURSOR_TYPE [M+H]+
MS$DATA_PROCESSING: DEPROFILE Spline
MS$DATA_PROCESSING: RECALIBRATE loess on assigned fragments and MS1
MS$DATA_PROCESSING: REANALYZE Peaks with additional N2/O included
MS$DATA_PROCESSING: WHOLE RMassBank 1.3.1
PK$SPLASH: splash10-001i-9000000000-77b8b619d738c3b695a6
PK$ANNOTATION: m/z tentative_formula formula_count mass error(ppm)
  56.0495 C3H6N+ 1 56.0495 0.08
  67.0544 C5H7+ 1 67.0542 2.73
  70.0652 C4H8N+ 1 70.0651 0.35
  82.0652 C5H8N+ 1 82.0651 0.78
  83.073 C5H9N+ 1 83.073 0.47
  84.0809 C5H10N+ 1 84.0808 1
  91.0543 C7H7+ 1 91.0542 0.59
  96.081 C6H10N+ 1 96.0808 2.44
  115.0542 C9H7+ 1 115.0542 -0.23
  117.0697 C9H9+ 1 117.0699 -1.25
  129.0699 C10H9+ 1 129.0699 0.1
  131.0855 C10H11+ 1 131.0855 -0.43
  146.0964 C10H12N+ 1 146.0964 0.1
  174.1278 C12H16N+ 1 174.1277 0.48
PK$NUM_PEAK: 14
PK$PEAK: m/z int. rel.int.
  56.0495 33544.6 10
  67.0544 5919.5 1
  70.0652 12919.3 4
  82.0652 6244.3 1
  83.073 8242 2
  84.0809 3209152.3 999
  91.0543 85759.9 26
  96.081 8756.3 2
  115.0542 18348.6 5
  117.0697 8266.6 2
  129.0699 62161.8 19
  131.0855 7003.3 2
  146.0964 29542.5 9
  174.1278 152714.4 47
//
