ACCESSION: MSBNK-Eawag-EQ363555
RECORD_TITLE: Topiramate; LC-ESI-QFT; MS2; CE: 75; R=35000; [M-H]-
DATE: 2015.08.26
AUTHORS: Stravs M, Schymanski E, Singer H, Department of Environmental Chemistry, Eawag and Thomaidis N, University of Athens
LICENSE: CC BY
COPYRIGHT: Copyright (C) 2015 Eawag, Duebendorf, Switzerland
COMMENT: CONFIDENCE standard compound
COMMENT: EAWAG_UCHEM_ID 3635
CH$NAME: Topiramate
CH$NAME: Topamax
CH$NAME: (2,2,7,7-tetramethyl-5,5a,8a,8b-tetrahydrodi[1,3]dioxolo[4,5-a:5`,3`-d]pyran-3a-yl)methyl sulfamate
CH$COMPOUND_CLASS: N/A; Environmental Standard
CH$FORMULA: C12H21NO8S
CH$EXACT_MASS: 339.09879
CH$SMILES: CC1(OC2COC3(C(C2O1)OC(O3)(C)C)COS(=O)(=O)N)C
CH$IUPAC: InChI=1S/C12H21NO8S/c1-10(2)18-7-5-16-12(6-17-22(13,14)15)9(8(7)19-10)20-11(3,4)21-12/h7-9H,5-6H2,1-4H3,(H2,13,14,15)
CH$LINK: CAS 97240-79-4
CH$LINK: PUBCHEM CID:5514
CH$LINK: INCHIKEY KJADKKWYZYXHBB-UHFFFAOYSA-N
CH$LINK: CHEMSPIDER 5313
AC$INSTRUMENT: Q Exactive Plus Orbitrap Thermo Scientific
AC$INSTRUMENT_TYPE: LC-ESI-QFT
AC$MASS_SPECTROMETRY: MS_TYPE MS2
AC$MASS_SPECTROMETRY: ION_MODE NEGATIVE
AC$MASS_SPECTROMETRY: IONIZATION ESI
AC$MASS_SPECTROMETRY: FRAGMENTATION_MODE HCD
AC$MASS_SPECTROMETRY: COLLISION_ENERGY 75 (nominal)
AC$MASS_SPECTROMETRY: RESOLUTION 35000
AC$CHROMATOGRAPHY: COLUMN_NAME XBridge C18 3.5um, 2.1x50mm, Waters
AC$CHROMATOGRAPHY: FLOW_GRADIENT 90/10 at 0 min, 50/50 at 4 min, 5/95 at 17 min, 5/95 at 25 min, 90/10 at 25.1 min, 90/10 at 30 min
AC$CHROMATOGRAPHY: FLOW_RATE 200 ul/min
AC$CHROMATOGRAPHY: RETENTION_TIME 6.1 min
AC$CHROMATOGRAPHY: SOLVENT A water with 0.1% formic acid
AC$CHROMATOGRAPHY: SOLVENT B methanol with 0.1% formic acid
MS$FOCUSED_ION: BASE_PEAK 338.0915
MS$FOCUSED_ION: PRECURSOR_M/Z 338.0915
MS$FOCUSED_ION: PRECURSOR_TYPE [M-H]-
MS$DATA_PROCESSING: RECALIBRATE loess on assigned fragments and MS1
MS$DATA_PROCESSING: REANALYZE Peaks with additional N2/O included
MS$DATA_PROCESSING: WHOLE RMassBank 1.9.6
PK$SPLASH: splash10-004i-9000000000-547affbc76489aef4e2b
PK$ANNOTATION: m/z tentative_formula formula_count mass error(ppm)
  57.0346 C3H5O- 1 57.0346 0.2
  61.9706 NOS- 1 61.9706 0.67
  63.9625 O2S- 1 63.9624 1.11
  69.0347 C4H5O- 1 69.0346 1.04
  77.9656 NO2S- 1 77.9655 0.73
  79.9574 O3S- 1 79.9574 0.71
  79.9812 H2NO2S- 1 79.9812 0.46
  80.9652 HO3S- 1 80.9652 0.14
  82.0298 C4H4NO- 1 82.0298 -0.21
  83.0137 C4H3O2- 1 83.0139 -1.96
  94.0299 C5H4NO- 1 94.0298 0.56
  94.9685 HNO3S- 1 94.9683 2.08
  95.9762 H2NO3S- 1 95.9761 0.96
  96.9601 HO4S- 1 96.9601 0.48
  97.0296 C5H5O2- 1 97.0295 1
PK$NUM_PEAK: 15
PK$PEAK: m/z int. rel.int.
  57.0346 43513.2 1
  61.9706 171685.4 5
  63.9625 986868.3 28
  69.0347 38649.9 1
  77.9656 34214080 999
  79.9574 561781.5 16
  79.9812 134726 3
  80.9652 139674.3 4
  82.0298 37079.9 1
  83.0137 44580.8 1
  94.0299 34857 1
  94.9685 43015.4 1
  95.9762 2440841.8 71
  96.9601 76728.3 2
  97.0296 110790.9 3
//
