ACCESSION: MSBNK-Eawag-EQ01070101
RECORD_TITLE: Suberoylanilide hydroxamic acid; LC-ESI-QFT; MS2; CE: 15%; R=15000; [M+H]+
DATE: 2024.06.14
AUTHORS: F. Jud [dtc], K. Arturi [dtc], J. Hollender [dtc], A. Dax [com]
LICENSE: CC BY-SA
COPYRIGHT: Copyright (C) Eawag 2024
COMMENT: CONFIDENCE standard compound
COMMENT: UCHEM_ID 10701
CH$NAME: Suberoylanilide hydroxamic acid
CH$NAME: Vorinostat
CH$NAME: N`-hydroxy-N-phenyloctanediamide
CH$COMPOUND_CLASS: N/A
CH$FORMULA: C14H20N2O3
CH$EXACT_MASS: 264.1473925
CH$SMILES: C1=CC=C(C=C1)NC(=O)CCCCCCC(=O)NO
CH$IUPAC: InChI=1S/C14H20N2O3/c17-13(15-12-8-4-3-5-9-12)10-6-1-2-7-11-14(18)16-19/h3-5,8-9,19H,1-2,6-7,10-11H2,(H,15,17)(H,16,18)
CH$LINK: CAS 149647-78-9
CH$LINK: CHEBI CHEBI:45716
CH$LINK: KEGG D06320
CH$LINK: PUBCHEM CID:5311
CH$LINK: INCHIKEY WAEXFXRVDQXREF-UHFFFAOYSA-N
CH$LINK: CHEMSPIDER 5120
AC$INSTRUMENT: Exploris 240 Thermo Scientific
AC$INSTRUMENT_TYPE: LC-ESI-QFT
AC$MASS_SPECTROMETRY: MS_TYPE MS2
AC$MASS_SPECTROMETRY: ION_MODE POSITIVE
AC$MASS_SPECTROMETRY: IONIZATION ESI
AC$MASS_SPECTROMETRY: FRAGMENTATION_MODE HCD
AC$MASS_SPECTROMETRY: COLLISION_ENERGY 15 % (nominal)
AC$MASS_SPECTROMETRY: RESOLUTION 15000
AC$MASS_SPECTROMETRY: MASS_RANGE_M/Z 50-291
AC$CHROMATOGRAPHY: COLUMN_NAME XBridge C18 3.5um, 2.1x50mm, Waters
AC$CHROMATOGRAPHY: FLOW_GRADIENT 90/10 at 0 min, 50/50 at 4 min, 5/95 at 17 min, 5/95 at 25 min, 90/10 at 25.1 min, 90/10 at 30 min
AC$CHROMATOGRAPHY: FLOW_RATE 200 uL/min
AC$CHROMATOGRAPHY: RETENTION_TIME 4.916 min
MS$FOCUSED_ION: BASE_PEAK 265.1544
MS$FOCUSED_ION: PRECURSOR_M/Z 265.1547
MS$FOCUSED_ION: PRECURSOR_TYPE [M+H]+
MS$DATA_PROCESSING: RECALIBRATE loess on assigned fragments and MS1
MS$DATA_PROCESSING: REANALYZE Peaks with additional N2/O included
MS$DATA_PROCESSING: WHOLE RMassBank 3.15.1.1
PK$SPLASH: splash10-0159-0190000000-e55ed752aeea3deb9a71
PK$ANNOTATION: m/z tentative_formula formula_count mass error(ppm)
  94.0651 C6H8N+ 1 94.0651 -0.21
  172.0966 C8H14NO3+ 1 172.0968 -1.06
  232.133 C14H18NO2+ 1 232.1332 -0.78
  265.1546 C14H21N2O3+ 1 265.1547 -0.36
PK$NUM_PEAK: 4
PK$PEAK: m/z int. rel.int.
  94.0651 3217528.5 57
  172.0966 19731182 349
  232.133 33090244 586
  265.1546 56338412 999
//
