ACCESSION: MSBNK-Eawag-EQ324905
RECORD_TITLE: MCLW; LC-ESI-QFT; MS2; CE: 75%; R=17500; [M+H]+
DATE: 2020.02.03
AUTHORS: E. Janssen [dtc], B. Lauper [com]
LICENSE: CC BY-SA
COPYRIGHT: Copyright (C) Eawag 2019
COMMENT: CONFIDENCE standard compound
COMMENT: UCHEM_ID 3249
COMMENT: NaToxAq - Natural Toxins and Drinking Water Quality - From Source to Tap (https://natoxaq.ku.dk)
CH$NAME: MCLW
CH$NAME: Microcystin LW
CH$NAME: (5R,8S,11R,12S,15S,18S,19S,22R)-15-(1H-indol-3-ylmethyl)-18-[(1E,3E,5S,6S)-6-methoxy-3,5-dimethyl-7-phenylhepta-1,3-dienyl]-1,5,12,19-tetramethyl-2-methylidene-8-(2-methylpropyl)-3,6,9,13,16,20,25-heptaoxo-1,4,7,10,14,17,21-heptazacyclopentacosane-11,22-dicarboxylic acid
CH$COMPOUND_CLASS: NA
CH$FORMULA: C54H72N8O12
CH$EXACT_MASS: 1024.5270
CH$SMILES: CO[C@@H](Cc1ccccc1)[C@@H](C)/C=C(C)/C=C/[C@@H]2NC(=O)[C@H](Cc3c[nH]c4ccccc34)NC(=O)[C@@H](C)[C@@H](NC(=O)[C@H](CC(C)C)NC(=O)[C@@H](C)NC(=O)C(=C)N(C)C(=O)CC[C@@H](NC(=O)[C@H]2C)C(O)=O)C(O)=O
CH$IUPAC: InChI=1S/C54H72N8O12/c1-29(2)24-42-52(69)61-46(54(72)73)33(6)48(65)59-43(27-37-28-55-40-19-15-14-18-38(37)40)51(68)57-39(21-20-30(3)25-31(4)44(74-10)26-36-16-12-11-13-17-36)32(5)47(64)58-41(53(70)71)22-23-45(63)62(9)35(8)50(67)56-34(7)49(66)60-42/h11-21,25,28-29,31-34,39,41-44,46,55H,8,22-24,26-27H2,1-7,9-10H3,(H,56,67)(H,57,68)(H,58,64)(H,59,65)(H,60,66)(H,61,69)(H,70,71)(H,72,73)/b21-20+,30-25+/t31-,32-,33-,34+,39-,41+,42-,43-,44-,46+/m0/s1
CH$LINK: CAS 157622-02-1
CH$LINK: CHEBI CHEBI:133298
CH$LINK: PUBCHEM CID:16760564
CH$LINK: INCHIKEY CJIASZBWXIFQMU-LNXRSHCCSA-N
CH$LINK: CHEMSPIDER 21395874
AC$INSTRUMENT: Q Exactive Plus Orbitrap Thermo Scientific
AC$INSTRUMENT_TYPE: LC-ESI-QFT
AC$MASS_SPECTROMETRY: MS_TYPE MS2
AC$MASS_SPECTROMETRY: ION_MODE POSITIVE
AC$MASS_SPECTROMETRY: IONIZATION ESI
AC$MASS_SPECTROMETRY: FRAGMENTATION_MODE HCD
AC$MASS_SPECTROMETRY: COLLISION_ENERGY 75 % (nominal)
AC$MASS_SPECTROMETRY: RESOLUTION 17500
AC$CHROMATOGRAPHY: COLUMN_NAME XBridge C18 3.5um, 2.1x50mm, Waters
AC$CHROMATOGRAPHY: FLOW_GRADIENT 90/10 at 0 min, 50/50 at 4 min, 5/95 at 17 min, 5/95 at 25 min, 90/10 at 25.1 min, 90/10 at 30 min
AC$CHROMATOGRAPHY: FLOW_RATE 200 uL/min
AC$CHROMATOGRAPHY: RETENTION_TIME 11.761 min
AC$CHROMATOGRAPHY: SOLVENT A water with 0.1% formic acid
AC$CHROMATOGRAPHY: SOLVENT B MeOH with 0.1% formic acid
MS$FOCUSED_ION: BASE_PEAK 164.9846
MS$FOCUSED_ION: PRECURSOR_M/Z 1025.5342
MS$FOCUSED_ION: PRECURSOR_TYPE [M+H]+
MS$DATA_PROCESSING: RECALIBRATE loess on assigned fragments and MS1
MS$DATA_PROCESSING: REANALYZE Peaks with additional N2/O included
MS$DATA_PROCESSING: WHOLE RMassBank 2.99.1
PK$SPLASH: splash10-0a6r-3900000000-401961bbf70ce0f39d40
PK$ANNOTATION: m/z tentative_formula formula_count mass error(ppm)
  74.0236 C2H4NO2+ 1 74.0237 -0.85
  77.0384 C6H5+ 1 77.0386 -2.22
  78.0461 C6H6+ 1 78.0464 -3.69
  79.0542 C6H7+ 1 79.0542 -0.49
  80.0495 C5H6N+ 1 80.0495 -0.29
  81.0571 C5H7N+ 1 81.0573 -2.35
  81.0698 C6H9+ 1 81.0699 -0.59
  82.0287 C4H4NO+ 1 82.0287 -0.84
  82.0651 C5H8N+ 1 82.0651 0.08
  84.0444 C4H6NO+ 1 84.0444 0.08
  85.0285 C4H5O2+ 1 85.0284 1.24
  86.06 C4H8NO+ 1 86.06 -0.69
  86.0964 C5H12N+ 1 86.0964 -0.35
  91.0543 C7H7+ 1 91.0542 0.26
  92.0622 C7H8+ 1 92.0621 1.77
  93.0699 C7H9+ 1 93.0699 0.37
  94.0651 C6H8N+ 1 94.0651 0.01
  95.0492 C6H7O+ 1 95.0491 0.1
  95.0853 C7H11+ 1 95.0855 -2.64
  96.0444 C5H6NO+ 1 96.0444 0.09
  96.0806 C6H10N+ 1 96.0808 -1.75
  97.0759 C5H9N2+ 1 97.076 -0.86
  98.06 C5H8NO+ 1 98.06 -0.82
  99.0917 C5H11N2+ 1 99.0917 -0.19
  102.0463 C8H6+ 1 102.0464 -1.08
  102.0549 C4H8NO2+ 1 102.055 -0.34
  103.0542 C8H7+ 1 103.0542 -0.06
  105.0448 C6H5N2+ 1 105.0447 0.65
  105.0699 C8H9+ 1 105.0699 0.16
  106.0527 C6H6N2+ 1 106.0525 1.32
  106.0655 C7H8N+ 1 106.0651 3.53
  106.0774 C8H10+ 1 106.0777 -2.4
  107.0855 C8H11+ 1 107.0855 -0.14
  108.0682 C6H8N2+ 1 108.0682 -0.13
  108.0808 C7H10N+ 1 108.0808 0.55
  109.0648 C7H9O+ 1 109.0648 0.41
  109.0761 C6H9N2+ 1 109.076 0.59
  110.06 C6H8NO+ 1 110.06 -0.37
  110.0964 C7H12N+ 1 110.0964 0.1
  111.0553 C5H7N2O+ 1 111.0553 -0.32
  112.039 C5H6NO2+ 1 112.0393 -2.49
  112.075 C4H8N4+ NA 112.0743 6.08
  113.0233 C5H5O3+ 1 113.0233 -0.5
  113.0708 C5H9N2O+ 1 113.0709 -1.55
  115.0542 C9H7+ 1 115.0542 -0.04
  116.0618 C9H8+ 1 116.0621 -2.25
  117.0572 C8H7N+ 1 117.0573 -0.44
  117.0699 C9H9+ 1 117.0699 0.05
  118.065 C8H8N+ 1 118.0651 -1.14
  118.0777 C9H10+ 1 118.0777 0
  119.0604 C7H7N2+ 1 119.0604 0.43
  119.0854 C9H11+ 1 119.0855 -0.65
  120.0567 C8H8O+ 1 120.057 -1.96
  120.0809 C8H10N+ 1 120.0808 0.78
  120.0935 C9H12+ 1 120.0934 0.95
  121.0654 C8H9O+ NA 121.0648 5.19
  121.076 C7H9N2+ 1 121.076 -0.51
  121.101 C9H13+ 1 121.1012 -1.5
  122.0603 C7H8NO+ 1 122.06 2.32
  122.0839 C7H10N2+ 1 122.0838 0.03
  122.0965 C8H12N+ 1 122.0964 0.56
  123.0916 C7H11N2+ 1 123.0917 -0.8
  124.0759 C7H10NO+ 1 124.0757 1.51
  124.1119 C8H14N+ 1 124.1121 -1.45
  125.0711 C6H9N2O+ 1 125.0709 1.31
  127.0866 C6H11N2O+ 1 127.0866 -0.22
  128.0619 C10H8+ 1 128.0621 -0.84
  128.0707 C6H10NO2+ 1 128.0706 0.65
  129.0699 C10H9+ 1 129.0699 0.04
  130.0495 C5H8NO3+ 1 130.0499 -2.62
  130.0651 C9H8N+ 1 130.0651 -0.02
  130.0774 C10H10+ 1 130.0777 -2.51
  131.0854 C10H11+ 1 131.0855 -0.71
  132.0808 C9H10N+ 1 132.0808 -0.09
  133.1012 C10H13+ 1 133.1012 -0.1
  134.0603 C8H8NO+ 1 134.06 1.59
  134.0961 C9H12N+ 1 134.0964 -2.34
  135.0804 C9H11O+ 1 135.0804 -0.57
  135.1167 C10H15+ 1 135.1168 -0.63
  136.0754 C8H10NO+ 1 136.0757 -1.87
  137.0707 C7H9N2O+ 1 137.0709 -1.48
  138.055 C7H8NO2+ 1 138.055 0.58
  139.0865 C7H11N2O+ 1 139.0866 -0.66
  140.0706 C7H10NO2+ 1 140.0706 -0.05
  142.0652 C10H8N+ 1 142.0651 0.71
  142.0771 C11H10+ 1 142.0777 -4.57
  143.0728 C10H9N+ 1 143.073 -0.87
  143.0855 C11H11+ 1 143.0855 -0.04
  144.0809 C10H10N+ 1 144.0808 0.75
  145.076 C9H9N2+ 1 145.076 -0.37
  145.1011 C11H13+ 1 145.1012 -0.62
  146.0603 C9H8NO+ 1 146.06 1.99
  146.0963 C10H12N+ 1 146.0964 -1.1
  146.1079 C11H14+ NA 146.109 -7.39
  147.1037 C10H13N+ 1 147.1043 -4.08
  148.112 C10H14N+ 1 148.1121 -0.63
  149.0709 C8H9N2O+ 1 149.0709 -0.32
  151.0866 C8H11N2O+ 1 151.0866 -0.04
  153.0698 C12H9+ 1 153.0699 -0.18
  154.0653 C11H8N+ 1 154.0651 0.87
  155.0602 C10H7N2+ 1 155.0604 -1.34
  156.0809 C11H10N+ 1 156.0808 0.55
  157.0609 C6H9N2O3+ 1 157.0608 0.59
  157.0758 C10H9N2+ 1 157.076 -1.14
  158.0601 C10H8NO+ 1 158.06 0.68
  158.0842 C10H10N2+ 1 158.0838 2.09
  158.0967 C11H12N+ 1 158.0964 1.88
  159.0917 C10H11N2+ 1 159.0917 0.3
  160.0758 C10H10NO+ 1 160.0757 0.56
  161.0961 C11H13O+ 1 161.0961 0.02
  162.1277 C11H16N+ 1 162.1277 -0.34
  163.1114 C11H15O+ 1 163.1117 -2.02
  165.0701 C13H9+ 1 165.0699 1.19
  166.0773 C13H10+ 1 166.0777 -2.25
  167.0818 C8H11N2O2+ 1 167.0815 1.81
  168.0659 C8H10NO3+ 1 168.0655 2.07
  168.0808 C12H10N+ 1 168.0808 0
  169.0761 C11H9N2+ 1 169.076 0.26
  170.0599 C11H8NO+ 1 170.06 -0.64
  170.0962 C12H12N+ 1 170.0964 -1.22
  171.0917 C11H11N2+ 1 171.0917 0.02
  173.0963 C12H13O+ 1 173.0961 1.38
  178.0764 H12N5O6+ NA 178.0782 -10.37
  179.0856 C14H11+ 2 179.0855 0.17
  180.0933 C14H12+ 2 180.0934 -0.03
  181.1008 C14H13+ 2 181.1012 -1.83
  181.1341 C10H17N2O+ 1 181.1335 2.9
  182.0975 CH16N3O7+ 1 182.0983 -4.19
  185.0712 C11H9N2O+ 1 185.0709 1.49
  185.1073 C12H13N2+ 1 185.1073 0.04
  187.0873 C11H11N2O+ 1 187.0866 3.55
  188.0706 C11H10NO2+ 1 188.0706 0.04
  192.0934 C15H12+ 3 192.0934 0.31
  193.1009 C15H13+ 3 193.1012 -1.29
  195.0765 C9H11N2O3+ 1 195.0764 0.17
  195.092 H19O11+ 2 195.0922 -0.88
  195.1166 C15H15+ 3 195.1168 -0.94
  196.0606 C9H10NO4+ 1 196.0604 0.88
  197.1076 C13H13N2+ 2 197.1073 1.23
  206.0837 C14H10N2+ 3 206.0838 -0.65
  207.0917 C14H11N2+ 3 207.0917 -0.01
  209.1074 C14H13N2+ 3 209.1073 0.14
  213.0872 C9H13N2O4+ 1 213.087 1.1
  225.1032 CH21O12+ 4 225.1028 1.84
  235.0871 C2H19O12+ 3 235.0871 0.04
  244.1132 C4H16N6O6+ 3 244.1126 2.53
PK$NUM_PEAK: 149
PK$PEAK: m/z int. rel.int.
  74.0236 71604.6 21
  77.0384 110735.8 33
  78.0461 9717.4 2
  79.0542 989773.1 297
  80.0495 203014.3 61
  81.0571 12822.7 3
  81.0698 68483.9 20
  82.0287 83487.4 25
  82.0651 658001.4 197
  84.0444 822533.2 247
  84.0807 35537.9 10
  85.0285 78650.3 23
  86.06 75024.7 22
  86.0964 859787.1 258
  91.0543 2744886.8 825
  92.0622 54998.4 16
  93.0699 862178.6 259
  94.0651 168931.2 50
  95.0492 931520.7 280
  95.073 20960.3 6
  95.0853 86650.2 26
  96.0444 36714.6 11
  96.0806 83068.9 24
  97.0759 30671.6 9
  98.06 21717.2 6
  99.0917 479285.1 144
  102.0463 53814 16
  102.0549 40063.5 12
  103.0542 3320523.8 999
  105.0448 335296.2 100
  105.0699 2154485.5 648
  106.0527 22954.8 6
  106.0655 22631.4 6
  106.0774 20632.9 6
  107.0855 3313592 996
  108.0682 70448.1 21
  108.0808 45983.1 13
  109.0648 318586.1 95
  109.0761 23439.5 7
  110.06 233281.8 70
  110.0964 40954.6 12
  111.0553 207761.1 62
  112.039 24508.6 7
  112.075 14009.2 4
  113.0233 235111.6 70
  113.0708 31520.9 9
  115.0542 711892.4 214
  116.0618 59296.9 17
  117.0572 263053.8 79
  117.0699 545196 164
  118.065 147743.8 44
  118.0777 16895.1 5
  119.0604 200093.4 60
  119.0854 249255.5 74
  120.0567 68391.1 20
  120.0809 85207.2 25
  120.0935 45110.1 13
  121.0654 26753.7 8
  121.076 351752 105
  121.101 26656.4 8
  122.0603 55550.6 16
  122.0839 41677.2 12
  122.0965 40476.1 12
  123.0916 95557.3 28
  124.0759 65811.8 19
  124.1119 30123.3 9
  125.0711 37066.2 11
  127.0866 2427545.8 730
  128.0619 214972.2 64
  128.0707 22759.7 6
  129.0699 172960.9 52
  130.0495 51657.6 15
  130.0651 911653.1 274
  130.0774 54463.7 16
  131.0854 277906 83
  132.0808 1321068.4 397
  133.1012 96242.6 28
  134.0603 12601.3 3
  134.0961 31198.8 9
  135.0804 581814.8 175
  135.106 27045.6 8
  135.1167 479742.8 144
  136.0754 27205 8
  137.0707 14146.5 4
  138.055 137581.6 41
  139.0865 53678.1 16
  140.0706 25500 7
  142.0652 313606.4 94
  142.0771 33103.5 9
  143.0728 60133 18
  143.0855 77494.1 23
  144.0809 271693.4 81
  145.076 87364.6 26
  145.1011 142556.1 42
  146.0603 88895.6 26
  146.0963 108505.5 32
  146.1079 22723.5 6
  147.1037 16456.6 4
  148.112 20824.2 6
  149.0709 292846.1 88
  151.0866 36300.2 10
  153.0698 34341.5 10
  154.0653 63133.8 18
  155.0602 33608.1 10
  156.0809 19594.4 5
  157.0609 147641.5 44
  157.0758 62803.2 18
  158.0601 33154 9
  158.0842 279185.6 83
  158.0967 47493.3 14
  159.0917 1180871 355
  160.0758 170168.2 51
  161.0961 18845.4 5
  162.1277 26654.9 8
  163.1114 82811.5 24
  165.0701 128469.4 38
  166.0773 51088.3 15
  167.0818 649315.4 195
  168.0659 54838.3 16
  168.0808 121531.1 36
  169.0761 532044.6 160
  170.0599 176074.2 52
  170.0962 37007.6 11
  171.0917 32299.4 9
  173.0963 23494.5 7
  178.0764 22617.1 6
  179.0856 77602 23
  180.0933 47473.9 14
  181.1008 36443.4 10
  181.1341 12142.2 3
  182.0975 16684.8 5
  185.0712 184982.8 55
  185.1073 19210.9 5
  187.0873 18216.7 5
  188.0706 16282.8 4
  192.0934 32789.2 9
  193.1009 32116.3 9
  195.0765 156049.7 46
  195.092 16141.4 4
  195.1166 16104.1 4
  196.0606 26254.8 7
  197.1076 136528.6 41
  206.0837 43898.8 13
  207.0917 69771.2 20
  209.1074 53779.1 16
  213.0872 88089.9 26
  225.1032 37018.9 11
  235.0871 128881.7 38
  244.1132 28542 8
//
