ACCESSION: MSBNK-Eawag-EA033114
RECORD_TITLE: N'-(2,4-Dimethylphenyl)-N-methylformamidine; LC-ESI-ITFT; MS2; CE: 35%; R=30000; [M+H]+
DATE: 2014.01.14
AUTHORS: Stravs M, Schymanski E, Singer H, Department of Environmental Chemistry, Eawag
LICENSE: CC BY
COPYRIGHT: Copyright (C) 2012 Eawag, Duebendorf, Switzerland
COMMENT: CONFIDENCE standard compound
COMMENT: EAWAG_UCHEM_ID 331
CH$NAME: N'-(2,4-Dimethylphenyl)-N-methylformamidine
CH$NAME: Methanimidamide, N-(2,4-dimethylphenyl)-N'-methyl-
CH$NAME: N-(2,4-dimethylphenyl)-N'-methyl-formamidine
CH$COMPOUND_CLASS: N/A; Environmental Standard
CH$FORMULA: C10H14N2
CH$EXACT_MASS: 162.1157
CH$SMILES: C(=NC)Nc1c(cc(cc1)C)C
CH$IUPAC: InChI=1S/C10H14N2/c1-8-4-5-10(9(2)6-8)12-7-11-3/h4-7H,1-3H3,(H,11,12)
CH$LINK: CAS 33089-74-6
CH$LINK: PUBCHEM CID:36326
CH$LINK: INCHIKEY JIIOLEGNERQDIP-UHFFFAOYSA-N
CH$LINK: CHEMSPIDER 33406
CH$LINK: COMPTOX DTXSID1037696
AC$INSTRUMENT: LTQ Orbitrap XL Thermo Scientific
AC$INSTRUMENT_TYPE: LC-ESI-ITFT
AC$MASS_SPECTROMETRY: MS_TYPE MS2
AC$MASS_SPECTROMETRY: ION_MODE POSITIVE
AC$MASS_SPECTROMETRY: IONIZATION ESI
AC$MASS_SPECTROMETRY: FRAGMENTATION_MODE CID
AC$MASS_SPECTROMETRY: COLLISION_ENERGY 35 % (nominal)
AC$MASS_SPECTROMETRY: RESOLUTION 30000
AC$CHROMATOGRAPHY: COLUMN_NAME XBridge C18 3.5um, 2.1x50mm, Waters
AC$CHROMATOGRAPHY: FLOW_GRADIENT 90/10 at 0 min, 50/50 at 4 min, 5/95 at 17 min, 5/95 at 25 min, 90/10 at 25.1 min, 90/10 at 30 min
AC$CHROMATOGRAPHY: FLOW_RATE 200 ul/min
AC$CHROMATOGRAPHY: RETENTION_TIME 4.5 min
AC$CHROMATOGRAPHY: SOLVENT A water with 0.1% formic acid
AC$CHROMATOGRAPHY: SOLVENT B methanol with 0.1% formic acid
MS$FOCUSED_ION: BASE_PEAK 163.1229
MS$FOCUSED_ION: PRECURSOR_M/Z 163.123
MS$FOCUSED_ION: PRECURSOR_TYPE [M+H]+
MS$DATA_PROCESSING: DEPROFILE Spline
MS$DATA_PROCESSING: RECALIBRATE loess on assigned fragments and MS1
MS$DATA_PROCESSING: REANALYZE Peaks with additional N2/O included
MS$DATA_PROCESSING: WHOLE RMassBank 1.3.1
PK$SPLASH: splash10-00di-0900000000-6577eb0c9b63af6b1c84
PK$ANNOTATION: m/z tentative_formula formula_count mass error(ppm)
  117.0576 C8H7N+ 1 117.0573 2.56
  120.0808 C8H10N+ 1 120.0808 -0.05
  121.0881 C8H11N+ 1 121.0886 -4.22
  122.0964 C8H12N+ 1 122.0964 0.12
  132.0808 C9H10N+ 1 132.0808 -0.12
  134.0958 C9H12N+ 1 134.0964 -4.82
  136.112 C9H14N+ 1 136.1121 -0.34
PK$NUM_PEAK: 7
PK$PEAK: m/z int. rel.int.
  117.0576 226387.7 8
  120.0808 1260563.1 48
  121.0881 49923.3 1
  122.0964 25888867.1 999
  132.0808 11596741.4 447
  134.0958 59393.3 2
  136.112 165046.8 6
//
