ACCESSION: MSBNK-Eawag-EQ332204
RECORD_TITLE: Bufexamac; LC-ESI-QFT; MS2; CE: 60; R=35000; [M+H]+
DATE: 2015.08.25
AUTHORS: Otto J, Stravs M, Schymanski E, Singer H, Department of Environmental Chemistry, Eawag
LICENSE: CC BY
COPYRIGHT: Copyright (C) 2015 Eawag, Duebendorf, Switzerland
COMMENT: CONFIDENCE standard compound
COMMENT: EAWAG_UCHEM_ID 3322
CH$NAME: Bufexamac
CH$NAME: 2-(4-butoxyphenyl)-N-hydroxyacetamide
CH$COMPOUND_CLASS: N/A; Environmental Standard
CH$FORMULA: C12H17NO3
CH$EXACT_MASS: 223.12084
CH$SMILES: CCCCOC1=CC=C(C=C1)CC(=O)NO
CH$IUPAC: InChI=1S/C12H17NO3/c1-2-3-8-16-11-6-4-10(5-7-11)9-12(14)13-15/h4-7,15H,2-3,8-9H2,1H3,(H,13,14)
CH$LINK: CAS 2438-72-4
CH$LINK: KEGG D01271
CH$LINK: PUBCHEM CID:2466
CH$LINK: INCHIKEY MXJWRABVEGLYDG-UHFFFAOYSA-N
CH$LINK: CHEMSPIDER 2372
CH$LINK: COMPTOX DTXSID7045368
AC$INSTRUMENT: Q Exactive Orbitrap Thermo Scientific
AC$INSTRUMENT_TYPE: LC-ESI-QFT
AC$MASS_SPECTROMETRY: MS_TYPE MS2
AC$MASS_SPECTROMETRY: ION_MODE POSITIVE
AC$MASS_SPECTROMETRY: IONIZATION ESI
AC$MASS_SPECTROMETRY: FRAGMENTATION_MODE HCD
AC$MASS_SPECTROMETRY: COLLISION_ENERGY 60 (nominal)
AC$MASS_SPECTROMETRY: RESOLUTION 35000
AC$CHROMATOGRAPHY: COLUMN_NAME XBridge C18 3.5um, 2.1x50mm, Waters
AC$CHROMATOGRAPHY: FLOW_GRADIENT 90/10 at 0 min, 50/50 at 4 min, 5/95 at 17 min, 5/95 at 25 min, 90/10 at 25.1 min, 90/10 at 30 min
AC$CHROMATOGRAPHY: FLOW_RATE 200 ul/min
AC$CHROMATOGRAPHY: RETENTION_TIME 8.4 min
AC$CHROMATOGRAPHY: SOLVENT A water with 0.1% formic acid
AC$CHROMATOGRAPHY: SOLVENT B methanol with 0.1% formic acid
MS$FOCUSED_ION: BASE_PEAK 224.1282
MS$FOCUSED_ION: PRECURSOR_M/Z 224.1281
MS$FOCUSED_ION: PRECURSOR_TYPE [M+H]+
MS$DATA_PROCESSING: DEPROFILE vendor picking in Proteowizard
MS$DATA_PROCESSING: RECALIBRATE loess on assigned fragments and MS1
MS$DATA_PROCESSING: REANALYZE Peaks with additional N2/O included
MS$DATA_PROCESSING: WHOLE RMassBank 1.9.6
PK$SPLASH: splash10-0a4i-0900000000-496edd1f1dfb18e3bc93
PK$ANNOTATION: m/z tentative_formula formula_count mass error(ppm)
  57.0699 C4H9+ 1 57.0699 0.76
  67.0542 C5H7+ 1 67.0542 -0.84
  77.0385 C6H5+ 1 77.0386 -0.73
  79.0542 C6H7+ 1 79.0542 -0.21
  80.0495 C5H6N+ 1 80.0495 0.05
  94.0412 C6H6O+ 1 94.0413 -1.77
  94.0651 C6H8N+ 1 94.0651 -0.59
  95.0491 C6H7O+ 1 95.0491 -0.43
  104.0495 C7H6N+ 1 104.0495 -0.05
  105.0335 C7H5O+ 1 105.0335 0.37
  105.0448 C6H5N2+ 1 105.0447 1
  107.0492 C7H7O+ 1 107.0491 0.18
  108.0442 C6H6NO+ 1 108.0444 -1.76
  122.06 C7H8NO+ 1 122.06 -0.49
  132.0444 C8H6NO+ 1 132.0444 -0.3
  133.0522 C8H7NO+ 1 133.0522 -0.04
  135.044 C8H7O2+ 1 135.0441 -0.34
  150.0547 C8H8NO2+ 1 150.055 -1.57
  163.1117 C11H15O+ 1 163.1117 -0.07
PK$NUM_PEAK: 19
PK$PEAK: m/z int. rel.int.
  57.0699 7644886.5 16
  67.0542 1022453.1 2
  77.0385 2448903.5 5
  79.0542 5995453.5 12
  80.0495 1099277.1 2
  94.0412 1352893 2
  94.0651 6466128.5 13
  95.0491 11641542 24
  104.0495 2236139.2 4
  105.0335 803989.6 1
  105.0448 2280522 4
  107.0492 467314080 999
  108.0442 5575123.5 11
  122.06 15762443 33
  132.0444 751935.3 1
  133.0522 2360533.5 5
  135.044 1347648.2 2
  150.0547 1493458.6 3
  163.1117 4242176 9
//
