ACCESSION: MSBNK-Eawag-EQ01144553
RECORD_TITLE: PFHxDA; LC-ESI-QFT; MS2; CE: 45%; R=17500; [M-H]-
DATE: 2024.05.15
AUTHORS: B. Beck [dtc,com], J. Hollender [dtc]
LICENSE: CC BY-SA
COPYRIGHT: Copyright (C) Eawag 2023
COMMENT: CONFIDENCE standard compound
COMMENT: UCHEM_ID 11445
CH$NAME: PFHxDA
CH$NAME: Perfluorohexadecanoic acid
CH$NAME: 2,2,3,3,4,4,5,5,6,6,7,7,8,8,9,9,10,10,11,11,12,12,13,13,14,14,15,15,16,16,16-hentriacontafluorohexadecanoic acid
CH$COMPOUND_CLASS: N/A; Environmental Standard
CH$FORMULA: C16HF31O2
CH$EXACT_MASS: 813.948154092
CH$SMILES: C(=O)(C(C(C(C(C(C(C(C(C(C(C(C(C(C(C(F)(F)F)(F)F)(F)F)(F)F)(F)F)(F)F)(F)F)(F)F)(F)F)(F)F)(F)F)(F)F)(F)F)(F)F)(F)F)O
CH$IUPAC: InChI=1S/C16HF31O2/c17-2(18,1(48)49)3(19,20)4(21,22)5(23,24)6(25,26)7(27,28)8(29,30)9(31,32)10(33,34)11(35,36)12(37,38)13(39,40)14(41,42)15(43,44)16(45,46)47/h(H,48,49)
CH$LINK: PUBCHEM CID:106027
CH$LINK: INCHIKEY OJMBMWRMTMHMSZ-UHFFFAOYSA-N
CH$LINK: CHEMSPIDER 95520
AC$INSTRUMENT: Exploris 240 Orbitrap Thermo Scientific
AC$INSTRUMENT_TYPE: LC-ESI-QFT
AC$MASS_SPECTROMETRY: MS_TYPE MS2
AC$MASS_SPECTROMETRY: ION_MODE NEGATIVE
AC$MASS_SPECTROMETRY: IONIZATION ESI
AC$MASS_SPECTROMETRY: FRAGMENTATION_MODE HCD
AC$MASS_SPECTROMETRY: COLLISION_ENERGY 45 % (nominal)
AC$MASS_SPECTROMETRY: RESOLUTION 17500
AC$MASS_SPECTROMETRY: MASS_RANGE_M/Z 84-850
AC$CHROMATOGRAPHY: COLUMN_NAME XBridge C18 3.5um, 2.1x50mm, Waters
AC$CHROMATOGRAPHY: FLOW_GRADIENT 90/10 at 0 min, 50/50 at 4 min, 5/95 at 17 min, 5/95 at 25 min, 90/10 at 25.1 min, 90/10 at 30 min
AC$CHROMATOGRAPHY: FLOW_RATE 200 uL/min
AC$CHROMATOGRAPHY: RETENTION_TIME 16.228 min
MS$FOCUSED_ION: BASE_PEAK 812.9408
MS$FOCUSED_ION: PRECURSOR_M/Z 812.9409
MS$FOCUSED_ION: PRECURSOR_TYPE [M-H]-
MS$DATA_PROCESSING: RECALIBRATE loess on assigned fragments and MS1
MS$DATA_PROCESSING: REANALYZE Peaks with additional N2/O included
MS$DATA_PROCESSING: WHOLE RMassBank 3.15.1.1
PK$SPLASH: splash10-014i-0900000000-f269afa99c36e811748a
PK$ANNOTATION: m/z tentative_formula formula_count mass error(ppm)
  118.9926 C2F5- 1 118.9926 0.23
  168.9892 C3F7- 1 168.9894 -0.86
  218.9861 C4F9- 1 218.9862 -0.32
PK$NUM_PEAK: 3
PK$PEAK: m/z int. rel.int.
  118.9926 8262954.5 789
  168.9892 10453746 999
  218.9861 710639.8 67
//
