ACCESSION: MSBNK-Eawag-EA025351
RECORD_TITLE: Bentazone; LC-ESI-ITFT; MS2; CE: 35%; R=7500; [M-H]-
DATE: 2014.01.14
AUTHORS: Stravs M, Schymanski E, Singer H, Department of Environmental Chemistry, Eawag
LICENSE: CC BY
COPYRIGHT: Copyright (C) 2012 Eawag, Duebendorf, Switzerland
COMMENT: CONFIDENCE standard compound
COMMENT: EAWAG_UCHEM_ID 253
CH$NAME: Bentazone
CH$NAME: 2,2-bis(oxidanylidene)-3-propan-2-yl-1H-2$l^{6},1,3-benzothiadiazin-4-one
CH$COMPOUND_CLASS: N/A; Environmental Standard
CH$FORMULA: C10H12N2O3S
CH$EXACT_MASS: 240.0563
CH$SMILES: c12c(C(N(C(C)C)S(N1)(=O)=O)=O)cccc2
CH$IUPAC: InChI=1S/C10H12N2O3S/c1-7(2)12-10(13)8-5-3-4-6-9(8)11-16(12,14)15/h3-7,11H,1-2H3
CH$LINK: CAS 25057-89-0
CH$LINK: KEGG C10965
CH$LINK: PUBCHEM CID:2328
CH$LINK: INCHIKEY ZOMSMJKLGFBRBS-UHFFFAOYSA-N
CH$LINK: CHEMSPIDER 2238
CH$LINK: COMPTOX DTXSID0023901
AC$INSTRUMENT: LTQ Orbitrap XL Thermo Scientific
AC$INSTRUMENT_TYPE: LC-ESI-ITFT
AC$MASS_SPECTROMETRY: MS_TYPE MS2
AC$MASS_SPECTROMETRY: ION_MODE NEGATIVE
AC$MASS_SPECTROMETRY: IONIZATION ESI
AC$MASS_SPECTROMETRY: FRAGMENTATION_MODE CID
AC$MASS_SPECTROMETRY: COLLISION_ENERGY 35 % (nominal)
AC$MASS_SPECTROMETRY: RESOLUTION 7500
AC$CHROMATOGRAPHY: COLUMN_NAME XBridge C18 3.5um, 2.1x50mm, Waters
AC$CHROMATOGRAPHY: FLOW_GRADIENT 90/10 at 0 min, 50/50 at 4 min, 5/95 at 17 min, 5/95 at 25 min, 90/10 at 25.1 min, 90/10 at 30 min
AC$CHROMATOGRAPHY: FLOW_RATE 200 ul/min
AC$CHROMATOGRAPHY: RETENTION_TIME 7.4 min
AC$CHROMATOGRAPHY: SOLVENT A water with 0.1% formic acid
AC$CHROMATOGRAPHY: SOLVENT B methanol with 0.1% formic acid
MS$FOCUSED_ION: BASE_PEAK 239.0497
MS$FOCUSED_ION: PRECURSOR_M/Z 239.0496
MS$FOCUSED_ION: PRECURSOR_TYPE [M-H]-
MS$DATA_PROCESSING: DEPROFILE Spline
MS$DATA_PROCESSING: RECALIBRATE loess on assigned fragments and MS1
MS$DATA_PROCESSING: REANALYZE Peaks with additional N2/O included
MS$DATA_PROCESSING: WHOLE RMassBank 1.3.1
PK$SPLASH: splash10-002b-0900000000-a9fb7be07eea96502635
PK$ANNOTATION: m/z tentative_formula formula_count mass error(ppm)
  132.033 C7H4N2O- 1 132.0329 0.6
  133.0408 C7H5N2O- 1 133.0407 0.4
  145.0662 C10H9O- 1 145.0659 2.08
  147.0817 C10H11O- 1 147.0815 0.89
  175.088 C10H11N2O- 1 175.0877 1.68
  195.9947 C7H4N2O3S- 1 195.9948 -0.67
  197.0029 C7H5N2O3S- 1 197.0026 1.54
  239.0498 C10H11N2O3S- 1 239.0496 1.06
PK$NUM_PEAK: 8
PK$PEAK: m/z int. rel.int.
  132.033 2225899.6 132
  133.0408 1274335.3 75
  145.0662 65289.9 3
  147.0817 370138.5 22
  175.088 13185769 783
  195.9947 82158.5 4
  197.0029 16805183.6 999
  239.0498 689209.4 40
//
