ACCESSION: MSBNK-Eawag-EA032804
RECORD_TITLE: Fluconazole; LC-ESI-ITFT; MS2; CE: 45%; R=7500; [M+H]+
DATE: 2014.01.14
AUTHORS: Stravs M, Schymanski E, Singer H, Department of Environmental Chemistry, Eawag
LICENSE: CC BY
COPYRIGHT: Copyright (C) 2012 Eawag, Duebendorf, Switzerland
COMMENT: CONFIDENCE standard compound
COMMENT: EAWAG_UCHEM_ID 328
CH$NAME: Fluconazole
CH$NAME: 2-(2,4-difluorophenyl)-1,3-bis(1,2,4-triazol-1-yl)-2-propanol
CH$COMPOUND_CLASS: N/A; Environmental Standard
CH$FORMULA: C13H12F2N6O
CH$EXACT_MASS: 306.1041
CH$SMILES: OC(CN1C=NC=N1)(CN2C=NC=N2)C3=C(F)C=C(F)C=C3
CH$IUPAC: InChI=1S/C13H12F2N6O/c14-10-1-2-11(12(15)3-10)13(22,4-20-8-16-6-18-20)5-21-9-17-7-19-21/h1-3,6-9,22H,4-5H2
CH$LINK: CAS 86386-73-4
CH$LINK: CHEBI CHEBI:46081
CH$LINK: KEGG D00322
CH$LINK: PUBCHEM CID:3365
CH$LINK: INCHIKEY RFHAOTPXVQNOHP-UHFFFAOYSA-N
CH$LINK: CHEMSPIDER 3248
CH$LINK: COMPTOX DTXSID3020627
AC$INSTRUMENT: LTQ Orbitrap XL Thermo Scientific
AC$INSTRUMENT_TYPE: LC-ESI-ITFT
AC$MASS_SPECTROMETRY: MS_TYPE MS2
AC$MASS_SPECTROMETRY: ION_MODE POSITIVE
AC$MASS_SPECTROMETRY: IONIZATION ESI
AC$MASS_SPECTROMETRY: FRAGMENTATION_MODE HCD
AC$MASS_SPECTROMETRY: COLLISION_ENERGY 45 % (nominal)
AC$MASS_SPECTROMETRY: RESOLUTION 7500
AC$CHROMATOGRAPHY: COLUMN_NAME XBridge C18 3.5um, 2.1x50mm, Waters
AC$CHROMATOGRAPHY: FLOW_GRADIENT 90/10 at 0 min, 50/50 at 4 min, 5/95 at 17 min, 5/95 at 25 min, 90/10 at 25.1 min, 90/10 at 30 min
AC$CHROMATOGRAPHY: FLOW_RATE 200 ul/min
AC$CHROMATOGRAPHY: RETENTION_TIME 5.3 min
AC$CHROMATOGRAPHY: SOLVENT A water with 0.1% formic acid
AC$CHROMATOGRAPHY: SOLVENT B methanol with 0.1% formic acid
MS$FOCUSED_ION: BASE_PEAK 307.1126
MS$FOCUSED_ION: PRECURSOR_M/Z 307.1113
MS$FOCUSED_ION: PRECURSOR_TYPE [M+H]+
MS$DATA_PROCESSING: DEPROFILE Spline
MS$DATA_PROCESSING: RECALIBRATE loess on assigned fragments and MS1
MS$DATA_PROCESSING: REANALYZE Peaks with additional N2/O included
MS$DATA_PROCESSING: WHOLE RMassBank 1.3.1
PK$SPLASH: splash10-00y0-1690000000-fb006053901bf08be9c9
PK$ANNOTATION: m/z tentative_formula formula_count mass error(ppm)
  70.04 C2H4N3+ 1 70.04 0.81
  121.0451 C8H6F+ 2 121.0448 2.44
  127.0355 C7H5F2+ 1 127.0354 0.76
  139.0354 C8H5F2+ 1 139.0354 0.27
  141.0147 C7H3F2O+ 1 141.0146 0.23
  141.0511 C8H7F2+ 1 141.051 0.12
  151.0354 C9H5F2+ 1 151.0354 0.05
  166.0468 C9H6F2N+ 1 166.0463 3.24
  169.0461 C9H7F2O+ 1 169.0459 1.08
  173.0506 C5H5F2N5+ 2 173.0508 -0.65
  177.0458 C9H6FN2O+ 2 177.0459 -0.49
  193.0567 C10H7F2N2+ 1 193.0572 -2.39
  200.062 C11H7FN3+ 3 200.0619 0.74
  220.0683 C11H8F2N3+ 1 220.0681 1.04
  238.0787 C11H10F2N3O+ 1 238.0786 0.27
PK$NUM_PEAK: 15
PK$PEAK: m/z int. rel.int.
  70.04 267753.6 211
  121.0451 25111.2 19
  127.0355 114761.5 90
  139.0354 93891.8 74
  141.0147 18296.9 14
  141.0511 136560.5 108
  151.0354 64506.2 51
  166.0468 13819 10
  169.0461 1007988 797
  173.0506 11556.5 9
  177.0458 7766.6 6
  193.0567 15716.2 12
  200.062 46281.4 36
  220.0683 1262704.3 999
  238.0787 871155.3 689
//
