ACCESSION: MSBNK-Eawag-EQ01137607
RECORD_TITLE: Isofenphos; LC-ESI-QFT; MS2; CE: 120%; R=17500; [M+H]+
DATE: 2023.04.27
AUTHORS: B. Beck [dtc,com], J. Hollender [dtc]
LICENSE: CC BY-SA
COPYRIGHT: Copyright (C) Eawag 2023
COMMENT: CONFIDENCE standard compound
COMMENT: UCHEM_ID 11376
CH$NAME: Isofenphos
CH$NAME: propan-2-yl 2-[ethoxy-(propan-2-ylamino)phosphinothioyl]oxybenzoate
CH$COMPOUND_CLASS: N/A; Environmental Standard
CH$FORMULA: C15H24NO4PS
CH$EXACT_MASS: 345.1164
CH$SMILES: CCOP(=S)(NC(C)C)OC1=CC=CC=C1C(=O)OC(C)C
CH$IUPAC: InChI=1S/C15H24NO4PS/c1-6-18-21(22,16-11(2)3)20-14-10-8-7-9-13(14)15(17)19-12(4)5/h7-12H,6H2,1-5H3,(H,16,22)
CH$LINK: CAS 25311-71-1
CH$LINK: CHEBI CHEBI:6009
CH$LINK: KEGG C11002
CH$LINK: PUBCHEM CID:32872
CH$LINK: INCHIKEY HOQADATXFBOEGG-UHFFFAOYSA-N
CH$LINK: CHEMSPIDER 30459
AC$INSTRUMENT: Exploris 240 Orbitrap Thermo Scientific
AC$INSTRUMENT_TYPE: LC-ESI-QFT
AC$MASS_SPECTROMETRY: MS_TYPE MS2
AC$MASS_SPECTROMETRY: ION_MODE POSITIVE
AC$MASS_SPECTROMETRY: IONIZATION ESI
AC$MASS_SPECTROMETRY: FRAGMENTATION_MODE HCD
AC$MASS_SPECTROMETRY: COLLISION_ENERGY 120 % (nominal)
AC$MASS_SPECTROMETRY: RESOLUTION 17500
AC$MASS_SPECTROMETRY: MASS_RANGE_M/Z 50-374
AC$CHROMATOGRAPHY: COLUMN_NAME XBridge C18 3.5um, 2.1x50mm, Waters
AC$CHROMATOGRAPHY: FLOW_GRADIENT 90/10 at 0 min, 50/50 at 4 min, 5/95 at 17 min, 5/95 at 25 min, 90/10 at 25.1 min, 90/10 at 30 min
AC$CHROMATOGRAPHY: FLOW_RATE 200 uL/min
AC$CHROMATOGRAPHY: RETENTION_TIME 11.726 min
MS$FOCUSED_ION: BASE_PEAK 245.0031
MS$FOCUSED_ION: PRECURSOR_M/Z 346.1236
MS$FOCUSED_ION: PRECURSOR_TYPE [M+H]+
MS$DATA_PROCESSING: RECALIBRATE loess on assigned fragments and MS1
MS$DATA_PROCESSING: REANALYZE Peaks with additional N2/O included
MS$DATA_PROCESSING: WHOLE RMassBank 3.11.0.1
PK$SPLASH: splash10-01b9-9300000000-73386afd8180ad2f45db
PK$ANNOTATION: m/z tentative_formula formula_count mass error(ppm)
  63.9946 H3NOP+ 2 63.9947 -0.49
  65.0385 C5H5+ 1 65.0386 -0.61
  78.9402 OPS+ 1 78.9402 -0.07
  92.0256 C6H4O+ 2 92.0257 -0.92
  93.0334 C6H5O+ 2 93.0335 -1.14
  95.9668 H3NOPS+ 2 95.9667 0.44
  109.0107 C6H5S+ 2 109.0106 0.79
  111.0439 C6H7O2+ 2 111.0441 -1.67
  121.0284 C3H8NO2P+ 2 121.0287 -2.21
  138.9945 C6H4O2P+ 1 138.9943 1.25
PK$NUM_PEAK: 10
PK$PEAK: m/z int. rel.int.
  63.9946 1245063.5 259
  65.0385 4791807 999
  78.9402 348084.9 72
  92.0256 618666.2 128
  93.0334 558747.6 116
  95.9668 1866779 389
  109.0107 520078 108
  111.0439 132024.3 27
  121.0284 2419861.2 504
  138.9945 114862.8 23
//
