ACCESSION: MSBNK-Eawag-EA030613
RECORD_TITLE: Terbutryn; LC-ESI-ITFT; MS2; CE: 90%; R=30000; [M+H]+
DATE: 2014.01.14
AUTHORS: Stravs M, Schymanski E, Singer H, Department of Environmental Chemistry, Eawag
LICENSE: CC BY
COPYRIGHT: Copyright (C) 2012 Eawag, Duebendorf, Switzerland
COMMENT: CONFIDENCE standard compound
COMMENT: EAWAG_UCHEM_ID 306
CH$NAME: Terbutryn
CH$NAME: 2-N-tert-butyl-4-N-ethyl-6-methylsulfanyl-1,3,5-triazine-2,4-diamine
CH$COMPOUND_CLASS: N/A; Environmental Standard
CH$FORMULA: C10H19N5S
CH$EXACT_MASS: 241.1356
CH$SMILES: c1(nc(nc(n1)SC)NCC)NC(C)(C)C
CH$IUPAC: InChI=1S/C10H19N5S/c1-6-11-7-12-8(15-10(2,3)4)14-9(13-7)16-5/h6H2,1-5H3,(H2,11,12,13,14,15)
CH$LINK: CAS 886-50-0
CH$LINK: CHEBI CHEBI:44156
CH$LINK: PUBCHEM CID:13450
CH$LINK: INCHIKEY IROINLKCQGIITA-UHFFFAOYSA-N
CH$LINK: CHEMSPIDER 12874
CH$LINK: COMPTOX DTXSID3024318
AC$INSTRUMENT: LTQ Orbitrap XL Thermo Scientific
AC$INSTRUMENT_TYPE: LC-ESI-ITFT
AC$MASS_SPECTROMETRY: MS_TYPE MS2
AC$MASS_SPECTROMETRY: ION_MODE POSITIVE
AC$MASS_SPECTROMETRY: IONIZATION ESI
AC$MASS_SPECTROMETRY: FRAGMENTATION_MODE HCD
AC$MASS_SPECTROMETRY: COLLISION_ENERGY 90 % (nominal)
AC$MASS_SPECTROMETRY: RESOLUTION 30000
AC$CHROMATOGRAPHY: COLUMN_NAME XBridge C18 3.5um, 2.1x50mm, Waters
AC$CHROMATOGRAPHY: FLOW_GRADIENT 90/10 at 0 min, 50/50 at 4 min, 5/95 at 17 min, 5/95 at 25 min, 90/10 at 25.1 min, 90/10 at 30 min
AC$CHROMATOGRAPHY: FLOW_RATE 200 ul/min
AC$CHROMATOGRAPHY: RETENTION_TIME 8.5 min
AC$CHROMATOGRAPHY: SOLVENT A water with 0.1% formic acid
AC$CHROMATOGRAPHY: SOLVENT B methanol with 0.1% formic acid
MS$FOCUSED_ION: BASE_PEAK 242.1438
MS$FOCUSED_ION: PRECURSOR_M/Z 242.1434
MS$FOCUSED_ION: PRECURSOR_TYPE [M+H]+
MS$DATA_PROCESSING: DEPROFILE Spline
MS$DATA_PROCESSING: RECALIBRATE loess on assigned fragments and MS1
MS$DATA_PROCESSING: REANALYZE Peaks with additional N2/O included
MS$DATA_PROCESSING: WHOLE RMassBank 1.3.1
PK$SPLASH: splash10-01b9-9400000000-160719d46b93f3e6ab20
PK$ANNOTATION: m/z tentative_formula formula_count mass error(ppm)
  57.0698 C4H9+ 1 57.0699 -0.64
  68.0243 C2H2N3+ 1 68.0243 -0.05
  71.0604 C3H7N2+ 1 71.0604 0.08
  74.0059 C2H4NS+ 1 74.0059 0.18
  85.0509 C2H5N4+ 1 85.0509 -0.15
  91.0324 C2H7N2S+ 1 91.0324 0.05
  96.0556 C4H6N3+ 1 96.0556 0.17
  102.0372 C4H8NS+ 1 102.0372 0.33
  110.0461 C3H4N5+ 1 110.0461 -0.2
  113.0822 C4H9N4+ 1 113.0822 -0.11
  116.0277 C3H6N3S+ 1 116.0277 0.05
  138.0774 C5H8N5+ 1 138.0774 -0.45
  144.0589 C5H10N3S+ 1 144.059 -0.45
  158.0495 C4H8N5S+ 1 158.0495 -0.21
  170.05 C5H8N5S+ 1 170.0495 2.98
  171.0575 C5H9N5S+ 1 171.0573 0.89
  186.0807 C6H12N5S+ 1 186.0808 -0.61
PK$NUM_PEAK: 17
PK$PEAK: m/z int. rel.int.
  57.0698 29952.8 14
  68.0243 2034971.9 999
  71.0604 850055.5 417
  74.0059 598755.5 293
  85.0509 346575.6 170
  91.0324 975111 478
  96.0556 928178.8 455
  102.0372 19708.2 9
  110.0461 213688 104
  113.0822 150140 73
  116.0277 854162 419
  138.0774 340029.9 166
  144.0589 351877.3 172
  158.0495 257995.1 126
  170.05 11401.1 5
  171.0575 9586.5 4
  186.0807 486362.8 238
//
