ACCESSION: MSBNK-Eawag-EA265803
RECORD_TITLE: N,N-Didesmethylvenlafaxine; LC-ESI-ITFT; MS2; CE: 30%; R=7500; [M+H]+
DATE: 2014.01.14
AUTHORS: Stravs M, Schymanski E, Singer H, Department of Environmental Chemistry, Eawag
LICENSE: CC BY
COPYRIGHT: Copyright (C) 2012 Eawag, Duebendorf, Switzerland
COMMENT: CONFIDENCE standard compound
COMMENT: EAWAG_UCHEM_ID 2658
CH$NAME: N,N-Didesmethylvenlafaxine
CH$NAME: 1-[2-Amino-1-(4-methoxyphenyl)ethyl]cyclohexanol
CH$COMPOUND_CLASS: N/A; Environmental Standard
CH$FORMULA: C15H23NO2
CH$EXACT_MASS: 249.1729
CH$SMILES: OC2(C(c1ccc(OC)cc1)CN)CCCCC2
CH$IUPAC: InChI=1S/C15H23NO2/c1-18-13-7-5-12(6-8-13)14(11-16)15(17)9-3-2-4-10-15/h5-8,14,17H,2-4,9-11,16H2,1H3
CH$LINK: CAS 93413-77-5
CH$LINK: CHEBI CHEBI:261155
CH$LINK: PUBCHEM CID:9795857
CH$LINK: INCHIKEY SUQHIQRIIBKNOR-UHFFFAOYSA-N
CH$LINK: CHEMSPIDER 7971623
CH$LINK: COMPTOX DTXSID50891440
AC$INSTRUMENT: LTQ Orbitrap XL Thermo Scientific
AC$INSTRUMENT_TYPE: LC-ESI-ITFT
AC$MASS_SPECTROMETRY: MS_TYPE MS2
AC$MASS_SPECTROMETRY: ION_MODE POSITIVE
AC$MASS_SPECTROMETRY: IONIZATION ESI
AC$MASS_SPECTROMETRY: FRAGMENTATION_MODE HCD
AC$MASS_SPECTROMETRY: COLLISION_ENERGY 30 % (nominal)
AC$MASS_SPECTROMETRY: RESOLUTION 7500
AC$CHROMATOGRAPHY: COLUMN_NAME XBridge C18 3.5um, 2.1x50mm, Waters
AC$CHROMATOGRAPHY: FLOW_GRADIENT 90/10 at 0 min, 50/50 at 4 min, 5/95 at 17 min, 5/95 at 25 min, 90/10 at 25.1 min, 90/10 at 30 min
AC$CHROMATOGRAPHY: FLOW_RATE 200 ul/min
AC$CHROMATOGRAPHY: RETENTION_TIME 6.3 min
AC$CHROMATOGRAPHY: SOLVENT A water with 0.1% formic acid
AC$CHROMATOGRAPHY: SOLVENT B methanol with 0.1% formic acid
MS$FOCUSED_ION: BASE_PEAK 250.1814
MS$FOCUSED_ION: PRECURSOR_M/Z 250.1802
MS$FOCUSED_ION: PRECURSOR_TYPE [M+H]+
MS$DATA_PROCESSING: DEPROFILE Spline
MS$DATA_PROCESSING: RECALIBRATE loess on assigned fragments and MS1
MS$DATA_PROCESSING: REANALYZE Peaks with additional N2/O included
MS$DATA_PROCESSING: WHOLE RMassBank 1.3.1
PK$SPLASH: splash10-014i-0390000000-c6b73dc31b130eaf3629
PK$ANNOTATION: m/z tentative_formula formula_count mass error(ppm)
  79.0543 C6H7+ 1 79.0542 0.67
  81.0698 C6H9+ 1 81.0699 -0.95
  91.0541 C7H7+ 1 91.0542 -1.72
  93.0698 C7H9+ 1 93.0699 -1.15
  107.0856 C8H11+ 1 107.0855 0.59
  121.0649 C8H9O+ 1 121.0648 0.48
  124.1124 C8H14N+ 1 124.1121 2.77
  135.0808 C9H11O+ 1 135.0804 2.95
  147.0805 C10H11O+ 1 147.0804 0.47
  159.0807 C11H11O+ 1 159.0804 1.63
  173.0962 C12H13O+ 1 173.0961 0.74
  201.1278 C14H17O+ 1 201.1274 2.18
  203.143 C14H19O+ 1 203.143 -0.45
  215.1432 C15H19O+ 1 215.143 0.78
  232.1695 C15H22NO+ 1 232.1696 -0.26
PK$NUM_PEAK: 15
PK$PEAK: m/z int. rel.int.
  79.0543 11887.1 6
  81.0698 9765.5 4
  91.0541 19689 9
  93.0698 19442.6 9
  107.0856 19606.7 9
  121.0649 501643.3 254
  124.1124 22048.7 11
  135.0808 13159.7 6
  147.0805 240049.9 121
  159.0807 52760.6 26
  173.0962 63251.6 32
  201.1278 22833.7 11
  203.143 89105.8 45
  215.1432 1972731.4 999
  232.1695 217189.3 109
//
