ACCESSION: MSBNK-Eawag-EQ358102
RECORD_TITLE: Naftifine; LC-ESI-QFT; MS2; CE: 30; R=35000; [M+H]+
DATE: 2015.08.25
AUTHORS: Beck B, Stravs M, Schymanski E, Singer H, Department of Environmental Chemistry, Eawag
LICENSE: CC BY
COPYRIGHT: Copyright (C) 2015 Eawag, Duebendorf, Switzerland
COMMENT: CONFIDENCE standard compound
COMMENT: EAWAG_UCHEM_ID 3581
CH$NAME: Naftifine
CH$NAME: Suadian
CH$NAME: N-methyl-N-(naphthalen-1-ylmethyl)-3-phenylprop-2-en-1-amine
CH$COMPOUND_CLASS: N/A; Environmental Standard
CH$FORMULA: C21H21N
CH$EXACT_MASS: 287.16740
CH$SMILES: CN(CC=CC1=CC=CC=C1)CC2=CC=CC3=CC=CC=C32
CH$IUPAC: InChI=1S/C21H21N/c1-22(16-8-11-18-9-3-2-4-10-18)17-20-14-7-13-19-12-5-6-15-21(19)20/h2-15H,16-17H2,1H3
CH$LINK: CAS 65472-88-0
CH$LINK: PUBCHEM CID:73342
CH$LINK: INCHIKEY OZGNYLLQHRPOBR-UHFFFAOYSA-N
CH$LINK: CHEMSPIDER 66071
AC$INSTRUMENT: Q Exactive Plus Orbitrap Thermo Scientific
AC$INSTRUMENT_TYPE: LC-ESI-QFT
AC$MASS_SPECTROMETRY: MS_TYPE MS2
AC$MASS_SPECTROMETRY: ION_MODE POSITIVE
AC$MASS_SPECTROMETRY: IONIZATION ESI
AC$MASS_SPECTROMETRY: FRAGMENTATION_MODE HCD
AC$MASS_SPECTROMETRY: COLLISION_ENERGY 30 (nominal)
AC$MASS_SPECTROMETRY: RESOLUTION 35000
AC$CHROMATOGRAPHY: COLUMN_NAME XBridge C18 3.5um, 2.1x50mm, Waters
AC$CHROMATOGRAPHY: FLOW_GRADIENT 90/10 at 0 min, 50/50 at 4 min, 5/95 at 17 min, 5/95 at 25 min, 90/10 at 25.1 min, 90/10 at 30 min
AC$CHROMATOGRAPHY: FLOW_RATE 200 ul/min
AC$CHROMATOGRAPHY: RETENTION_TIME 7.5 min
AC$CHROMATOGRAPHY: SOLVENT A water with 0.1% formic acid
AC$CHROMATOGRAPHY: SOLVENT B methanol with 0.1% formic acid
MS$FOCUSED_ION: BASE_PEAK 288.1741
MS$FOCUSED_ION: PRECURSOR_M/Z 288.1747
MS$FOCUSED_ION: PRECURSOR_TYPE [M+H]+
MS$DATA_PROCESSING: RECALIBRATE loess on assigned fragments and MS1
MS$DATA_PROCESSING: REANALYZE Peaks with additional N2/O included
MS$DATA_PROCESSING: WHOLE RMassBank 1.9.6
PK$SPLASH: splash10-014i-0900000000-1a47528b60d38f7230ea
PK$ANNOTATION: m/z tentative_formula formula_count mass error(ppm)
  91.0542 C7H7+ 1 91.0542 -0.4
  115.0541 C9H7+ 1 115.0542 -1.36
  117.0698 C9H9+ 1 117.0699 -0.83
  141.0698 C11H9+ 1 141.0699 -0.61
  146.0964 C10H12N+ 1 146.0964 -0.18
  165.0699 C13H9+ 1 165.0699 -0.16
  170.0964 C12H12N+ 1 170.0964 -0.45
  257.1325 C20H17+ 1 257.1325 0.21
  288.1746 C21H22N+ 1 288.1747 -0.33
PK$NUM_PEAK: 9
PK$PEAK: m/z int. rel.int.
  91.0542 3022018.5 2
  115.0541 10777018 10
  117.0698 1041123520 999
  141.0698 371254848 356
  146.0964 5450931 5
  165.0699 1572863.1 1
  170.0964 23962740 22
  257.1325 1834967.5 1
  288.1746 13024508 12
//
