ACCESSION: MSBNK-Eawag-EQ370905
RECORD_TITLE: Fluometuron; LC-ESI-QFT; MS2; CE: 75%; R=15000; [M+H]+
DATE: 2021.03.16
AUTHORS: K. Kiefer [dtc], J. Hollender [dtc], H. Singer [dtc], B. Lauper [com]
LICENSE: CC BY-SA
COPYRIGHT: Copyright (C) Eawag 2019
PUBLICATION: Kiefer, K., Du, L., Singer, H., Hollender, J.. Identification of LC-HRMS Nontarget Signals in Groundwater After Source Related Prioritization. Water Research 2021, 196. DOI: https://doi.org/10.1016/j.watres.2021.116994
COMMENT: CONFIDENCE standard compound
COMMENT: UCHEM_ID 3709
CH$NAME: Fluometuron
CH$NAME: 1,1-dimethyl-3-[3-(trifluoromethyl)phenyl]urea
CH$COMPOUND_CLASS: N/A; Environmental Standard
CH$FORMULA: C10H11F3N2O
CH$EXACT_MASS: 232.0823
CH$SMILES: CN(C)C(=O)NC1=CC=CC(=C1)C(F)(F)F
CH$IUPAC: InChI=1S/C10H11F3N2O/c1-15(2)9(16)14-8-5-3-4-7(6-8)10(11,12)13/h3-6H,1-2H3,(H,14,16)
CH$LINK: CAS 2164-17-2
CH$LINK: CHEBI CHEBI:82012
CH$LINK: KEGG C18853
CH$LINK: PUBCHEM CID:16562
CH$LINK: INCHIKEY RZILCCPWPBTYDO-UHFFFAOYSA-N
CH$LINK: CHEMSPIDER 15702
CH$LINK: COMPTOX DTXSID8020628
AC$INSTRUMENT: Orbitrap Exploris 240 Thermo Scientific
AC$INSTRUMENT_TYPE: LC-ESI-QFT
AC$MASS_SPECTROMETRY: MS_TYPE MS2
AC$MASS_SPECTROMETRY: ION_MODE POSITIVE
AC$MASS_SPECTROMETRY: IONIZATION ESI
AC$MASS_SPECTROMETRY: FRAGMENTATION_MODE HCD
AC$MASS_SPECTROMETRY: COLLISION_ENERGY 75 % (nominal)
AC$MASS_SPECTROMETRY: RESOLUTION 15000
AC$MASS_SPECTROMETRY: MASS_RANGE_M/Z NA-NA
AC$CHROMATOGRAPHY: COLUMN_NAME Atlantis C18 3um, 3.0x150mm, Waters
AC$CHROMATOGRAPHY: FLOW_GRADIENT 100/0 at 0 min, 100/0 at 1.5 min, 5/95 at 18.5 min, 5/95 at 28.5 min, 100/0 at 29 min, 100/0 at 33 min
AC$CHROMATOGRAPHY: FLOW_RATE 300 uL/min
AC$CHROMATOGRAPHY: RETENTION_TIME 17.852 min
MS$FOCUSED_ION: BASE_PEAK 233.0894
MS$FOCUSED_ION: PRECURSOR_M/Z 233.0896
MS$FOCUSED_ION: PRECURSOR_TYPE [M+H]+
MS$FOCUSED_ION: PRECURSOR_INTENSITY 949104192
MS$DATA_PROCESSING: RECALIBRATE loess on assigned fragments and MS1
MS$DATA_PROCESSING: REANALYZE Peaks with additional N2/O included
MS$DATA_PROCESSING: WHOLE RMassBank 2.99.4
PK$SPLASH: splash10-00di-9000000000-5ad59f6d6a2385958579
PK$ANNOTATION: m/z tentative_formula formula_count mass error(ppm)
  56.0132 C2H2NO+ 1 56.0131 1.78
  72.0444 C3H6NO+ 1 72.0444 -0.28
  140.0305 C7H4F2N+ 1 140.0306 -1.03
  145.0261 C7H4F3+ 1 145.026 1.07
  160.0365 C7H5F3N+ 1 160.0369 -2.28
  168.0254 C8H4F2NO+ 1 168.0255 -1.06
  173.0324 C7H4F3N2+ 1 173.0321 1.64
PK$NUM_PEAK: 7
PK$PEAK: m/z int. rel.int.
  56.0132 1331001.1 7
  72.0444 183336080 999
  140.0305 1417339.9 7
  145.0261 4152742 22
  160.0365 7762942 42
  168.0254 2000341 10
  173.0324 1671342.9 9
//
