ACCESSION: MSBNK-Eawag-EQ418702
RECORD_TITLE: Terbuthylazine-TP MT23 (LM5); LC-ESI-QFT; MS2; CE: 30%; R=17500; [M+H]+
DATE: 2019.12.03
AUTHORS: K. Kiefer [dtc], J. Hollender [dtc], H. Singer [dtc], M. Stravs [com]
LICENSE: CC BY-SA
COPYRIGHT: Copyright (C) Eawag 2019
PUBLICATION: Kiefer, K.; Mueller, A.; Singer, H.; Hollender, J. New relevant pesticide transformation products in groundwater detected using target and suspect screening for agricultural and urban micropollutants with LC-HRMS. Water Research 2019, 165. DOI: https://doi.org/10.1016/j.watres.2019.114972
COMMENT: CONFIDENCE standard compound
COMMENT: UCHEM_ID 4187
CH$NAME: Terbuthylazine-TP MT23 (LM5)
CH$NAME: 6-[(2-Methyl-2-propanyl)amino]-1,3,5-triazine-2,4(1H,3H)-dione
CH$NAME: 6-(tert-butylamino)-1H-1,3,5-triazine-2,4-dione
CH$COMPOUND_CLASS: N/A; Environmental Standard
CH$FORMULA: C7H12N4O2
CH$EXACT_MASS: 184.0960
CH$SMILES: CC(C)(C)NC1=NC(O)=NC(O)=N1
CH$IUPAC: InChI=1S/C7H12N4O2/c1-7(2,3)11-4-8-5(12)10-6(13)9-4/h1-3H3,(H3,8,9,10,11,12,13)
CH$LINK: PUBCHEM CID:582098
CH$LINK: INCHIKEY RMGNIWIYFYKTDC-UHFFFAOYSA-N
CH$LINK: CHEMSPIDER 505953
AC$INSTRUMENT: Q Exactive Plus Orbitrap Thermo Scientific
AC$INSTRUMENT_TYPE: LC-ESI-QFT
AC$MASS_SPECTROMETRY: MS_TYPE MS2
AC$MASS_SPECTROMETRY: ION_MODE POSITIVE
AC$MASS_SPECTROMETRY: IONIZATION ESI
AC$MASS_SPECTROMETRY: FRAGMENTATION_MODE HCD
AC$MASS_SPECTROMETRY: COLLISION_ENERGY 30 % (nominal)
AC$MASS_SPECTROMETRY: RESOLUTION 17500
AC$CHROMATOGRAPHY: COLUMN_NAME XBridge C18 3.5um, 2.1x50mm, Waters
AC$CHROMATOGRAPHY: FLOW_GRADIENT 90/10 at 0 min, 50/50 at 4 min, 5/95 at 17 min, 5/95 at 25 min, 90/10 at 25.1 min, 90/10 at 30 min
AC$CHROMATOGRAPHY: FLOW_RATE 200 uL/min
AC$CHROMATOGRAPHY: RETENTION_TIME 3.358 min
AC$CHROMATOGRAPHY: SOLVENT A water with 0.1% formic acid
AC$CHROMATOGRAPHY: SOLVENT B MeOH with 0.1% formic acid
MS$FOCUSED_ION: BASE_PEAK 185.1033
MS$FOCUSED_ION: PRECURSOR_M/Z 185.1033
MS$FOCUSED_ION: PRECURSOR_TYPE [M+H]+
MS$DATA_PROCESSING: RECALIBRATE loess on assigned fragments and MS1
MS$DATA_PROCESSING: REANALYZE Peaks with additional N2/O included
MS$DATA_PROCESSING: WHOLE RMassBank 2.99.1
PK$SPLASH: splash10-004i-1900000000-3b418c1dc7565dd134cd
PK$ANNOTATION: m/z tentative_formula formula_count mass error(ppm)
  57.0699 C4H9+ 1 57.0699 0.11
  86.0349 C2H4N3O+ 1 86.0349 -0.14
  87.0189 C2H3N2O2+ 1 87.0189 0.21
  129.0407 C3H5N4O2+ 1 129.0407 -0.3
  185.1033 C7H13N4O2+ 1 185.1033 -0.01
PK$NUM_PEAK: 5
PK$PEAK: m/z int. rel.int.
  57.0699 17999522 106
  86.0349 2558977.5 15
  87.0189 1131497.6 6
  129.0407 168929904 999
  185.1033 17496468 103
//
