ACCESSION: MSBNK-Eawag-EA008803
RECORD_TITLE: Chloridazon; LC-ESI-ITFT; MS2; CE: 30%; R=7500; [M+H]+
DATE: 2014.01.14
AUTHORS: Stravs M, Schymanski E, Singer H, Department of Environmental Chemistry, Eawag
LICENSE: CC BY
COPYRIGHT: Copyright (C) 2012 Eawag, Duebendorf, Switzerland
COMMENT: CONFIDENCE standard compound
COMMENT: EAWAG_UCHEM_ID 88
CH$NAME: Chloridazon
CH$NAME: 5-amino-4-chloro-2-phenyl-3-pyridazinone
CH$COMPOUND_CLASS: N/A; Environmental Standard
CH$FORMULA: C10H8ClN3O
CH$EXACT_MASS: 221.0350
CH$SMILES: ClC(=C(N)C=N1)C(=O)N1-c(ccc2)cc2
CH$IUPAC: InChI=1S/C10H8ClN3O/c11-9-8(12)6-13-14(10(9)15)7-4-2-1-3-5-7/h1-6H,12H2
CH$LINK: CAS 1698-60-8
CH$LINK: PUBCHEM CID:15546
CH$LINK: INCHIKEY WYKYKTKDBLFHCY-UHFFFAOYSA-N
CH$LINK: CHEMSPIDER 14790
CH$LINK: COMPTOX DTXSID3034872
AC$INSTRUMENT: LTQ Orbitrap XL Thermo Scientific
AC$INSTRUMENT_TYPE: LC-ESI-ITFT
AC$MASS_SPECTROMETRY: MS_TYPE MS2
AC$MASS_SPECTROMETRY: ION_MODE POSITIVE
AC$MASS_SPECTROMETRY: IONIZATION ESI
AC$MASS_SPECTROMETRY: FRAGMENTATION_MODE HCD
AC$MASS_SPECTROMETRY: COLLISION_ENERGY 30 % (nominal)
AC$MASS_SPECTROMETRY: RESOLUTION 7500
AC$CHROMATOGRAPHY: COLUMN_NAME XBridge C18 3.5um, 2.1x50mm, Waters
AC$CHROMATOGRAPHY: FLOW_GRADIENT 90/10 at 0 min, 50/50 at 4 min, 5/95 at 17 min, 5/95 at 25 min, 90/10 at 25.1 min, 90/10 at 30 min
AC$CHROMATOGRAPHY: FLOW_RATE 200 ul/min
AC$CHROMATOGRAPHY: RETENTION_TIME 5.2 min
AC$CHROMATOGRAPHY: SOLVENT A water with 0.1% formic acid
AC$CHROMATOGRAPHY: SOLVENT B methanol with 0.1% formic acid
MS$FOCUSED_ION: BASE_PEAK 222.0432
MS$FOCUSED_ION: PRECURSOR_M/Z 222.0429
MS$FOCUSED_ION: PRECURSOR_TYPE [M+H]+
MS$DATA_PROCESSING: DEPROFILE Spline
MS$DATA_PROCESSING: RECALIBRATE loess on assigned fragments and MS1
MS$DATA_PROCESSING: REANALYZE Peaks with additional N2/O included
MS$DATA_PROCESSING: WHOLE RMassBank 1.3.1
PK$SPLASH: splash10-00di-0090000000-9832e8068041ba43e8ef
PK$ANNOTATION: m/z tentative_formula formula_count mass error(ppm)
  77.0383 C6H5+ 1 77.0386 -4.24
  104.0496 C7H6N+ 1 104.0495 1
  222.0431 C10H9ClN3O+ 1 222.0429 1.1
PK$NUM_PEAK: 3
PK$PEAK: m/z int. rel.int.
  77.0383 5263 1
  104.0496 8816.4 2
  222.0431 3864896.6 999
//
