ACCESSION: MSBNK-Eawag-EQ01127109
RECORD_TITLE: Hexaconazole; LC-ESI-QFT; MS2; CE: 180%; R=17500; [M+H]+
DATE: 2023.04.27
AUTHORS: B. Beck [dtc,com], J. Hollender [dtc]
LICENSE: CC BY-SA
COPYRIGHT: Copyright (C) Eawag 2023
COMMENT: CONFIDENCE standard compound
COMMENT: UCHEM_ID 11271
CH$NAME: Hexaconazole
CH$NAME: 2-(2,4-dichlorophenyl)-1-(1,2,4-triazol-1-yl)hexan-2-ol
CH$COMPOUND_CLASS: N/A; Environmental Standard
CH$FORMULA: C14H17Cl2N3O
CH$EXACT_MASS: 313.0749
CH$SMILES: CCCCC(CN1C=NC=N1)(C2=C(C=C(C=C2)Cl)Cl)O
CH$IUPAC: InChI=1S/C14H17Cl2N3O/c1-2-3-6-14(20,8-19-10-17-9-18-19)12-5-4-11(15)7-13(12)16/h4-5,7,9-10,20H,2-3,6,8H2,1H3
CH$LINK: CAS 79983-71-4
CH$LINK: CHEBI CHEBI:83711
CH$LINK: KEGG C18466
CH$LINK: PUBCHEM CID:66461
CH$LINK: INCHIKEY STMIIPIFODONDC-UHFFFAOYSA-N
CH$LINK: CHEMSPIDER 59833
AC$INSTRUMENT: Exploris 240 Orbitrap Thermo Scientific
AC$INSTRUMENT_TYPE: LC-ESI-QFT
AC$MASS_SPECTROMETRY: MS_TYPE MS2
AC$MASS_SPECTROMETRY: ION_MODE POSITIVE
AC$MASS_SPECTROMETRY: IONIZATION ESI
AC$MASS_SPECTROMETRY: FRAGMENTATION_MODE HCD
AC$MASS_SPECTROMETRY: COLLISION_ENERGY 180 % (nominal)
AC$MASS_SPECTROMETRY: RESOLUTION 17500
AC$MASS_SPECTROMETRY: MASS_RANGE_M/Z 50-341
AC$CHROMATOGRAPHY: COLUMN_NAME XBridge C18 3.5um, 2.1x50mm, Waters
AC$CHROMATOGRAPHY: FLOW_GRADIENT 90/10 at 0 min, 50/50 at 4 min, 5/95 at 17 min, 5/95 at 25 min, 90/10 at 25.1 min, 90/10 at 30 min
AC$CHROMATOGRAPHY: FLOW_RATE 200 uL/min
AC$CHROMATOGRAPHY: RETENTION_TIME 11.635 min
MS$FOCUSED_ION: BASE_PEAK 320.1519
MS$FOCUSED_ION: PRECURSOR_M/Z 314.0821
MS$FOCUSED_ION: PRECURSOR_TYPE [M+H]+
MS$DATA_PROCESSING: RECALIBRATE loess on assigned fragments and MS1
MS$DATA_PROCESSING: REANALYZE Peaks with additional N2/O included
MS$DATA_PROCESSING: WHOLE RMassBank 3.11.0.1
PK$SPLASH: splash10-00di-9000000000-09b169311d282160ac81
PK$ANNOTATION: m/z tentative_formula formula_count mass error(ppm)
  63.0229 C5H3+ 1 63.0229 -0.4
  70.0399 C2H4N3+ 1 70.04 -0.82
  72.9839 C3H2Cl+ 1 72.984 -0.99
  74.015 C6H2+ 1 74.0151 -1.14
  75.0228 C6H3+ 1 75.0229 -1.79
  88.0308 C7H4+ 1 88.0308 0.09
  89.0384 C7H5+ 1 89.0386 -1.84
  96.984 C5H2Cl+ 1 96.984 0.66
  98.9995 C5H4Cl+ 1 98.9996 -0.63
  99.0231 C8H3+ 1 99.0229 2
  115.0538 C9H7+ 1 115.0542 -3.31
  122.9995 C7H4Cl+ 1 122.9996 -0.67
PK$NUM_PEAK: 12
PK$PEAK: m/z int. rel.int.
  63.0229 5454105.5 97
  70.0399 56133348 999
  72.9839 7498424.5 133
  74.015 3001860 53
  75.0228 7021080 124
  88.0308 706818.2 12
  89.0384 14854120 264
  96.984 784670.7 13
  98.9995 2783973.2 49
  99.0231 1139174.1 20
  115.0538 3805900.2 67
  122.9995 1552267.1 27
//
