ACCESSION: MSBNK-Eawag-EQ01107504
RECORD_TITLE: 2-Ethylhexyl 4-(dimethylamino)benzoate; LC-ESI-QFT; MS2; CE: 60%; R=15000; [M+H]+
DATE: 2024.06.14
AUTHORS: F. Jud [dtc], K. Arturi [dtc], J. Hollender [dtc], A. Dax [com]
LICENSE: CC BY-SA
COPYRIGHT: Copyright (C) Eawag 2024
COMMENT: CONFIDENCE standard compound
COMMENT: UCHEM_ID 11075
CH$NAME: 2-Ethylhexyl 4-(dimethylamino)benzoate
CH$COMPOUND_CLASS: N/A
CH$FORMULA: C17H27NO2
CH$EXACT_MASS: 277.2041791
CH$SMILES: CCCCC(CC)COC(=O)C1=CC=C(C=C1)N(C)C
CH$IUPAC: InChI=1S/C17H27NO2/c1-5-7-8-14(6-2)13-20-17(19)15-9-11-16(12-10-15)18(3)4/h9-12,14H,5-8,13H2,1-4H3
CH$LINK: CAS 21245-02-3
CH$LINK: CHEBI CHEBI:135932
CH$LINK: KEGG D05335
CH$LINK: PUBCHEM CID:30541
CH$LINK: INCHIKEY WYWZRNAHINYAEF-UHFFFAOYSA-N
CH$LINK: CHEMSPIDER 28343
AC$INSTRUMENT: Exploris 240 Thermo Scientific
AC$INSTRUMENT_TYPE: LC-ESI-QFT
AC$MASS_SPECTROMETRY: MS_TYPE MS2
AC$MASS_SPECTROMETRY: ION_MODE POSITIVE
AC$MASS_SPECTROMETRY: IONIZATION ESI
AC$MASS_SPECTROMETRY: FRAGMENTATION_MODE HCD
AC$MASS_SPECTROMETRY: COLLISION_ENERGY 60 % (nominal)
AC$MASS_SPECTROMETRY: RESOLUTION 15000
AC$MASS_SPECTROMETRY: MASS_RANGE_M/Z 50-305
AC$CHROMATOGRAPHY: COLUMN_NAME XBridge C18 3.5um, 2.1x50mm, Waters
AC$CHROMATOGRAPHY: FLOW_GRADIENT 90/10 at 0 min, 50/50 at 4 min, 5/95 at 17 min, 5/95 at 25 min, 90/10 at 25.1 min, 90/10 at 30 min
AC$CHROMATOGRAPHY: FLOW_RATE 200 uL/min
AC$CHROMATOGRAPHY: RETENTION_TIME 15.727 min
MS$FOCUSED_ION: BASE_PEAK 278.2111
MS$FOCUSED_ION: PRECURSOR_M/Z 278.2115
MS$FOCUSED_ION: PRECURSOR_TYPE [M+H]+
MS$DATA_PROCESSING: RECALIBRATE loess on assigned fragments and MS1
MS$DATA_PROCESSING: REANALYZE Peaks with additional N2/O included
MS$DATA_PROCESSING: WHOLE RMassBank 3.15.1.1
PK$SPLASH: splash10-0uxr-0900000000-bb9c75d9f3f062f2137e
PK$ANNOTATION: m/z tentative_formula formula_count mass error(ppm)
  107.073 C7H9N+ 1 107.073 0.15
  122.0961 C8H12N+ 1 122.0964 -2.53
  134.0601 C8H8NO+ 1 134.06 0.25
  150.0545 C8H8NO2+ 1 150.055 -2.92
  151.0627 C8H9NO2+ 1 151.0628 -0.66
  166.0861 C9H12NO2+ 1 166.0863 -0.66
  202.0776 C16H10+ 1 202.0777 -0.47
  278.2115 C17H28NO2+ 1 278.2115 0.2
PK$NUM_PEAK: 8
PK$PEAK: m/z int. rel.int.
  107.073 5076548 31
  122.0961 3192303.8 19
  134.0601 2458931.5 15
  150.0545 3114582.8 19
  151.0627 160720400 999
  166.0861 105163624 653
  202.0776 13728947 85
  278.2115 2021171.8 12
//
