ACCESSION: MSBNK-Eawag-EQ01142103
RECORD_TITLE: Ethyl 3-(N-butylacetamido)propanoate; LC-ESI-QFT; MS2; CE: 45%; R=17500; [M+H]+
DATE: 2023.08.10
AUTHORS: B. Beck [dtc,com], J. Hollender [dtc]
LICENSE: CC BY-SA
COPYRIGHT: Copyright (C) Eawag 2023
COMMENT: CONFIDENCE standard compound
COMMENT: UCHEM_ID 11421
CH$NAME: Ethyl 3-(N-butylacetamido)propanoate
CH$NAME: Ethyl butylacetylaminopropionate
CH$NAME: ethyl 3-[acetyl(butyl)amino]propanoate
CH$COMPOUND_CLASS: N/A; Environmental Standard
CH$FORMULA: C11H21NO3
CH$EXACT_MASS: 215.1521
CH$SMILES: CCCCN(CCC(=O)OCC)C(=O)C
CH$IUPAC: InChI=1S/C11H21NO3/c1-4-6-8-12(10(3)13)9-7-11(14)15-5-2/h4-9H2,1-3H3
CH$LINK: CAS 5334-18-9
CH$LINK: CHEBI CHEBI:81991
CH$LINK: KEGG C18830
CH$LINK: PUBCHEM CID:104150
CH$LINK: INCHIKEY VZRKEAFHFMSHCD-UHFFFAOYSA-N
CH$LINK: CHEMSPIDER 94028
AC$INSTRUMENT: Exploris 240 Orbitrap Thermo Scientific
AC$INSTRUMENT_TYPE: LC-ESI-QFT
AC$MASS_SPECTROMETRY: MS_TYPE MS2
AC$MASS_SPECTROMETRY: ION_MODE POSITIVE
AC$MASS_SPECTROMETRY: IONIZATION ESI
AC$MASS_SPECTROMETRY: FRAGMENTATION_MODE HCD
AC$MASS_SPECTROMETRY: COLLISION_ENERGY 45 % (nominal)
AC$MASS_SPECTROMETRY: RESOLUTION 17500
AC$MASS_SPECTROMETRY: MASS_RANGE_M/Z 48-241
AC$CHROMATOGRAPHY: COLUMN_NAME XBridge C18 3.5um, 2.1x50mm, Waters
AC$CHROMATOGRAPHY: FLOW_GRADIENT 90/10 at 0 min, 50/50 at 4 min, 5/95 at 17 min, 5/95 at 25 min, 90/10 at 25.1 min, 90/10 at 30 min
AC$CHROMATOGRAPHY: FLOW_RATE 200 uL/min
AC$CHROMATOGRAPHY: RETENTION_TIME 6.563 min
MS$FOCUSED_ION: BASE_PEAK 216.1592
MS$FOCUSED_ION: PRECURSOR_M/Z 216.1594
MS$FOCUSED_ION: PRECURSOR_TYPE [M+H]+
MS$DATA_PROCESSING: RECALIBRATE loess on assigned fragments and MS1
MS$DATA_PROCESSING: REANALYZE Peaks with additional N2/O included
MS$DATA_PROCESSING: WHOLE RMassBank 3.11.0.1
PK$SPLASH: splash10-002r-9700000000-2388401ecd3ec042085f
PK$ANNOTATION: m/z tentative_formula formula_count mass error(ppm)
  73.0287 C3H5O2+ 1 73.0284 3.46
  86.0964 C5H12N+ 1 86.0964 -0.48
  116.1071 C6H14NO+ 1 116.107 1.09
  128.1069 C7H14NO+ 1 128.107 -0.64
  170.1175 C9H16NO2+ 1 170.1176 -0.06
  174.1488 C9H20NO2+ 1 174.1489 -0.43
PK$NUM_PEAK: 6
PK$PEAK: m/z int. rel.int.
  73.0287 2975586.2 3
  86.0964 761560960 999
  116.1071 7622549.5 9
  128.1069 416353664 546
  170.1175 182976080 240
  174.1488 67408896 88
//
