ACCESSION: MSBNK-Eawag-EQ01125201
RECORD_TITLE: Fensulfothion; LC-ESI-QFT; MS2; CE: 15%; R=17500; [M+H]+
DATE: 2023.04.27
AUTHORS: B. Beck [dtc,com], J. Hollender [dtc]
LICENSE: CC BY-SA
COPYRIGHT: Copyright (C) Eawag 2023
COMMENT: CONFIDENCE standard compound
COMMENT: UCHEM_ID 11252
CH$NAME: Fensulfothion
CH$NAME: diethoxy-(4-methylsulfinylphenoxy)-sulfanylidene-lambda5-phosphane
CH$COMPOUND_CLASS: N/A; Environmental Standard
CH$FORMULA: C11H17O4PS2
CH$EXACT_MASS: 308.0306
CH$SMILES: CCOP(=S)(OCC)OC1=CC=C(C=C1)S(=O)C
CH$IUPAC: InChI=1S/C11H17O4PS2/c1-4-13-16(17,14-5-2)15-10-6-8-11(9-7-10)18(3)12/h6-9H,4-5H2,1-3H3
CH$LINK: CAS 115-90-2
CH$LINK: CHEBI CHEBI:34760
CH$LINK: KEGG C14510
CH$LINK: PUBCHEM CID:8292
CH$LINK: INCHIKEY XDNBJTQLKCIJBV-UHFFFAOYSA-N
CH$LINK: CHEMSPIDER 7991
AC$INSTRUMENT: Exploris 240 Orbitrap Thermo Scientific
AC$INSTRUMENT_TYPE: LC-ESI-QFT
AC$MASS_SPECTROMETRY: MS_TYPE MS2
AC$MASS_SPECTROMETRY: ION_MODE POSITIVE
AC$MASS_SPECTROMETRY: IONIZATION ESI
AC$MASS_SPECTROMETRY: FRAGMENTATION_MODE HCD
AC$MASS_SPECTROMETRY: COLLISION_ENERGY 15 % (nominal)
AC$MASS_SPECTROMETRY: RESOLUTION 17500
AC$MASS_SPECTROMETRY: MASS_RANGE_M/Z 50-336
AC$CHROMATOGRAPHY: COLUMN_NAME XBridge C18 3.5um, 2.1x50mm, Waters
AC$CHROMATOGRAPHY: FLOW_GRADIENT 90/10 at 0 min, 50/50 at 4 min, 5/95 at 17 min, 5/95 at 25 min, 90/10 at 25.1 min, 90/10 at 30 min
AC$CHROMATOGRAPHY: FLOW_RATE 200 uL/min
AC$CHROMATOGRAPHY: RETENTION_TIME 7.188 min
MS$FOCUSED_ION: BASE_PEAK 309.0377
MS$FOCUSED_ION: PRECURSOR_M/Z 309.0379
MS$FOCUSED_ION: PRECURSOR_TYPE [M+H]+
MS$DATA_PROCESSING: RECALIBRATE loess on assigned fragments and MS1
MS$DATA_PROCESSING: REANALYZE Peaks with additional N2/O included
MS$DATA_PROCESSING: WHOLE RMassBank 3.11.0.1
PK$SPLASH: splash10-0a4i-0019000000-0e2b52fd95c7530abc70
PK$ANNOTATION: m/z tentative_formula formula_count mass error(ppm)
  234.9649 C7H8O3PS2+ 1 234.9647 0.67
  252.9747 C7H10O4PS2+ 1 252.9753 -2.35
  262.9949 C9H12O3PS2+ 1 262.996 -4.25
  281.0065 C9H14O4PS2+ 1 281.0066 -0.35
  309.0377 C11H18O4PS2+ 1 309.0379 -0.64
PK$NUM_PEAK: 5
PK$PEAK: m/z int. rel.int.
  234.9649 903121.3 3
  252.9747 3008046.8 10
  262.9949 1196197.6 4
  281.0065 31826868 110
  309.0377 287318144 999
//
