ACCESSION: MSBNK-Eawag-EQ01133401
RECORD_TITLE: Chinomethionat; LC-ESI-QFT; MS2; CE: 15%; R=17500; [M+H]+
DATE: 2023.04.27
AUTHORS: B. Beck [dtc,com], J. Hollender [dtc]
LICENSE: CC BY-SA
COPYRIGHT: Copyright (C) Eawag 2023
COMMENT: CONFIDENCE standard compound
COMMENT: UCHEM_ID 11334
CH$NAME: Chinomethionat
CH$NAME: 6-methyl-[1,3]dithiolo[4,5-b]quinoxalin-2-one
CH$COMPOUND_CLASS: N/A; Environmental Standard
CH$FORMULA: C10H6N2OS2
CH$EXACT_MASS: 233.9922
CH$SMILES: CC1=CC2=C(C=C1)N=C3C(=N2)SC(=O)S3
CH$IUPAC: InChI=1S/C10H6N2OS2/c1-5-2-3-6-7(4-5)12-9-8(11-6)14-10(13)15-9/h2-4H,1H3
CH$LINK: CAS 2439-01-2
CH$LINK: CHEBI CHEBI:34620
CH$LINK: KEGG C14514
CH$LINK: PUBCHEM CID:17109
CH$LINK: INCHIKEY FBQQHUGEACOBDN-UHFFFAOYSA-N
CH$LINK: CHEMSPIDER 16193
AC$INSTRUMENT: Exploris 240 Orbitrap Thermo Scientific
AC$INSTRUMENT_TYPE: LC-ESI-QFT
AC$MASS_SPECTROMETRY: MS_TYPE MS2
AC$MASS_SPECTROMETRY: ION_MODE POSITIVE
AC$MASS_SPECTROMETRY: IONIZATION ESI
AC$MASS_SPECTROMETRY: FRAGMENTATION_MODE HCD
AC$MASS_SPECTROMETRY: COLLISION_ENERGY 15 % (nominal)
AC$MASS_SPECTROMETRY: RESOLUTION 17500
AC$MASS_SPECTROMETRY: MASS_RANGE_M/Z 50-261
AC$CHROMATOGRAPHY: COLUMN_NAME XBridge C18 3.5um, 2.1x50mm, Waters
AC$CHROMATOGRAPHY: FLOW_GRADIENT 90/10 at 0 min, 50/50 at 4 min, 5/95 at 17 min, 5/95 at 25 min, 90/10 at 25.1 min, 90/10 at 30 min
AC$CHROMATOGRAPHY: FLOW_RATE 200 uL/min
AC$CHROMATOGRAPHY: RETENTION_TIME 12.419 min
MS$FOCUSED_ION: BASE_PEAK 234.9995
MS$FOCUSED_ION: PRECURSOR_M/Z 234.9994
MS$FOCUSED_ION: PRECURSOR_TYPE [M+H]+
MS$DATA_PROCESSING: RECALIBRATE loess on assigned fragments and MS1
MS$DATA_PROCESSING: REANALYZE Peaks with additional N2/O included
MS$DATA_PROCESSING: WHOLE RMassBank 3.11.0.1
PK$SPLASH: splash10-001i-0090000000-3b6c5599accc9a773545
PK$ANNOTATION: m/z tentative_formula formula_count mass error(ppm)
  207.0045 C9H7N2S2+ 1 207.0045 0
  234.9994 C10H7N2OS2+ 1 234.9994 -0.05
PK$NUM_PEAK: 2
PK$PEAK: m/z int. rel.int.
  207.0045 5142468 394
  234.9994 13020731 999
//
