ACCESSION: MSBNK-Eawag-EQ00008803
RECORD_TITLE: Chloridazon; LC-ESI-QFT; MS2; CE: 45%; R=15000; [M+H]+
DATE: 2024.06.14
AUTHORS: F. Jud [dtc], K. Arturi [dtc], J. Hollender [dtc], A. Dax [com]
LICENSE: CC BY-SA
COPYRIGHT: Copyright (C) Eawag 2024
COMMENT: CONFIDENCE standard compound
COMMENT: UCHEM_ID 88
CH$NAME: Chloridazon
CH$NAME: 5-amino-4-chloro-2-phenylpyridazin-3-one
CH$COMPOUND_CLASS: N/A
CH$FORMULA: C10H8ClN3O
CH$EXACT_MASS: 221.0355896
CH$SMILES: NC1=C(Cl)C(=O)N(N=C1)C1=CC=CC=C1
CH$IUPAC: InChI=1S/C10H8ClN3O/c11-9-8(12)6-13-14(10(9)15)7-4-2-1-3-5-7/h1-6H,12H2
CH$LINK: CAS 1698-60-8
CH$LINK: CHEBI CHEBI:81838
CH$LINK: KEGG C18570
CH$LINK: PUBCHEM CID:15546
CH$LINK: INCHIKEY WYKYKTKDBLFHCY-UHFFFAOYSA-N
CH$LINK: CHEMSPIDER 14790
AC$INSTRUMENT: Q Exactive Plus
AC$INSTRUMENT_TYPE: LC-ESI-QFT
AC$MASS_SPECTROMETRY: MS_TYPE MS2
AC$MASS_SPECTROMETRY: ION_MODE POSITIVE
AC$MASS_SPECTROMETRY: IONIZATION ESI
AC$MASS_SPECTROMETRY: FRAGMENTATION_MODE HCD
AC$MASS_SPECTROMETRY: COLLISION_ENERGY 45 % (nominal)
AC$MASS_SPECTROMETRY: RESOLUTION 15000
AC$MASS_SPECTROMETRY: MASS_RANGE_M/Z 50-245
AC$CHROMATOGRAPHY: COLUMN_NAME XBridge C18 3.5um, 2.1x50mm, Waters
AC$CHROMATOGRAPHY: FLOW_GRADIENT 90/10 at 0 min, 50/50 at 4 min, 5/95 at 17 min, 5/95 at 25 min, 90/10 at 25.1 min, 90/10 at 30 min
AC$CHROMATOGRAPHY: FLOW_RATE 200 uL/min
AC$CHROMATOGRAPHY: RETENTION_TIME 4.559 min
MS$FOCUSED_ION: BASE_PEAK 222.043
MS$FOCUSED_ION: PRECURSOR_M/Z 222.0429
MS$FOCUSED_ION: PRECURSOR_TYPE [M+H]+
MS$FOCUSED_ION: PRECURSOR_INTENSITY 516363769.41
MS$DATA_PROCESSING: RECALIBRATE loess on assigned fragments and MS1
MS$DATA_PROCESSING: REANALYZE Peaks with additional N2/O included
MS$DATA_PROCESSING: WHOLE RMassBank 3.15.1.1
PK$SPLASH: splash10-00di-1290000000-452b6a8328da8abbdace
PK$ANNOTATION: m/z tentative_formula formula_count mass error(ppm)
  92.0495 C6H6N+ 1 92.0495 0.12
  94.0652 C6H8N+ 1 94.0651 0.45
  95.0492 C6H7O+ 1 95.0491 0.55
  104.0495 C7H6N+ 1 104.0495 0.26
  128.985 C4H2ClN2O+ 1 128.985 -0.18
  146.0115 C4H5ClN3O+ 1 146.0116 -0.45
  186.0664 C10H8N3O+ 1 186.0662 1.12
  193.0287 C10H8ClNO+ 1 193.0289 -0.77
  222.0429 C10H9ClN3O+ 1 222.0429 0.03
PK$NUM_PEAK: 9
PK$PEAK: m/z int. rel.int.
  92.0495 18680252 107
  94.0652 6942010.5 39
  95.0492 2944702.8 16
  104.0495 37930116 217
  128.985 5761516 33
  146.0115 3460173.5 19
  186.0664 2870471.8 16
  193.0287 2847945.2 16
  222.0429 174247632 999
//
