ACCESSION: MSBNK-Eawag-EQ333901
RECORD_TITLE: Phenylephrine; LC-ESI-QFT; MS2; CE: 15; R=35000; [M+H]+
DATE: 2015.08.25
AUTHORS: Otto J, Stravs M, Schymanski E, Singer H, Department of Environmental Chemistry, Eawag
LICENSE: CC BY
COPYRIGHT: Copyright (C) 2015 Eawag, Duebendorf, Switzerland
COMMENT: CONFIDENCE standard compound
COMMENT: EAWAG_UCHEM_ID 3339
CH$NAME: Phenylephrine
CH$NAME: 3-[(1R)-1-hydroxy-2-(methylamino)ethyl]phenol
CH$COMPOUND_CLASS: N/A; Environmental Standard
CH$FORMULA: C9H13NO2
CH$EXACT_MASS: 167.09463
CH$SMILES: CNC[C@@H](C1=CC(=CC=C1)O)O
CH$IUPAC: InChI=1S/C9H13NO2/c1-10-6-9(12)7-3-2-4-8(11)5-7/h2-5,9-12H,6H2,1H3/t9-/m0/s1
CH$LINK: CAS 1416-03-1
CH$LINK: KEGG C07441
CH$LINK: PUBCHEM CID:6041
CH$LINK: INCHIKEY SONNWYBIRXJNDC-VIFPVBQESA-N
CH$LINK: CHEMSPIDER 5818
CH$LINK: COMPTOX DTXSID9023465
AC$INSTRUMENT: Q Exactive Orbitrap Thermo Scientific
AC$INSTRUMENT_TYPE: LC-ESI-QFT
AC$MASS_SPECTROMETRY: MS_TYPE MS2
AC$MASS_SPECTROMETRY: ION_MODE POSITIVE
AC$MASS_SPECTROMETRY: IONIZATION ESI
AC$MASS_SPECTROMETRY: FRAGMENTATION_MODE HCD
AC$MASS_SPECTROMETRY: COLLISION_ENERGY 15 (nominal)
AC$MASS_SPECTROMETRY: RESOLUTION 35000
AC$CHROMATOGRAPHY: COLUMN_NAME XBridge C18 3.5um, 2.1x50mm, Waters
AC$CHROMATOGRAPHY: FLOW_GRADIENT 90/10 at 0 min, 50/50 at 4 min, 5/95 at 17 min, 5/95 at 25 min, 90/10 at 25.1 min, 90/10 at 30 min
AC$CHROMATOGRAPHY: FLOW_RATE 200 ul/min
AC$CHROMATOGRAPHY: RETENTION_TIME 0.9 min
AC$CHROMATOGRAPHY: SOLVENT A water with 0.1% formic acid
AC$CHROMATOGRAPHY: SOLVENT B methanol with 0.1% formic acid
MS$FOCUSED_ION: BASE_PEAK 150.0914
MS$FOCUSED_ION: PRECURSOR_M/Z 168.1019
MS$FOCUSED_ION: PRECURSOR_TYPE [M+H]+
MS$DATA_PROCESSING: DEPROFILE vendor picking in Proteowizard
MS$DATA_PROCESSING: RECALIBRATE loess on assigned fragments and MS1
MS$DATA_PROCESSING: REANALYZE Peaks with additional N2/O included
MS$DATA_PROCESSING: WHOLE RMassBank 1.9.6
PK$SPLASH: splash10-0udi-0900000000-c0d824f22be752d523b4
PK$ANNOTATION: m/z tentative_formula formula_count mass error(ppm)
  81.0698 C6H9+ 1 81.0699 -0.95
  91.0542 C7H7+ 1 91.0542 -0.62
  107.0488 C7H7O+ 1 107.0491 -2.81
  109.0647 C7H9O+ 1 109.0648 -0.47
  117.0573 C8H7N+ 1 117.0573 -0.26
  119.0491 C8H7O+ 1 119.0491 -0.43
  121.0647 C8H9O+ 1 121.0648 -0.42
  122.0962 C8H12N+ 1 122.0964 -2.01
  132.0808 C9H10N+ 1 132.0808 0.11
  135.0678 C8H9NO+ 1 135.0679 -0.56
  150.0915 C9H12NO+ 1 150.0913 0.93
  168.1018 C9H14NO2+ 1 168.1019 -0.45
PK$NUM_PEAK: 12
PK$PEAK: m/z int. rel.int.
  81.0698 195102.8 1
  91.0542 2676562.5 18
  107.0488 361809.3 2
  109.0647 4157393.8 28
  117.0573 275758.3 1
  119.0491 2832205.5 19
  121.0647 1072628.2 7
  122.0962 264113 1
  132.0808 403567.4 2
  135.0678 2763238 18
  150.0915 147462576 999
  168.1018 4296138 29
//
