ACCESSION: MSBNK-Eawag-EQ360603
RECORD_TITLE: 3,4-Methylenedioxy-N-ethylamphetamine (MDEA); LC-ESI-QFT; MS2; CE: 45; R=35000; [M+H]+
DATE: 2015.08.25
AUTHORS: Stravs M, Schymanski E, Singer H, Department of Environmental Chemistry, Eawag and Thomaidis N, University of Athens
LICENSE: CC BY
COPYRIGHT: Copyright (C) 2015 Eawag, Duebendorf, Switzerland
COMMENT: CONFIDENCE standard compound
COMMENT: EAWAG_UCHEM_ID 3606
CH$NAME: 3,4-Methylenedioxy-N-ethylamphetamine (MDEA)
CH$NAME: 3,4-methylenedioxyethamphetamine
CH$NAME: 1-(1,3-benzodioxol-5-yl)-N-ethylpropan-2-amine
CH$COMPOUND_CLASS: N/A; Environmental Standard
CH$FORMULA: C12H17NO2
CH$EXACT_MASS: 207.12593
CH$SMILES: CCNC(C)CC1=CC2=C(C=C1)OCO2
CH$IUPAC: InChI=1S/C12H17NO2/c1-3-13-9(2)6-10-4-5-11-12(7-10)15-8-14-11/h4-5,7,9,13H,3,6,8H2,1-2H3
CH$LINK: CAS 14089-52-2
CH$LINK: PUBCHEM CID:105039
CH$LINK: INCHIKEY PVXVWWANJIWJOO-UHFFFAOYSA-N
CH$LINK: CHEMSPIDER 94775
CH$LINK: COMPTOX DTXSID70860971
AC$INSTRUMENT: Q Exactive Plus Orbitrap Thermo Scientific
AC$INSTRUMENT_TYPE: LC-ESI-QFT
AC$MASS_SPECTROMETRY: MS_TYPE MS2
AC$MASS_SPECTROMETRY: ION_MODE POSITIVE
AC$MASS_SPECTROMETRY: IONIZATION ESI
AC$MASS_SPECTROMETRY: FRAGMENTATION_MODE HCD
AC$MASS_SPECTROMETRY: COLLISION_ENERGY 45 (nominal)
AC$MASS_SPECTROMETRY: RESOLUTION 35000
AC$CHROMATOGRAPHY: COLUMN_NAME XBridge C18 3.5um, 2.1x50mm, Waters
AC$CHROMATOGRAPHY: FLOW_GRADIENT 90/10 at 0 min, 50/50 at 4 min, 5/95 at 17 min, 5/95 at 25 min, 90/10 at 25.1 min, 90/10 at 30 min
AC$CHROMATOGRAPHY: FLOW_RATE 200 ul/min
AC$CHROMATOGRAPHY: RETENTION_TIME 4.0 min
AC$CHROMATOGRAPHY: SOLVENT A water with 0.1% formic acid
AC$CHROMATOGRAPHY: SOLVENT B methanol with 0.1% formic acid
MS$FOCUSED_ION: BASE_PEAK 208.1326
MS$FOCUSED_ION: PRECURSOR_M/Z 208.1332
MS$FOCUSED_ION: PRECURSOR_TYPE [M+H]+
MS$DATA_PROCESSING: RECALIBRATE loess on assigned fragments and MS1
MS$DATA_PROCESSING: REANALYZE Peaks with additional N2/O included
MS$DATA_PROCESSING: WHOLE RMassBank 1.9.6
PK$SPLASH: splash10-03ei-0900000000-ea619bf2f0ed78a397ce
PK$ANNOTATION: m/z tentative_formula formula_count mass error(ppm)
  51.0228 C4H3+ 1 51.0229 -2.09
  55.0178 C3H3O+ 1 55.0178 -1.29
  72.0807 C4H10N+ 1 72.0808 -1.47
  79.0541 C6H7+ 1 79.0542 -1.85
  91.0541 C7H7+ 1 91.0542 -1.39
  103.054 C8H7+ 1 103.0542 -1.81
  105.0698 C8H9+ 1 105.0699 -1.02
  107.0489 C7H7O+ 1 107.0491 -1.88
  115.054 C9H7+ 1 115.0542 -1.71
  121.0282 C7H5O2+ 1 121.0284 -1.78
  122.0361 C7H6O2+ 1 122.0362 -0.99
  133.0647 C9H9O+ 1 133.0648 -0.99
  135.0438 C8H7O2+ 1 135.0441 -1.52
  145.0648 C10H9O+ 1 145.0648 0.2
  148.0516 C9H8O2+ 1 148.0519 -2.17
  151.0753 C9H11O2+ 1 151.0754 -0.7
  163.0751 C10H11O2+ 1 163.0754 -1.45
  208.1331 C12H18NO2+ 1 208.1332 -0.55
PK$NUM_PEAK: 18
PK$PEAK: m/z int. rel.int.
  51.0228 3358635.8 2
  55.0178 5641880 4
  72.0807 148890640 120
  79.0541 7881264 6
  91.0541 1444093.4 1
  103.054 4826313.5 3
  105.0698 441746240 356
  107.0489 1897415.2 1
  115.054 2645892 2
  121.0282 5985806 4
  122.0361 8103380 6
  133.0647 674279744 543
  135.0438 621729344 501
  145.0648 2750370.8 2
  148.0516 1544149.6 1
  151.0753 17379258 14
  163.0751 1238468352 999
  208.1331 12133948 9
//
