ACCESSION: MSBNK-Eawag-EQ01142202
RECORD_TITLE: N-Acetylcaprolactam; LC-ESI-QFT; MS2; CE: 30%; R=17500; [M+H]+
DATE: 2023.08.10
AUTHORS: B. Beck [dtc,com], J. Hollender [dtc]
LICENSE: CC BY-SA
COPYRIGHT: Copyright (C) Eawag 2023
COMMENT: CONFIDENCE standard compound
COMMENT: UCHEM_ID 11422
CH$NAME: N-Acetylcaprolactam
CH$NAME: 1-acetylazepan-2-one
CH$COMPOUND_CLASS: N/A; Environmental Standard
CH$FORMULA: C8H13NO2
CH$EXACT_MASS: 155.0946
CH$SMILES: CC(=O)N1CCCCCC1=O
CH$IUPAC: InChI=1S/C8H13NO2/c1-7(10)9-6-4-2-3-5-8(9)11/h2-6H2,1H3
CH$LINK: CAS 1888-91-1
CH$LINK: CHEBI CHEBI:182373
CH$LINK: PUBCHEM CID:15904
CH$LINK: INCHIKEY QISSLHPKTCLLDL-UHFFFAOYSA-N
CH$LINK: CHEMSPIDER 15115
AC$INSTRUMENT: Exploris 240 Orbitrap Thermo Scientific
AC$INSTRUMENT_TYPE: LC-ESI-QFT
AC$MASS_SPECTROMETRY: MS_TYPE MS2
AC$MASS_SPECTROMETRY: ION_MODE POSITIVE
AC$MASS_SPECTROMETRY: IONIZATION ESI
AC$MASS_SPECTROMETRY: FRAGMENTATION_MODE HCD
AC$MASS_SPECTROMETRY: COLLISION_ENERGY 30 % (nominal)
AC$MASS_SPECTROMETRY: RESOLUTION 17500
AC$MASS_SPECTROMETRY: MASS_RANGE_M/Z 40-180
AC$CHROMATOGRAPHY: COLUMN_NAME XBridge C18 3.5um, 2.1x50mm, Waters
AC$CHROMATOGRAPHY: FLOW_GRADIENT 90/10 at 0 min, 50/50 at 4 min, 5/95 at 17 min, 5/95 at 25 min, 90/10 at 25.1 min, 90/10 at 30 min
AC$CHROMATOGRAPHY: FLOW_RATE 200 uL/min
AC$CHROMATOGRAPHY: RETENTION_TIME 4.594 min
MS$FOCUSED_ION: BASE_PEAK 156.1019
MS$FOCUSED_ION: PRECURSOR_M/Z 156.1019
MS$FOCUSED_ION: PRECURSOR_TYPE [M+H]+
MS$DATA_PROCESSING: RECALIBRATE loess on assigned fragments and MS1
MS$DATA_PROCESSING: REANALYZE Peaks with additional N2/O included
MS$DATA_PROCESSING: WHOLE RMassBank 3.11.0.1
PK$SPLASH: splash10-03di-0900000000-e331f333b92256e87945
PK$ANNOTATION: m/z tentative_formula formula_count mass error(ppm)
  96.0807 C6H10N+ 1 96.0808 -0.95
  114.0912 C6H12NO+ 1 114.0913 -1.27
  156.1018 C8H14NO2+ 1 156.1019 -0.79
PK$NUM_PEAK: 3
PK$PEAK: m/z int. rel.int.
  96.0807 11697447 22
  114.0912 515500864 999
  156.1018 104292656 202
//
