ACCESSION: MSBNK-Eawag-EQ01128801
RECORD_TITLE: Omethoate; LC-ESI-QFT; MS2; CE: 15%; R=17500; [M+H]+
DATE: 2023.04.27
AUTHORS: B. Beck [dtc,com], J. Hollender [dtc]
LICENSE: CC BY-SA
COPYRIGHT: Copyright (C) Eawag 2023
COMMENT: CONFIDENCE standard compound
COMMENT: UCHEM_ID 11288
CH$NAME: Omethoate
CH$NAME: 2-dimethoxyphosphorylsulfanyl-N-methylacetamide
CH$COMPOUND_CLASS: N/A; Environmental Standard
CH$FORMULA: C5H12NO4PS
CH$EXACT_MASS: 213.0225
CH$SMILES: CNC(=O)CSP(=O)(OC)OC
CH$IUPAC: InChI=1S/C5H12NO4PS/c1-6-5(7)4-12-11(8,9-2)10-3/h4H2,1-3H3,(H,6,7)
CH$LINK: CAS 1113-02-6
CH$LINK: CHEBI CHEBI:38730
CH$LINK: KEGG C18662
CH$LINK: PUBCHEM CID:14210
CH$LINK: INCHIKEY PZXOQEXFMJCDPG-UHFFFAOYSA-N
CH$LINK: CHEMSPIDER 13574
AC$INSTRUMENT: Exploris 240 Orbitrap Thermo Scientific
AC$INSTRUMENT_TYPE: LC-ESI-QFT
AC$MASS_SPECTROMETRY: MS_TYPE MS2
AC$MASS_SPECTROMETRY: ION_MODE POSITIVE
AC$MASS_SPECTROMETRY: IONIZATION ESI
AC$MASS_SPECTROMETRY: FRAGMENTATION_MODE HCD
AC$MASS_SPECTROMETRY: COLLISION_ENERGY 15 % (nominal)
AC$MASS_SPECTROMETRY: RESOLUTION 17500
AC$MASS_SPECTROMETRY: MASS_RANGE_M/Z 47-239
AC$CHROMATOGRAPHY: COLUMN_NAME XBridge C18 3.5um, 2.1x50mm, Waters
AC$CHROMATOGRAPHY: FLOW_GRADIENT 90/10 at 0 min, 50/50 at 4 min, 5/95 at 17 min, 5/95 at 25 min, 90/10 at 25.1 min, 90/10 at 30 min
AC$CHROMATOGRAPHY: FLOW_RATE 200 uL/min
AC$CHROMATOGRAPHY: RETENTION_TIME 1.956 min
MS$FOCUSED_ION: BASE_PEAK 214.0296
MS$FOCUSED_ION: PRECURSOR_M/Z 214.0297
MS$FOCUSED_ION: PRECURSOR_TYPE [M+H]+
MS$DATA_PROCESSING: RECALIBRATE loess on assigned fragments and MS1
MS$DATA_PROCESSING: REANALYZE Peaks with additional N2/O included
MS$DATA_PROCESSING: WHOLE RMassBank 3.11.0.1
PK$SPLASH: splash10-03di-0490000000-92ffc2e4c396daa0dd06
PK$ANNOTATION: m/z tentative_formula formula_count mass error(ppm)
  88.0217 C3H6NS+ 1 88.0215 1.43
  142.9929 C2H8O3PS+ 1 142.9926 1.73
  154.9926 C3H8O3PS+ 1 154.9926 -0.03
  182.0036 C4H9NO3PS+ 1 182.0035 0.62
  182.9875 C4H8O4PS+ 1 182.9875 -0.01
  196.0192 C5H11NO3PS+ 1 196.0192 0.05
  214.0297 C5H13NO4PS+ 1 214.0297 -0.16
PK$NUM_PEAK: 7
PK$PEAK: m/z int. rel.int.
  88.0217 1252357.6 12
  142.9929 514857.3 4
  154.9926 2162995 20
  182.0036 413356.9 3
  182.9875 44510744 427
  196.0192 8014505.5 76
  214.0297 104008160 999
//
