ACCESSION: MSBNK-Eawag-EQ01089503
RECORD_TITLE: Fluroxypyr-meptyl; LC-ESI-QFT; MS2; CE: 45%; R=15000; [M+H]+
DATE: 2024.06.14
AUTHORS: F. Jud [dtc], K. Arturi [dtc], J. Hollender [dtc], A. Dax [com]
LICENSE: CC BY-SA
COPYRIGHT: Copyright (C) Eawag 2024
COMMENT: CONFIDENCE standard compound
COMMENT: UCHEM_ID 10895
CH$NAME: Fluroxypyr-meptyl
CH$NAME: octan-2-yl 2-(4-amino-3,5-dichloro-6-fluoropyridin-2-yl)oxyacetate
CH$COMPOUND_CLASS: N/A
CH$FORMULA: C15H21Cl2FN2O3
CH$EXACT_MASS: 366.0913261
CH$SMILES: CCCCCCC(C)OC(=O)COC1=NC(=C(C(=C1Cl)N)Cl)F
CH$IUPAC: InChI=1S/C15H21Cl2FN2O3/c1-3-4-5-6-7-9(2)23-10(21)8-22-15-12(17)13(19)11(16)14(18)20-15/h9H,3-8H2,1-2H3,(H2,19,20)
CH$LINK: CAS 69377-81-7
CH$LINK: PUBCHEM CID:54745
CH$LINK: INCHIKEY OLZQTUCTGLHFTQ-UHFFFAOYSA-N
CH$LINK: CHEMSPIDER 49451
AC$INSTRUMENT: Exploris 240 Thermo Scientific
AC$INSTRUMENT_TYPE: LC-ESI-QFT
AC$MASS_SPECTROMETRY: MS_TYPE MS2
AC$MASS_SPECTROMETRY: ION_MODE POSITIVE
AC$MASS_SPECTROMETRY: IONIZATION ESI
AC$MASS_SPECTROMETRY: FRAGMENTATION_MODE HCD
AC$MASS_SPECTROMETRY: COLLISION_ENERGY 45 % (nominal)
AC$MASS_SPECTROMETRY: RESOLUTION 15000
AC$MASS_SPECTROMETRY: MASS_RANGE_M/Z 50-395
AC$CHROMATOGRAPHY: COLUMN_NAME XBridge C18 3.5um, 2.1x50mm, Waters
AC$CHROMATOGRAPHY: FLOW_GRADIENT 90/10 at 0 min, 50/50 at 4 min, 5/95 at 17 min, 5/95 at 25 min, 90/10 at 25.1 min, 90/10 at 30 min
AC$CHROMATOGRAPHY: FLOW_RATE 200 uL/min
AC$CHROMATOGRAPHY: RETENTION_TIME 14.531 min
MS$FOCUSED_ION: BASE_PEAK 389.0807
MS$FOCUSED_ION: PRECURSOR_M/Z 367.0986
MS$FOCUSED_ION: PRECURSOR_TYPE [M+H]+
MS$DATA_PROCESSING: RECALIBRATE loess on assigned fragments and MS1
MS$DATA_PROCESSING: REANALYZE Peaks with additional N2/O included
MS$DATA_PROCESSING: WHOLE RMassBank 3.15.1.1
PK$SPLASH: splash10-0a4i-0590000000-63f3e321afc25b082cdc
PK$ANNOTATION: m/z tentative_formula formula_count mass error(ppm)
  57.07 C4H9+ 1 57.0699 1.61
  71.0856 C5H11+ 1 71.0855 0.54
  180.973 C5H4Cl2FN2+ 2 180.973 -0.12
  196.9678 C5H4Cl2FN2O+ 2 196.9679 -0.42
  208.9679 C6H4Cl2FN2O+ 2 208.9679 -0.3
  236.9626 C7H4Cl2FN2O2+ 3 236.9628 -1.01
PK$NUM_PEAK: 6
PK$PEAK: m/z int. rel.int.
  57.07 55490.1 32
  71.0856 57824.5 33
  180.973 657976.8 381
  196.9678 383858.2 222
  208.9679 1724788.8 999
  236.9626 141468.9 81
//
