ACCESSION: MSBNK-Eawag-EQ01129301
RECORD_TITLE: Phorate Sulfone; LC-ESI-QFT; MS2; CE: 15%; R=17500; [M+H]+
DATE: 2023.04.27
AUTHORS: B. Beck [dtc,com], J. Hollender [dtc]
LICENSE: CC BY-SA
COPYRIGHT: Copyright (C) Eawag 2023
COMMENT: CONFIDENCE standard compound
COMMENT: UCHEM_ID 11293
CH$NAME: Phorate Sulfone
CH$NAME: diethoxy-(ethylsulfonylmethylsulfanyl)-sulfanylidene-lambda5-phosphane
CH$COMPOUND_CLASS: N/A; Environmental Standard
CH$FORMULA: C7H17O4PS3
CH$EXACT_MASS: 292.0027
CH$SMILES: CCOP(=S)(OCC)SCS(=O)(=O)CC
CH$IUPAC: InChI=1S/C7H17O4PS3/c1-4-10-12(13,11-5-2)14-7-15(8,9)6-3/h4-7H2,1-3H3
CH$LINK: CAS 2588-04-7
CH$LINK: PUBCHEM CID:17425
CH$LINK: INCHIKEY YVPSNUIHHFTTRL-UHFFFAOYSA-N
CH$LINK: CHEMSPIDER 16482
AC$INSTRUMENT: Exploris 240 Orbitrap Thermo Scientific
AC$INSTRUMENT_TYPE: LC-ESI-QFT
AC$MASS_SPECTROMETRY: MS_TYPE MS2
AC$MASS_SPECTROMETRY: ION_MODE POSITIVE
AC$MASS_SPECTROMETRY: IONIZATION ESI
AC$MASS_SPECTROMETRY: FRAGMENTATION_MODE HCD
AC$MASS_SPECTROMETRY: COLLISION_ENERGY 15 % (nominal)
AC$MASS_SPECTROMETRY: RESOLUTION 17500
AC$MASS_SPECTROMETRY: MASS_RANGE_M/Z 50-320
AC$CHROMATOGRAPHY: COLUMN_NAME XBridge C18 3.5um, 2.1x50mm, Waters
AC$CHROMATOGRAPHY: FLOW_GRADIENT 90/10 at 0 min, 50/50 at 4 min, 5/95 at 17 min, 5/95 at 25 min, 90/10 at 25.1 min, 90/10 at 30 min
AC$CHROMATOGRAPHY: FLOW_RATE 200 uL/min
AC$CHROMATOGRAPHY: RETENTION_TIME 6.950 min
MS$FOCUSED_ION: BASE_PEAK 194.1175
MS$FOCUSED_ION: PRECURSOR_M/Z 293.0099
MS$FOCUSED_ION: PRECURSOR_TYPE [M+H]+
MS$DATA_PROCESSING: RECALIBRATE loess on assigned fragments and MS1
MS$DATA_PROCESSING: REANALYZE Peaks with additional N2/O included
MS$DATA_PROCESSING: WHOLE RMassBank 3.11.0.1
PK$SPLASH: splash10-00di-0900000000-10ed052bd77e9b931d5d
PK$ANNOTATION: m/z tentative_formula formula_count mass error(ppm)
  96.9506 H2O2PS+ 1 96.9508 -1.67
  114.9614 H4O3PS+ 1 114.9613 0.5
  124.982 C2H6O2PS+ 1 124.9821 -0.64
  142.9388 CH4O2PS2+ 1 142.9385 2.52
  142.9926 C2H8O3PS+ 1 142.9926 -0.19
  153.0133 C4H10O2PS+ 1 153.0134 -0.5
  154.9749 C3H8OPS2+ 1 154.9749 0.05
  171.0238 C4H12O3PS+ 1 171.0239 -0.7
  185.0394 C5H14O3PS+ 1 185.0396 -0.7
  199.001 C5H12O2PS2+ 1 199.0011 -0.67
PK$NUM_PEAK: 10
PK$PEAK: m/z int. rel.int.
  96.9506 570586.5 13
  114.9614 1231058.6 29
  124.982 2285049 54
  142.9388 332953.5 7
  142.9926 1885066 44
  153.0133 8569982 203
  154.9749 173299.1 4
  171.0238 42028520 999
  185.0394 316797.9 7
  199.001 6382173.5 151
//
