ACCESSION: MSBNK-Eawag-EA069914
RECORD_TITLE: Chloridazone-methyl-desphenyl; LC-ESI-ITFT; MS2; CE: 35%; R=15000; [M+H]+
DATE: 2014.01.14
AUTHORS: Stravs M, Schymanski E, Singer H, Department of Environmental Chemistry, Eawag
LICENSE: CC BY
COPYRIGHT: Copyright (C) 2012 Eawag, Duebendorf, Switzerland
COMMENT: CONFIDENCE standard compound
COMMENT: EAWAG_UCHEM_ID 699
CH$NAME: Chloridazone-methyl-desphenyl
CH$NAME: 1-Methyl-4-amino-5-chloro-6-oxo-(1H)-pyridazine
CH$NAME: 5-amino-4-chloro-2-methyl-3-pyridazinone
CH$COMPOUND_CLASS: N/A; Environmental Standard
CH$FORMULA: C5H6ClN3O
CH$EXACT_MASS: 159.0199
CH$SMILES: ClC(=C(C=N1)N)C(=O)N1C
CH$IUPAC: InChI=1S/C5H6ClN3O/c1-9-5(10)4(6)3(7)2-8-9/h2H,7H2,1H3
CH$LINK: CAS 17254-80-7
CH$LINK: PUBCHEM CID:594330
CH$LINK: INCHIKEY XNSGCNYTNLWRKM-UHFFFAOYSA-N
CH$LINK: CHEMSPIDER 516658
CH$LINK: COMPTOX DTXSID80891453
AC$INSTRUMENT: LTQ Orbitrap XL Thermo Scientific
AC$INSTRUMENT_TYPE: LC-ESI-ITFT
AC$MASS_SPECTROMETRY: MS_TYPE MS2
AC$MASS_SPECTROMETRY: ION_MODE POSITIVE
AC$MASS_SPECTROMETRY: IONIZATION ESI
AC$MASS_SPECTROMETRY: FRAGMENTATION_MODE CID
AC$MASS_SPECTROMETRY: COLLISION_ENERGY 35 % (nominal)
AC$MASS_SPECTROMETRY: RESOLUTION 15000
AC$CHROMATOGRAPHY: COLUMN_NAME XBridge C18 3.5um, 2.1x50mm, Waters
AC$CHROMATOGRAPHY: FLOW_GRADIENT 90/10 at 0 min, 50/50 at 4 min, 5/95 at 17 min, 5/95 at 25 min, 90/10 at 25.1 min, 90/10 at 30 min
AC$CHROMATOGRAPHY: FLOW_RATE 200 ul/min
AC$CHROMATOGRAPHY: RETENTION_TIME 2.2 min
AC$CHROMATOGRAPHY: SOLVENT A water with 0.1% formic acid
AC$CHROMATOGRAPHY: SOLVENT B methanol with 0.1% formic acid
MS$FOCUSED_ION: BASE_PEAK 160.0271
MS$FOCUSED_ION: PRECURSOR_M/Z 160.0272
MS$FOCUSED_ION: PRECURSOR_TYPE [M+H]+
MS$DATA_PROCESSING: DEPROFILE Spline
MS$DATA_PROCESSING: RECALIBRATE loess on assigned fragments and MS1
MS$DATA_PROCESSING: REANALYZE Peaks with additional N2/O included
MS$DATA_PROCESSING: WHOLE RMassBank 1.3.1
PK$SPLASH: splash10-03di-0900000000-056eb47674e87cb12ae1
PK$ANNOTATION: m/z tentative_formula formula_count mass error(ppm)
  116.9975 C4H4ClNO+ 1 116.9976 -0.79
  124.0501 C5H6N3O+ 1 124.0505 -3.37
  130.0055 C5H5ClNO+ 1 130.0054 0.71
  131.0005 C4H4ClN2O+ 1 131.0007 -1.58
  131.0134 C5H6ClNO+ 1 131.0132 0.82
  133.0164 C4H6ClN2O+ 1 133.0163 0.7
  160.0271 C5H7ClN3O+ 1 160.0272 -0.6
PK$NUM_PEAK: 7
PK$PEAK: m/z int. rel.int.
  116.9975 26691.2 76
  124.0501 12845 37
  130.0055 11706.4 33
  131.0005 30095.5 86
  131.0134 27363.2 78
  133.0164 9137.2 26
  160.0271 346730.8 999
//
