ACCESSION: MSBNK-Eawag-EQ358551
RECORD_TITLE: Letrozole; LC-ESI-QFT; MS2; CE: 15; R=35000; [M-H]-
DATE: 2015.08.26
AUTHORS: Beck B, Stravs M, Schymanski E, Singer H, Department of Environmental Chemistry, Eawag
LICENSE: CC BY
COPYRIGHT: Copyright (C) 2015 Eawag, Duebendorf, Switzerland
COMMENT: CONFIDENCE standard compound
COMMENT: EAWAG_UCHEM_ID 3585
CH$NAME: Letrozole
CH$NAME: 4-[(4-cyanophenyl)-(1,2,4-triazol-1-yl)methyl]benzonitrile
CH$COMPOUND_CLASS: N/A; Environmental Standard
CH$FORMULA: C17H11N5
CH$EXACT_MASS: 285.10145
CH$SMILES: C1=CC(=CC=C1C#N)C(C2=CC=C(C=C2)C#N)N3C=NC=N3
CH$IUPAC: InChI=1S/C17H11N5/c18-9-13-1-5-15(6-2-13)17(22-12-20-11-21-22)16-7-3-14(10-19)4-8-16/h1-8,11-12,17H
CH$LINK: CAS 112809-51-5
CH$LINK: CHEBI CHEBI:6413
CH$LINK: KEGG C08163
CH$LINK: PUBCHEM CID:3902
CH$LINK: INCHIKEY HPJKCIUCZWXJDR-UHFFFAOYSA-N
CH$LINK: CHEMSPIDER 3765
CH$LINK: COMPTOX DTXSID4023202
AC$INSTRUMENT: Q Exactive Plus Orbitrap Thermo Scientific
AC$INSTRUMENT_TYPE: LC-ESI-QFT
AC$MASS_SPECTROMETRY: MS_TYPE MS2
AC$MASS_SPECTROMETRY: ION_MODE NEGATIVE
AC$MASS_SPECTROMETRY: IONIZATION ESI
AC$MASS_SPECTROMETRY: FRAGMENTATION_MODE HCD
AC$MASS_SPECTROMETRY: COLLISION_ENERGY 15 (nominal)
AC$MASS_SPECTROMETRY: RESOLUTION 35000
AC$CHROMATOGRAPHY: COLUMN_NAME XBridge C18 3.5um, 2.1x50mm, Waters
AC$CHROMATOGRAPHY: FLOW_GRADIENT 90/10 at 0 min, 50/50 at 4 min, 5/95 at 17 min, 5/95 at 25 min, 90/10 at 25.1 min, 90/10 at 30 min
AC$CHROMATOGRAPHY: FLOW_RATE 200 ul/min
AC$CHROMATOGRAPHY: RETENTION_TIME 6.6 min
AC$CHROMATOGRAPHY: SOLVENT A water with 0.1% formic acid
AC$CHROMATOGRAPHY: SOLVENT B methanol with 0.1% formic acid
MS$FOCUSED_ION: BASE_PEAK 284.0946
MS$FOCUSED_ION: PRECURSOR_M/Z 284.0942
MS$FOCUSED_ION: PRECURSOR_TYPE [M-H]-
MS$DATA_PROCESSING: RECALIBRATE loess on assigned fragments and MS1
MS$DATA_PROCESSING: REANALYZE Peaks with additional N2/O included
MS$DATA_PROCESSING: WHOLE RMassBank 1.9.6
PK$SPLASH: splash10-001i-0090000000-0fbd577a32ff572f7368
PK$ANNOTATION: m/z tentative_formula formula_count mass error(ppm)
  102.0348 C7H4N- 1 102.0349 -1.5
  127.0296 C8H3N2- 1 127.0302 -4.89
  242.0726 C16H8N3- 1 242.0724 1.11
  256.0884 C17H10N3- 1 256.088 1.48
  257.083 C16H9N4- 1 257.0833 -1.05
  284.0941 C17H10N5- 1 284.0942 -0.31
PK$NUM_PEAK: 6
PK$PEAK: m/z int. rel.int.
  102.0348 1329225.1 3
  127.0296 1372785 3
  242.0726 3505682.8 8
  256.0884 1111623.9 2
  257.083 1533000.1 3
  284.0941 406139200 999
//
