ACCESSION: MSBNK-Eawag-EQ01151704
RECORD_TITLE: 2-Acetylpyrazine; LC-ESI-QFT; MS2; CE: 60%; R=17500; [M+H]+
DATE: 2024.05.08
AUTHORS: C. Meyer [dtc], B. Beck [dtc,com], J. Hollender [dtc]
LICENSE: CC BY-SA
COPYRIGHT: Copyright (C) Eawag 2023
PUBLICATION: Meyer, C., Stravs, M., Hollender, J.. How Wastewater Reflects Human Metabolism - Suspect Screening of Pharmaceutical Metabolites in Wastewater Influent. doi:10.1021/acs.est.4c00968
COMMENT: CONFIDENCE standard compound
COMMENT: UCHEM_ID 11517
CH$NAME: 2-Acetylpyrazine
CH$NAME: Acetylpyrazine
CH$NAME: 1-pyrazin-2-ylethanone
CH$COMPOUND_CLASS: N/A; Environmental Standard
CH$FORMULA: C6H6N2O
CH$EXACT_MASS: 122.0480128
CH$SMILES: CC(=O)C1=NC=CN=C1
CH$IUPAC: InChI=1S/C6H6N2O/c1-5(9)6-4-7-2-3-8-6/h2-4H,1H3
CH$LINK: CHEBI CHEBI:145236
CH$LINK: PUBCHEM CID:30914
CH$LINK: INCHIKEY DBZAKQWXICEWNW-UHFFFAOYSA-N
CH$LINK: CHEMSPIDER 28682
AC$INSTRUMENT: Exploris 240 Orbitrap Thermo Scientific
AC$INSTRUMENT_TYPE: LC-ESI-QFT
AC$MASS_SPECTROMETRY: MS_TYPE MS2
AC$MASS_SPECTROMETRY: ION_MODE POSITIVE
AC$MASS_SPECTROMETRY: IONIZATION ESI
AC$MASS_SPECTROMETRY: FRAGMENTATION_MODE HCD
AC$MASS_SPECTROMETRY: COLLISION_ENERGY 60 % (nominal)
AC$MASS_SPECTROMETRY: RESOLUTION 17500
AC$MASS_SPECTROMETRY: MASS_RANGE_M/Z 40-147
AC$CHROMATOGRAPHY: COLUMN_NAME XBridge C18 3.5um, 2.1x50mm, Waters
AC$CHROMATOGRAPHY: FLOW_GRADIENT 90/10 at 0 min, 50/50 at 4 min, 5/95 at 17 min, 5/95 at 25 min, 90/10 at 25.1 min, 90/10 at 30 min
AC$CHROMATOGRAPHY: FLOW_RATE 200 uL/min
AC$CHROMATOGRAPHY: RETENTION_TIME 2.489 min
MS$FOCUSED_ION: BASE_PEAK 132.9582
MS$FOCUSED_ION: PRECURSOR_M/Z 123.0553
MS$FOCUSED_ION: PRECURSOR_TYPE [M+H]+
MS$DATA_PROCESSING: RECALIBRATE loess on assigned fragments and MS1
MS$DATA_PROCESSING: REANALYZE Peaks with additional N2/O included
MS$DATA_PROCESSING: WHOLE RMassBank 3.15.1
PK$SPLASH: splash10-00e9-6900000000-6159ae606d081cd97683
PK$ANNOTATION: m/z tentative_formula formula_count mass error(ppm)
  43.0178 C2H3O+ 1 43.0178 -1.13
  54.0339 C3H4N+ 1 54.0338 0.89
  68.0495 C4H6N+ 1 68.0495 0.72
  78.0339 C5H4N+ 1 78.0338 1.04
  81.0447 C4H5N2+ 1 81.0447 -0.42
  95.0604 C5H7N2+ 1 95.0604 -0.08
  97.0396 C4H5N2O+ 1 97.0396 -0.58
  105.0447 C6H5N2+ 1 105.0447 0.04
  123.0552 C6H7N2O+ 1 123.0553 -0.89
PK$NUM_PEAK: 9
PK$PEAK: m/z int. rel.int.
  43.0178 74848.9 7
  54.0339 107877.7 10
  68.0495 20720.7 2
  78.0339 37302.8 3
  81.0447 6874532.5 666
  95.0604 1110073.5 107
  97.0396 25778.7 2
  105.0447 1221197.2 118
  123.0552 10297223 999
//
