ACCESSION: MSBNK-Eawag-EQ371302
RECORD_TITLE: Malaoxon; LC-ESI-QFT; MS2; CE: 30; R=35000; [M+H]+
DATE: 2015.08.25
AUTHORS: Stravs M, Schymanski E, Singer H, Department of Environmental Chemistry, Eawag and Thomaidis N, University of Athens
LICENSE: CC BY
COPYRIGHT: Copyright (C) 2015 Eawag, Duebendorf, Switzerland
COMMENT: CONFIDENCE standard compound
COMMENT: EAWAG_UCHEM_ID 3713
CH$NAME: Malaoxon
CH$NAME: Diethyl 2-dimethoxyphosphorylsulfanylbutanedioate
CH$COMPOUND_CLASS: N/A; Environmental Standard
CH$FORMULA: C10H19O7PS
CH$EXACT_MASS: 314.05891
CH$SMILES: CCOC(=O)CC(C(=O)OCC)SP(=O)(OC)OC
CH$IUPAC: InChI=1S/C10H19O7PS/c1-5-16-9(11)7-8(10(12)17-6-2)19-18(13,14-3)15-4/h8H,5-7H2,1-4H3
CH$LINK: CAS 1634-78-2
CH$LINK: CHEBI CHEBI:6649
CH$LINK: KEGG C07498
CH$LINK: PUBCHEM CID:15415
CH$LINK: INCHIKEY WSORODGWGUUOBO-UHFFFAOYSA-N
CH$LINK: CHEMSPIDER 14674
CH$LINK: COMPTOX DTXSID9020790
AC$INSTRUMENT: Q Exactive Plus Orbitrap Thermo Scientific
AC$INSTRUMENT_TYPE: LC-ESI-QFT
AC$MASS_SPECTROMETRY: MS_TYPE MS2
AC$MASS_SPECTROMETRY: ION_MODE POSITIVE
AC$MASS_SPECTROMETRY: IONIZATION ESI
AC$MASS_SPECTROMETRY: FRAGMENTATION_MODE HCD
AC$MASS_SPECTROMETRY: COLLISION_ENERGY 30 (nominal)
AC$MASS_SPECTROMETRY: RESOLUTION 35000
AC$CHROMATOGRAPHY: COLUMN_NAME XBridge C18 3.5um, 2.1x50mm, Waters
AC$CHROMATOGRAPHY: FLOW_GRADIENT 90/10 at 0 min, 50/50 at 4 min, 5/95 at 17 min, 5/95 at 25 min, 90/10 at 25.1 min, 90/10 at 30 min
AC$CHROMATOGRAPHY: FLOW_RATE 200 ul/min
AC$CHROMATOGRAPHY: RETENTION_TIME 7.1 min
AC$CHROMATOGRAPHY: SOLVENT A water with 0.1% formic acid
AC$CHROMATOGRAPHY: SOLVENT B methanol with 0.1% formic acid
MS$FOCUSED_ION: BASE_PEAK 315.0654
MS$FOCUSED_ION: PRECURSOR_M/Z 315.0662
MS$FOCUSED_ION: PRECURSOR_TYPE [M+H]+
MS$DATA_PROCESSING: RECALIBRATE loess on assigned fragments and MS1
MS$DATA_PROCESSING: REANALYZE Peaks with additional N2/O included
MS$DATA_PROCESSING: WHOLE RMassBank 1.9.6
PK$SPLASH: splash10-002b-9800000000-bc654e513565551ef2f0
PK$ANNOTATION: m/z tentative_formula formula_count mass error(ppm)
  55.0178 C3H3O+ 1 55.0178 -0.75
  71.0127 C3H3O2+ 1 71.0128 -0.64
  99.0076 C4H3O3+ 1 99.0077 -0.41
  110.9664 CH4O2PS+ 1 110.9664 -0.3
  113.0233 C5H5O3+ 1 113.0233 0
  117.0182 C4H5O4+ 1 117.0182 -0.39
  124.9821 C2H6O2PS+ 1 124.9821 -0.03
  127.0389 C6H7O3+ 1 127.039 -0.24
  128.9769 CH6O3PS+ 1 128.977 -0.76
  142.9927 C2H8O3PS+ 1 142.9926 0.22
  145.0495 C6H9O4+ 1 145.0495 -0.1
  171.0239 C4H12O3PS+ 1 171.0239 -0.17
  173.0809 C8H13O4+ 1 173.0808 0.26
  194.9875 C5H8O4PS+ 1 194.9875 -0.12
PK$NUM_PEAK: 14
PK$PEAK: m/z int. rel.int.
  55.0178 88756.3 1
  71.0127 252564.6 3
  99.0076 63837528 999
  110.9664 91993.6 1
  113.0233 647665.6 10
  117.0182 910787.6 14
  124.9821 196986.8 3
  127.0389 46892072 733
  128.9769 251253.7 3
  142.9927 8642037 135
  145.0495 1713797.1 26
  171.0239 828117.5 12
  173.0809 728503.9 11
  194.9875 819457.4 12
//
