ACCESSION: MSBNK-Eawag-EQ01136207
RECORD_TITLE: Etrimfos; LC-ESI-QFT; MS2; CE: 120%; R=17500; [M+H]+
DATE: 2023.04.27
AUTHORS: B. Beck [dtc,com], J. Hollender [dtc]
LICENSE: CC BY-SA
COPYRIGHT: Copyright (C) Eawag 2023
COMMENT: CONFIDENCE standard compound
COMMENT: UCHEM_ID 11362
CH$NAME: Etrimfos
CH$NAME: (6-ethoxy-2-ethylpyrimidin-4-yl)oxy-dimethoxy-sulfanylidene-lambda5-phosphane
CH$COMPOUND_CLASS: N/A; Environmental Standard
CH$FORMULA: C10H17N2O4PS
CH$EXACT_MASS: 292.0647
CH$SMILES: CCC1=NC(=CC(=N1)OP(=S)(OC)OC)OCC
CH$IUPAC: InChI=1S/C10H17N2O4PS/c1-5-8-11-9(15-6-2)7-10(12-8)16-17(18,13-3)14-4/h7H,5-6H2,1-4H3
CH$LINK: CAS 38260-54-7
CH$LINK: CHEBI CHEBI:82124
CH$LINK: KEGG C18985
CH$LINK: PUBCHEM CID:37995
CH$LINK: INCHIKEY FGIWFCGDPUIBEZ-UHFFFAOYSA-N
CH$LINK: CHEMSPIDER 34830
AC$INSTRUMENT: Exploris 240 Orbitrap Thermo Scientific
AC$INSTRUMENT_TYPE: LC-ESI-QFT
AC$MASS_SPECTROMETRY: MS_TYPE MS2
AC$MASS_SPECTROMETRY: ION_MODE POSITIVE
AC$MASS_SPECTROMETRY: IONIZATION ESI
AC$MASS_SPECTROMETRY: FRAGMENTATION_MODE HCD
AC$MASS_SPECTROMETRY: COLLISION_ENERGY 120 % (nominal)
AC$MASS_SPECTROMETRY: RESOLUTION 17500
AC$MASS_SPECTROMETRY: MASS_RANGE_M/Z 50-320
AC$CHROMATOGRAPHY: COLUMN_NAME XBridge C18 3.5um, 2.1x50mm, Waters
AC$CHROMATOGRAPHY: FLOW_GRADIENT 90/10 at 0 min, 50/50 at 4 min, 5/95 at 17 min, 5/95 at 25 min, 90/10 at 25.1 min, 90/10 at 30 min
AC$CHROMATOGRAPHY: FLOW_RATE 200 uL/min
AC$CHROMATOGRAPHY: RETENTION_TIME 10.931 min
MS$FOCUSED_ION: BASE_PEAK 293.0719
MS$FOCUSED_ION: PRECURSOR_M/Z 293.0719
MS$FOCUSED_ION: PRECURSOR_TYPE [M+H]+
MS$DATA_PROCESSING: RECALIBRATE loess on assigned fragments and MS1
MS$DATA_PROCESSING: REANALYZE Peaks with additional N2/O included
MS$DATA_PROCESSING: WHOLE RMassBank 3.11.0.1
PK$SPLASH: splash10-004i-9200000000-9c785038a544dc91706f
PK$ANNOTATION: m/z tentative_formula formula_count mass error(ppm)
  56.0495 C3H6N+ 1 56.0495 1
  62.0185 C2H6S+ 1 62.0185 0.8
  62.9995 CH4OP+ 1 62.9994 1.11
  68.0131 C3H2NO+ 1 68.0131 -0.58
  78.9944 CH4O2P+ 1 78.9943 0.57
  93.01 C2H6O2P+ 1 93.01 -0.3
  109.005 C2H6O3P+ 1 109.0049 0.75
  110.9663 CH4O2PS+ 1 110.9664 -1.08
  124.9824 C2H6O2PS+ 1 124.9821 2.32
  127.016 C2H8O4P+ 1 127.0155 3.92
  128.9773 CH6O3PS+ 1 128.977 2.64
PK$NUM_PEAK: 11
PK$PEAK: m/z int. rel.int.
  56.0495 33593648 476
  62.0185 8518096 120
  62.9995 4819824.5 68
  68.0131 22576110 320
  78.9944 70360536 999
  93.01 5118495 72
  109.005 4980351 70
  110.9663 11624037 165
  124.9824 12304376 174
  127.016 8674101 123
  128.9773 6573652 93
//
