ACCESSION: MSBNK-Eawag-EA024114
RECORD_TITLE: Iopamidol; LC-ESI-ITFT; MS2; CE: 35%; R=15000; [M+H]+
DATE: 2014.01.14
AUTHORS: Stravs M, Schymanski E, Singer H, Department of Environmental Chemistry, Eawag
LICENSE: CC BY
COPYRIGHT: Copyright (C) 2012 Eawag, Duebendorf, Switzerland
COMMENT: CONFIDENCE standard compound
COMMENT: EAWAG_UCHEM_ID 241
CH$NAME: Iopamidol
CH$NAME: 1,3-Benzenedicarboxamide, N,N'-bis(2-hydroxy-1-(hydroxymethyl)ethyl)-5-((2-hydroxy-1-oxopropyl)amino)-2,4,6-triiodo-
CH$NAME: 1-N,3-N-bis(1,3-dihydroxypropan-2-yl)-5-(2-hydroxypropanoylamino)-2,4,6-triiodobenzene-1,3-dicarboxamide
CH$COMPOUND_CLASS: N/A; Environmental Standard
CH$FORMULA: C17H22I3N3O8
CH$EXACT_MASS: 776.8541
CH$SMILES: CC(O)C(=O)NC1=C(I)C(C(=O)NC(CO)CO)=C(I)C(C(=O)NC(CO)CO)=C1I
CH$IUPAC: InChI=1S/C17H22I3N3O8/c1-6(28)15(29)23-14-12(19)9(16(30)21-7(2-24)3-25)11(18)10(13(14)20)17(31)22-8(4-26)5-27/h6-8,24-28H,2-5H2,1H3,(H,21,30)(H,22,31)(H,23,29)
CH$LINK: CAS 62883-00-5
CH$LINK: PUBCHEM CID:3734
CH$LINK: INCHIKEY XQZXYNRDCRIARQ-UHFFFAOYSA-N
CH$LINK: CHEMSPIDER 3603
CH$LINK: COMPTOX DTXSID90860751
AC$INSTRUMENT: LTQ Orbitrap XL Thermo Scientific
AC$INSTRUMENT_TYPE: LC-ESI-ITFT
AC$MASS_SPECTROMETRY: MS_TYPE MS2
AC$MASS_SPECTROMETRY: ION_MODE POSITIVE
AC$MASS_SPECTROMETRY: IONIZATION ESI
AC$MASS_SPECTROMETRY: FRAGMENTATION_MODE CID
AC$MASS_SPECTROMETRY: COLLISION_ENERGY 35 % (nominal)
AC$MASS_SPECTROMETRY: RESOLUTION 15000
AC$CHROMATOGRAPHY: COLUMN_NAME XBridge C18 3.5um, 2.1x50mm, Waters
AC$CHROMATOGRAPHY: FLOW_GRADIENT 90/10 at 0 min, 50/50 at 4 min, 5/95 at 17 min, 5/95 at 25 min, 90/10 at 25.1 min, 90/10 at 30 min
AC$CHROMATOGRAPHY: FLOW_RATE 200 ul/min
AC$CHROMATOGRAPHY: RETENTION_TIME 1.2 min
AC$CHROMATOGRAPHY: SOLVENT A water with 0.1% formic acid
AC$CHROMATOGRAPHY: SOLVENT B methanol with 0.1% formic acid
MS$FOCUSED_ION: BASE_PEAK 132.9578
MS$FOCUSED_ION: PRECURSOR_M/Z 777.8614
MS$FOCUSED_ION: PRECURSOR_TYPE [M+H]+
MS$DATA_PROCESSING: DEPROFILE Spline
MS$DATA_PROCESSING: RECALIBRATE loess on assigned fragments and MS1
MS$DATA_PROCESSING: REANALYZE Peaks with additional N2/O included
MS$DATA_PROCESSING: WHOLE RMassBank 1.3.1
PK$SPLASH: splash10-0a4i-0000083900-1eb032a4daf032151b3a
PK$ANNOTATION: m/z tentative_formula formula_count mass error(ppm)
  293.9012 C5HIN3O4+ 2 293.9006 1.87
  325.9629 C7H9IN3O4+ 1 325.9632 -0.92
  413.9712 C14H11IN2O5+ 1 413.9707 1.08
  430.9738 C14H12IN2O6+ 2 430.9735 0.79
  524.05 C17H23IN3O8+ 1 524.0524 -4.62
  541.8816 C14H12I2N2O5+ 2 541.883 -2.67
  558.885 C13H22I3+ 2 558.885 -0.09
  631.9375 C17H20I2N3O7+ 1 631.9385 -1.6
  649.9484 C17H22I2N3O8+ 1 649.9491 -0.98
  668.7876 C17H10I3N3O2+ 3 668.7902 -3.82
  686.7975 C14H14I3N2O6+ 2 686.7981 -0.87
  704.8081 C14H16I3N2O7+ 2 704.8086 -0.77
  759.8504 C17H21I3N3O7+ 1 759.8508 -0.53
PK$NUM_PEAK: 13
PK$PEAK: m/z int. rel.int.
  293.9012 3144.7 7
  325.9629 2326.6 5
  413.9712 8977 21
  430.9738 8347.1 20
  524.05 7112.8 17
  541.8816 3805.7 9
  558.885 409304 999
  631.9375 70419.4 171
  649.9484 5073.3 12
  668.7876 2497.1 6
  686.7975 81702.4 199
  704.8081 97612.8 238
  759.8504 370803.7 905
//
