ACCESSION: MSBNK-Eawag-EQ033502
RECORD_TITLE: Norfluoxetine; LC-ESI-QFT; MS2; CE: 30; R=35000; [M+H]+
DATE: 2015.08.25
AUTHORS: Beck B, Stravs M, Schymanski E, Singer H, Department of Environmental Chemistry, Eawag
LICENSE: CC BY
COPYRIGHT: Copyright (C) 2015 Eawag, Duebendorf, Switzerland
COMMENT: CONFIDENCE standard compound
COMMENT: EAWAG_UCHEM_ID 335
CH$NAME: Norfluoxetine
CH$NAME: Norfluoxetin
CH$NAME: 3-phenyl-3-[4-(trifluoromethyl)phenoxy]propan-1-amine
CH$COMPOUND_CLASS: N/A; Environmental Standard
CH$FORMULA: C16H16F3NO
CH$EXACT_MASS: 295.11840
CH$SMILES: NCCC(Oc1ccc(cc1)C(F)(F)F)c2ccccc2
CH$IUPAC: InChI=1S/C16H16F3NO/c17-16(18,19)13-6-8-14(9-7-13)21-15(10-11-20)12-4-2-1-3-5-12/h1-9,15H,10-11,20H2
CH$LINK: CAS 56161-73-0
CH$LINK: PUBCHEM CID:4541
CH$LINK: INCHIKEY WIQRCHMSJFFONW-UHFFFAOYSA-N
CH$LINK: CHEMSPIDER 4382
CH$LINK: COMPTOX DTXSID80866540
AC$INSTRUMENT: Q Exactive Plus Orbitrap Thermo Scientific
AC$INSTRUMENT_TYPE: LC-ESI-QFT
AC$MASS_SPECTROMETRY: MS_TYPE MS2
AC$MASS_SPECTROMETRY: ION_MODE POSITIVE
AC$MASS_SPECTROMETRY: IONIZATION ESI
AC$MASS_SPECTROMETRY: FRAGMENTATION_MODE HCD
AC$MASS_SPECTROMETRY: COLLISION_ENERGY 30 (nominal)
AC$MASS_SPECTROMETRY: RESOLUTION 35000
AC$CHROMATOGRAPHY: COLUMN_NAME XBridge C18 3.5um, 2.1x50mm, Waters
AC$CHROMATOGRAPHY: FLOW_GRADIENT 90/10 at 0 min, 50/50 at 4 min, 5/95 at 17 min, 5/95 at 25 min, 90/10 at 25.1 min, 90/10 at 30 min
AC$CHROMATOGRAPHY: FLOW_RATE 200 ul/min
AC$CHROMATOGRAPHY: RETENTION_TIME 8.7 min
AC$CHROMATOGRAPHY: SOLVENT A water with 0.1% formic acid
AC$CHROMATOGRAPHY: SOLVENT B methanol with 0.1% formic acid
MS$FOCUSED_ION: BASE_PEAK 296.1255
MS$FOCUSED_ION: PRECURSOR_M/Z 296.1257
MS$FOCUSED_ION: PRECURSOR_TYPE [M+H]+
MS$DATA_PROCESSING: RECALIBRATE loess on assigned fragments and MS1
MS$DATA_PROCESSING: REANALYZE Peaks with additional N2/O included
MS$DATA_PROCESSING: WHOLE RMassBank 1.9.6
PK$SPLASH: splash10-053r-0900000000-8a2cb526ea6f38118096
PK$ANNOTATION: m/z tentative_formula formula_count mass error(ppm)
  105.0699 C8H9+ 1 105.0699 0.51
  134.0965 C9H12N+ 1 134.0964 0.33
  259.0931 C16H13F2O+ 1 259.0929 0.86
PK$NUM_PEAK: 3
PK$PEAK: m/z int. rel.int.
  105.0699 732477.2 566
  134.0965 1292466.2 999
  259.0931 86444.6 66
//
