ACCESSION: MSBNK-Eawag-EQ01099606
RECORD_TITLE: Lamivudine; LC-ESI-QFT; MS2; CE: 90%; R=17500; [M+H]+
DATE: 2024.05.08
AUTHORS: C. Meyer [dtc], B. Beck [dtc,com], J. Hollender [dtc]
LICENSE: CC BY-SA
COPYRIGHT: Copyright (C) Eawag 2023
PUBLICATION: Meyer, C., Stravs, M., Hollender, J.. How Wastewater Reflects Human Metabolism - Suspect Screening of Pharmaceutical Metabolites in Wastewater Influent. doi:10.1021/acs.est.4c00968
COMMENT: CONFIDENCE standard compound
COMMENT: UCHEM_ID 10996
CH$NAME: Lamivudine
CH$NAME: 4-amino-1-(2-(hydroxymethyl)-1,3-oxathiolan-5-yl)pyrimidin-2(1H)-one
CH$NAME: 4-amino-1-[2-(hydroxymethyl)-1,3-oxathiolan-5-yl]pyrimidin-2-one
CH$COMPOUND_CLASS: N/A; Environmental Standard
CH$FORMULA: C8H11N3O3S
CH$EXACT_MASS: 229.0521122
CH$SMILES: C1C(OC(S1)CO)N2C=CC(=NC2=O)N
CH$IUPAC: InChI=1S/C8H11N3O3S/c9-5-1-2-11(8(13)10-5)6-4-15-7(3-12)14-6/h1-2,6-7,12H,3-4H2,(H2,9,10,13)
CH$LINK: PUBCHEM CID:3877
CH$LINK: INCHIKEY JTEGQNOMFQHVDC-UHFFFAOYSA-N
CH$LINK: CHEMSPIDER 3740
AC$INSTRUMENT: Exploris 240 Orbitrap Thermo Scientific
AC$INSTRUMENT_TYPE: LC-ESI-QFT
AC$MASS_SPECTROMETRY: MS_TYPE MS2
AC$MASS_SPECTROMETRY: ION_MODE POSITIVE
AC$MASS_SPECTROMETRY: IONIZATION ESI
AC$MASS_SPECTROMETRY: FRAGMENTATION_MODE HCD
AC$MASS_SPECTROMETRY: COLLISION_ENERGY 90 % (nominal)
AC$MASS_SPECTROMETRY: RESOLUTION 17500
AC$MASS_SPECTROMETRY: MASS_RANGE_M/Z 50-256
AC$CHROMATOGRAPHY: COLUMN_NAME XBridge C18 3.5um, 2.1x50mm, Waters
AC$CHROMATOGRAPHY: FLOW_GRADIENT 90/10 at 0 min, 50/50 at 4 min, 5/95 at 17 min, 5/95 at 25 min, 90/10 at 25.1 min, 90/10 at 30 min
AC$CHROMATOGRAPHY: FLOW_RATE 200 uL/min
AC$CHROMATOGRAPHY: RETENTION_TIME 1.427 min
MS$FOCUSED_ION: BASE_PEAK 230.0592
MS$FOCUSED_ION: PRECURSOR_M/Z 230.0594
MS$FOCUSED_ION: PRECURSOR_TYPE [M+H]+
MS$DATA_PROCESSING: RECALIBRATE loess on assigned fragments and MS1
MS$DATA_PROCESSING: REANALYZE Peaks with additional N2/O included
MS$DATA_PROCESSING: WHOLE RMassBank 3.15.1
PK$SPLASH: splash10-03di-6900000000-a5ef57e1d79beaa3ffe6
PK$ANNOTATION: m/z tentative_formula formula_count mass error(ppm)
  52.0181 C3H2N+ 1 52.0182 -1.39
  61.0108 C2H5S+ 1 61.0106 2.41
  67.0292 C3H3N2+ 1 67.0291 2.18
  68.0132 C3H2NO+ 1 68.0131 1.4
  69.0447 C3H5N2+ 1 69.0447 -0.3
  71.0239 C2H3N2O+ 1 71.024 -1.12
  73.0107 C3H5S+ 1 73.0106 0.48
  94.0399 C4H4N3+ 1 94.04 -0.39
  95.024 C4H3N2O+ 1 95.024 0.01
  101.0055 C4H5OS+ 1 101.0056 -0.91
  112.0505 C4H6N3O+ 1 112.0505 -0.25
PK$NUM_PEAK: 11
PK$PEAK: m/z int. rel.int.
  52.0181 215856.6 9
  61.0108 445967.8 19
  67.0292 385114.5 16
  68.0132 521981.8 22
  69.0447 3004278.8 132
  71.0239 237381.4 10
  73.0107 1079950 47
  94.0399 1632221.8 71
  95.024 8514624 374
  101.0055 187319.4 8
  112.0505 22688222 999
//
