ACCESSION: MSBNK-Eawag-EQ338451
RECORD_TITLE: 3-[(4-chlorobenzoyl)amino]propanoic acid; LC-ESI-QFT; MS2; CE: 15; R=35000; [M-H]-
DATE: 2015.08.26
AUTHORS: Beck B, Stravs M, Schymanski E, Singer H, Department of Environmental Chemistry, Eawag
LICENSE: CC BY
COPYRIGHT: Copyright (C) 2015 Eawag, Duebendorf, Switzerland
COMMENT: CONFIDENCE standard compound
COMMENT: EAWAG_UCHEM_ID 3384
CH$NAME: 3-[(4-chlorobenzoyl)amino]propanoic acid
CH$NAME: N-(4-Chlorobenzoyl)-Beta-alanine
CH$COMPOUND_CLASS: N/A; Environmental Standard
CH$FORMULA: C10H10ClNO3
CH$EXACT_MASS: 227.03492
CH$SMILES: C1=CC(=CC=C1C(=O)NCCC(=O)O)Cl
CH$IUPAC: InChI=1S/C10H10ClNO3/c11-8-3-1-7(2-4-8)10(15)12-6-5-9(13)14/h1-4H,5-6H2,(H,12,15)(H,13,14)
CH$LINK: PUBCHEM CID:1235725
CH$LINK: INCHIKEY ZCGLNFAUVVHTQO-UHFFFAOYSA-N
CH$LINK: CHEMSPIDER 1038460
CH$LINK: COMPTOX DTXSID80891493
AC$INSTRUMENT: Q Exactive Plus Orbitrap Thermo Scientific
AC$INSTRUMENT_TYPE: LC-ESI-QFT
AC$MASS_SPECTROMETRY: MS_TYPE MS2
AC$MASS_SPECTROMETRY: ION_MODE NEGATIVE
AC$MASS_SPECTROMETRY: IONIZATION ESI
AC$MASS_SPECTROMETRY: FRAGMENTATION_MODE HCD
AC$MASS_SPECTROMETRY: COLLISION_ENERGY 15 (nominal)
AC$MASS_SPECTROMETRY: RESOLUTION 35000
AC$CHROMATOGRAPHY: COLUMN_NAME XBridge C18 3.5um, 2.1x50mm, Waters
AC$CHROMATOGRAPHY: FLOW_GRADIENT 90/10 at 0 min, 50/50 at 4 min, 5/95 at 17 min, 5/95 at 25 min, 90/10 at 25.1 min, 90/10 at 30 min
AC$CHROMATOGRAPHY: FLOW_RATE 200 ul/min
AC$CHROMATOGRAPHY: RETENTION_TIME 6.1 min
AC$CHROMATOGRAPHY: SOLVENT A water with 0.1% formic acid
AC$CHROMATOGRAPHY: SOLVENT B methanol with 0.1% formic acid
MS$FOCUSED_ION: BASE_PEAK 226.0275
MS$FOCUSED_ION: PRECURSOR_M/Z 226.0276
MS$FOCUSED_ION: PRECURSOR_TYPE [M-H]-
MS$DATA_PROCESSING: RECALIBRATE loess on assigned fragments and MS1
MS$DATA_PROCESSING: REANALYZE Peaks with additional N2/O included
MS$DATA_PROCESSING: WHOLE RMassBank 1.9.6
PK$SPLASH: splash10-0fb9-0690000000-132900ddb9fdce4cade0
PK$ANNOTATION: m/z tentative_formula formula_count mass error(ppm)
  59.0138 C2H3O2- 1 59.0139 -0.9
  71.0139 C3H3O2- 1 71.0139 1.37
  111.0002 C6H4Cl- 1 111.0007 -4.79
  154.0066 C7H5ClNO- 2 154.0065 0.42
  182.0379 C9H9ClNO- 1 182.0378 0.69
  226.0277 C10H9ClNO3- 1 226.0276 0.38
PK$NUM_PEAK: 6
PK$PEAK: m/z int. rel.int.
  59.0138 195410.9 1
  71.0139 4272764.5 28
  111.0002 276916.1 1
  154.0066 108958184 728
  182.0379 419409.4 2
  226.0277 149391472 999
//
