ACCESSION: MSBNK-Eawag-EQ01124407
RECORD_TITLE: Ethiofencarb-Sulfone; LC-ESI-QFT; MS2; CE: 120%; R=17500; [M+H]+
DATE: 2023.04.27
AUTHORS: B. Beck [dtc,com], J. Hollender [dtc]
LICENSE: CC BY-SA
COPYRIGHT: Copyright (C) Eawag 2023
COMMENT: CONFIDENCE standard compound
COMMENT: UCHEM_ID 11244
CH$NAME: Ethiofencarb-Sulfone
CH$NAME: Phenol, 2-((ethylsulfonyl)methyl)-, methylcarbamate
CH$NAME: [2-(ethylsulfonylmethyl)phenyl] N-methylcarbamate
CH$COMPOUND_CLASS: N/A; Environmental Standard
CH$FORMULA: C11H15NO4S
CH$EXACT_MASS: 257.0722
CH$SMILES: CCS(=O)(=O)CC1=CC=CC=C1OC(=O)NC
CH$IUPAC: InChI=1S/C11H15NO4S/c1-3-17(14,15)8-9-6-4-5-7-10(9)16-11(13)12-2/h4-7H,3,8H2,1-2H3,(H,12,13)
CH$LINK: CAS 5427-28-1
CH$LINK: CHEBI CHEBI:174373
CH$LINK: PUBCHEM CID:119490
CH$LINK: INCHIKEY IOPTXXRNXCPJGO-UHFFFAOYSA-N
CH$LINK: CHEMSPIDER 106713
AC$INSTRUMENT: Exploris 240 Orbitrap Thermo Scientific
AC$INSTRUMENT_TYPE: LC-ESI-QFT
AC$MASS_SPECTROMETRY: MS_TYPE MS2
AC$MASS_SPECTROMETRY: ION_MODE POSITIVE
AC$MASS_SPECTROMETRY: IONIZATION ESI
AC$MASS_SPECTROMETRY: FRAGMENTATION_MODE HCD
AC$MASS_SPECTROMETRY: COLLISION_ENERGY 120 % (nominal)
AC$MASS_SPECTROMETRY: RESOLUTION 17500
AC$MASS_SPECTROMETRY: MASS_RANGE_M/Z 50-284
AC$CHROMATOGRAPHY: COLUMN_NAME XBridge C18 3.5um, 2.1x50mm, Waters
AC$CHROMATOGRAPHY: FLOW_GRADIENT 90/10 at 0 min, 50/50 at 4 min, 5/95 at 17 min, 5/95 at 25 min, 90/10 at 25.1 min, 90/10 at 30 min
AC$CHROMATOGRAPHY: FLOW_RATE 200 uL/min
AC$CHROMATOGRAPHY: RETENTION_TIME 3.501 min
MS$FOCUSED_ION: BASE_PEAK 201.058
MS$FOCUSED_ION: PRECURSOR_M/Z 258.0795
MS$FOCUSED_ION: PRECURSOR_TYPE [M+H]+
MS$DATA_PROCESSING: RECALIBRATE loess on assigned fragments and MS1
MS$DATA_PROCESSING: REANALYZE Peaks with additional N2/O included
MS$DATA_PROCESSING: WHOLE RMassBank 3.11.0.1
PK$SPLASH: splash10-004i-9100000000-7c44ba24e27c8b5fb611
PK$ANNOTATION: m/z tentative_formula formula_count mass error(ppm)
  50.0151 C4H2+ 1 50.0151 0.35
  51.0229 C4H3+ 1 51.0229 0.04
  53.0386 C4H5+ 1 53.0386 -0.39
  55.0178 C3H3O+ 1 55.0178 -1.18
  58.0287 C2H4NO+ 1 58.0287 0.06
  77.0386 C6H5+ 1 77.0386 -0.34
  79.0542 C6H7+ 1 79.0542 -0.35
  81.0336 C5H5O+ 1 81.0335 1.36
  94.0415 C6H6O+ 1 94.0413 1.73
  95.0491 C6H7O+ 1 95.0491 -0.27
  107.0491 C7H7O+ 1 107.0491 -0.28
PK$NUM_PEAK: 11
PK$PEAK: m/z int. rel.int.
  50.0151 236601.2 10
  51.0229 3108246.8 139
  53.0386 5049057.5 226
  55.0178 159926.1 7
  58.0287 677048.8 30
  77.0386 22305994 999
  79.0542 14496331 649
  81.0336 292777.7 13
  94.0415 345136.9 15
  95.0491 6484510 290
  107.0491 11255061 504
//
