ACCESSION: MSBNK-Eawag-EA280255
RECORD_TITLE: Rosuvastatin; LC-ESI-ITFT; MS2; CE: 60%; R=7500; [M-H]-
DATE: 2014.01.14
AUTHORS: Stravs M, Schymanski E, Singer H, Department of Environmental Chemistry, Eawag
LICENSE: CC BY
COPYRIGHT: Copyright (C) 2012 Eawag, Duebendorf, Switzerland
COMMENT: CONFIDENCE standard compound
COMMENT: EAWAG_UCHEM_ID 2802
CH$NAME: Rosuvastatin
CH$NAME: (E,3R,5S)-7-[4-(4-fluorophenyl)-2-[methyl(methylsulfonyl)amino]-6-propan-2-ylpyrimidin-5-yl]-3,5-dihydroxyhept-6-enoic acid
CH$COMPOUND_CLASS: N/A; Environmental Standard
CH$FORMULA: C22H28FN3O6S
CH$EXACT_MASS: 481.16828
CH$SMILES: CC(C)C1=NC(=NC(=C1/C=C/[C@H](C[C@H](CC(=O)O)O)O)C2=CC=C(C=C2)F)N(C)S(=O)(=O)C
CH$IUPAC: InChI=1S/C22H28FN3O6S/c1-13(2)20-18(10-9-16(27)11-17(28)12-19(29)30)21(14-5-7-15(23)8-6-14)25-22(24-20)26(3)33(4,31)32/h5-10,13,16-17,27-28H,11-12H2,1-4H3,(H,29,30)/b10-9+/t16-,17-/m1/s1
CH$LINK: CAS 287714-41-4
CH$LINK: CHEBI CHEBI:38545
CH$LINK: CHEMSPIDER 393589
CH$LINK: COMPTOX DTXSID8048492
CH$LINK: INCHIKEY BPRHUIZQVSMCRT-VEUZHWNKSA-N
CH$LINK: PUBCHEM CID:446157
AC$INSTRUMENT: LTQ Orbitrap XL Thermo Scientific
AC$INSTRUMENT_TYPE: LC-ESI-ITFT
AC$MASS_SPECTROMETRY: MS_TYPE MS2
AC$MASS_SPECTROMETRY: ION_MODE NEGATIVE
AC$MASS_SPECTROMETRY: IONIZATION ESI
AC$MASS_SPECTROMETRY: FRAGMENTATION_MODE HCD
AC$MASS_SPECTROMETRY: COLLISION_ENERGY 60 % (nominal)
AC$MASS_SPECTROMETRY: RESOLUTION 7500
AC$CHROMATOGRAPHY: COLUMN_NAME XBridge C18 3.5um, 2.1x50mm, Waters
AC$CHROMATOGRAPHY: FLOW_GRADIENT 90/10 at 0 min, 50/50 at 4 min, 5/95 at 17 min, 5/95 at 25 min, 90/10 at 25.1 min, 90/10 at 30 min
AC$CHROMATOGRAPHY: FLOW_RATE 200 ul/min
AC$CHROMATOGRAPHY: RETENTION_TIME 9.2 min
AC$CHROMATOGRAPHY: SOLVENT A water with 0.1% formic acid
AC$CHROMATOGRAPHY: SOLVENT B methanol with 0.1% formic acid
MS$FOCUSED_ION: BASE_PEAK 480.1602
MS$FOCUSED_ION: PRECURSOR_M/Z 480.161
MS$FOCUSED_ION: PRECURSOR_TYPE [M-H]-
MS$DATA_PROCESSING: DEPROFILE Spline
MS$DATA_PROCESSING: RECALIBRATE loess on assigned fragments and MS1
MS$DATA_PROCESSING: REANALYZE Peaks with additional N2/O included
MS$DATA_PROCESSING: WHOLE RMassBank 1.3.1
PK$SPLASH: splash10-02be-6090000000-01f04f5a7b9f2159ce75
PK$ANNOTATION: m/z tentative_formula formula_count mass error(ppm)
  63.9626 O2S- 1 63.9624 1.74
  76.9703 CHO2S- 1 76.9703 -0.18
  78.9858 CH3O2S- 1 78.9859 -1.44
  216.0953 C6H17FN2O3S- 4 216.0949 1.66
  244.1252 C11H20N2O2S- 4 244.1251 0.26
  268.1281 C18H17FO- 3 268.1269 4.62
  298.1355 C14H22N2O3S- 5 298.1357 -0.64
PK$NUM_PEAK: 7
PK$PEAK: m/z int. rel.int.
  63.9626 48230.3 946
  76.9703 12532.4 246
  78.9858 35958.5 705
  216.0953 17194 337
  244.1252 41798.9 820
  268.1281 14733.8 289
  298.1355 50887.4 999
//
