ACCESSION: MSBNK-Eawag-EQ364159
RECORD_TITLE: Florfenicol; LC-ESI-QFT; MS2; CE: 180; R=35000; [M-H]-
DATE: 2015.08.26
AUTHORS: Stravs M, Schymanski E, Singer H, Department of Environmental Chemistry, Eawag and Thomaidis N, University of Athens
LICENSE: CC BY
COPYRIGHT: Copyright (C) 2015 Eawag, Duebendorf, Switzerland
COMMENT: CONFIDENCE standard compound
COMMENT: EAWAG_UCHEM_ID 3641
CH$NAME: Florfenicol
CH$NAME: 2,2-dichloro-N-{3-fluoro-1-hydroxy-1-[4-(methylsulfonyl)phenyl]propan-2-yl}acetamide
CH$NAME: 2,2-dichloro-N-[3-fluoro-1-hydroxy-1-(4-methylsulfonylphenyl)propan-2-yl]acetamide
CH$COMPOUND_CLASS: N/A; Environmental Standard
CH$FORMULA: C12H14Cl2FNO4S
CH$EXACT_MASS: 357.00046
CH$SMILES: CS(=O)(=O)C1=CC=C(C=C1)C(C(CF)NC(=O)C(Cl)Cl)O
CH$IUPAC: InChI=1S/C12H14Cl2FNO4S/c1-21(19,20)8-4-2-7(3-5-8)10(17)9(6-15)16-12(18)11(13)14/h2-5,9-11,17H,6H2,1H3,(H,16,18)
CH$LINK: CAS 73231-34-2
CH$LINK: PUBCHEM CID:5201447
CH$LINK: INCHIKEY AYIRNRDRBQJXIF-UHFFFAOYSA-N
CH$LINK: CHEMSPIDER 4372750
AC$INSTRUMENT: Q Exactive Plus Orbitrap Thermo Scientific
AC$INSTRUMENT_TYPE: LC-ESI-QFT
AC$MASS_SPECTROMETRY: MS_TYPE MS2
AC$MASS_SPECTROMETRY: ION_MODE NEGATIVE
AC$MASS_SPECTROMETRY: IONIZATION ESI
AC$MASS_SPECTROMETRY: FRAGMENTATION_MODE HCD
AC$MASS_SPECTROMETRY: COLLISION_ENERGY 180 (nominal)
AC$MASS_SPECTROMETRY: RESOLUTION 35000
AC$CHROMATOGRAPHY: COLUMN_NAME XBridge C18 3.5um, 2.1x50mm, Waters
AC$CHROMATOGRAPHY: FLOW_GRADIENT 90/10 at 0 min, 50/50 at 4 min, 5/95 at 17 min, 5/95 at 25 min, 90/10 at 25.1 min, 90/10 at 30 min
AC$CHROMATOGRAPHY: FLOW_RATE 200 ul/min
AC$CHROMATOGRAPHY: RETENTION_TIME 4.6 min
AC$CHROMATOGRAPHY: SOLVENT A water with 0.1% formic acid
AC$CHROMATOGRAPHY: SOLVENT B methanol with 0.1% formic acid
MS$FOCUSED_ION: BASE_PEAK 355.9929
MS$FOCUSED_ION: PRECURSOR_M/Z 355.9932
MS$FOCUSED_ION: PRECURSOR_TYPE [M-H]-
MS$DATA_PROCESSING: RECALIBRATE loess on assigned fragments and MS1
MS$DATA_PROCESSING: REANALYZE Peaks with additional N2/O included
MS$DATA_PROCESSING: WHOLE RMassBank 1.9.6
PK$SPLASH: splash10-03di-9000000000-6f0eaac3727eb1d85ec2
PK$ANNOTATION: m/z tentative_formula formula_count mass error(ppm)
  63.9624 O2S- 1 63.9624 0.02
  78.986 CH3O2S- 1 78.9859 0.58
  92.0268 C6H4O- 2 92.0268 0.83
  93.0347 C6H5O- 2 93.0346 1.41
  95.0139 C5H3O2- 2 95.0139 0.29
  108.0217 C6H4O2- 2 108.0217 -0.07
  121.0295 C7H5O2- 2 121.0295 0.31
PK$NUM_PEAK: 7
PK$PEAK: m/z int. rel.int.
  63.9624 2700036 999
  78.986 35408.4 13
  92.0268 10518.1 3
  93.0347 13281.9 4
  95.0139 12789.8 4
  108.0217 11616.3 4
  121.0295 80227.6 29
//
