ACCESSION: MSBNK-Eawag-EA066801
RECORD_TITLE: Simazine-2-hydroxy; LC-ESI-ITFT; MS2; CE: 35%; R=7500; [M+H]+
DATE: 2014.01.14
AUTHORS: Stravs M, Schymanski E, Singer H, Department of Environmental Chemistry, Eawag
LICENSE: CC BY
COPYRIGHT: Copyright (C) 2012 Eawag, Duebendorf, Switzerland
COMMENT: CONFIDENCE standard compound
COMMENT: EAWAG_UCHEM_ID 668
CH$NAME: Simazine-2-hydroxy
CH$NAME: 2-Hydroxysimazine
CH$NAME: 2,6-bis(ethylamino)-1H-1,3,5-triazin-4-one
CH$COMPOUND_CLASS: N/A; Environmental Standard
CH$FORMULA: C7H13N5O
CH$EXACT_MASS: 183.1120
CH$SMILES: Oc1nc(NCC)nc(NCC)n1
CH$IUPAC: InChI=1S/C7H13N5O/c1-3-8-5-10-6(9-4-2)12-7(13)11-5/h3-4H2,1-2H3,(H3,8,9,10,11,12,13)
CH$LINK: CAS 2599-11-3
CH$LINK: INCHIKEY YQIXRXMOJFQVBV-UHFFFAOYSA-N
CH$LINK: CHEMSPIDER 16505
CH$LINK: COMPTOX DTXSID6062547
CH$LINK: PUBCHEM CID:135408659
AC$INSTRUMENT: LTQ Orbitrap XL Thermo Scientific
AC$INSTRUMENT_TYPE: LC-ESI-ITFT
AC$MASS_SPECTROMETRY: MS_TYPE MS2
AC$MASS_SPECTROMETRY: ION_MODE POSITIVE
AC$MASS_SPECTROMETRY: IONIZATION ESI
AC$MASS_SPECTROMETRY: FRAGMENTATION_MODE CID
AC$MASS_SPECTROMETRY: COLLISION_ENERGY 35 % (nominal)
AC$MASS_SPECTROMETRY: RESOLUTION 7500
AC$CHROMATOGRAPHY: COLUMN_NAME XBridge C18 3.5um, 2.1x50mm, Waters
AC$CHROMATOGRAPHY: FLOW_GRADIENT 90/10 at 0 min, 50/50 at 4 min, 5/95 at 17 min, 5/95 at 25 min, 90/10 at 25.1 min, 90/10 at 30 min
AC$CHROMATOGRAPHY: FLOW_RATE 200 ul/min
AC$CHROMATOGRAPHY: RETENTION_TIME 3.5 min
AC$CHROMATOGRAPHY: SOLVENT A water with 0.1% formic acid
AC$CHROMATOGRAPHY: SOLVENT B methanol with 0.1% formic acid
MS$FOCUSED_ION: BASE_PEAK 184.1194
MS$FOCUSED_ION: PRECURSOR_M/Z 184.1193
MS$FOCUSED_ION: PRECURSOR_TYPE [M+H]+
MS$DATA_PROCESSING: DEPROFILE Spline
MS$DATA_PROCESSING: RECALIBRATE loess on assigned fragments and MS1
MS$DATA_PROCESSING: REANALYZE Peaks with additional N2/O included
MS$DATA_PROCESSING: WHOLE RMassBank 1.3.1
PK$SPLASH: splash10-03di-0900000000-e5cbeeaa7e625783d83e
PK$ANNOTATION: m/z tentative_formula formula_count mass error(ppm)
  69.0084 C2HN2O+ 1 69.0083 1.17
  71.0604 C3H7N2+ 1 71.0604 0.92
  86.0349 C2H4N3O+ 1 86.0349 -0.33
  97.0396 C4H5N2O+ 1 97.0396 -0.3
  99.0916 C5H11N2+ 1 99.0917 -0.96
  113.0821 C4H9N4+ 1 113.0822 -0.91
  114.0662 C4H8N3O+ 1 114.0662 -0.25
  124.0871 C6H10N3+ 1 124.0869 1.66
  139.0617 C5H7N4O+ 1 139.0614 1.82
  141.0766 C5H9N4O+ 1 141.0771 -3.53
  141.1135 C6H13N4+ 1 141.1135 0.41
  142.0979 C6H12N3O+ 1 142.0975 2.83
  156.088 C5H10N5O+ 1 156.088 0.34
  166.1086 C7H12N5+ 1 166.1087 -0.55
  167.0931 C7H11N4O+ 1 167.0927 2.17
  184.1194 C7H14N5O+ 1 184.1193 0.56
PK$NUM_PEAK: 16
PK$PEAK: m/z int. rel.int.
  69.0084 365845.8 4
  71.0604 302179.9 3
  86.0349 352336.8 4
  97.0396 889171.2 11
  99.0916 272370.1 3
  113.0821 824485.9 10
  114.0662 77855741.9 999
  124.0871 238334.4 3
  139.0617 95982 1
  141.0766 198148.9 2
  141.1135 244356.3 3
  142.0979 162476 2
  156.088 2941142.3 37
  166.1086 230634.5 2
  167.0931 297924.3 3
  184.1194 992858.2 12
//
