ACCESSION: MSBNK-Eawag-EA274009
RECORD_TITLE: Tritosulfuron; LC-ESI-ITFT; MS2; CE: 30%; R=15000; [M+H]+
DATE: 2014.01.14
AUTHORS: Stravs M, Schymanski E, Singer H, Department of Environmental Chemistry, Eawag
LICENSE: CC BY
COPYRIGHT: Copyright (C) 2012 Eawag, Duebendorf, Switzerland
COMMENT: CONFIDENCE standard compound
COMMENT: EAWAG_UCHEM_ID 2740
CH$NAME: Tritosulfuron
CH$NAME: N-{[4-methoxy-6-(trifluoromethyl)-1,3,5-triazin-2-yl]carbamoyl}-2-(trifluoromethyl)benzenesulfonamide
CH$COMPOUND_CLASS: N/A; Environmental Standard
CH$FORMULA: C13H9F6N5O4S
CH$EXACT_MASS: 445.0279
CH$SMILES: c1c(S(=O)(=O)NC(Nc2nc(nc(n2)C(F)(F)F)OC)=O)c(C(F)(F)F)ccc1
CH$IUPAC: InChI=1S/C13H9F6N5O4S/c1-28-11-21-8(13(17,18)19)20-9(23-11)22-10(25)24-29(26,27)7-5-3-2-4-6(7)12(14,15)16/h2-5H,1H3,(H2,20,21,22,23,24,25)
CH$LINK: CAS 142469-14-5
CH$LINK: PUBCHEM CID:11657899
CH$LINK: INCHIKEY KVEQCVKVIFQSGC-UHFFFAOYSA-N
CH$LINK: CHEMSPIDER 9832635
CH$LINK: COMPTOX DTXSID9057975
AC$INSTRUMENT: LTQ Orbitrap XL Thermo Scientific
AC$INSTRUMENT_TYPE: LC-ESI-ITFT
AC$MASS_SPECTROMETRY: MS_TYPE MS2
AC$MASS_SPECTROMETRY: ION_MODE POSITIVE
AC$MASS_SPECTROMETRY: IONIZATION ESI
AC$MASS_SPECTROMETRY: FRAGMENTATION_MODE HCD
AC$MASS_SPECTROMETRY: COLLISION_ENERGY 30 % (nominal)
AC$MASS_SPECTROMETRY: RESOLUTION 15000
AC$CHROMATOGRAPHY: COLUMN_NAME XBridge C18 3.5um, 2.1x50mm, Waters
AC$CHROMATOGRAPHY: FLOW_GRADIENT 90/10 at 0 min, 50/50 at 4 min, 5/95 at 17 min, 5/95 at 25 min, 90/10 at 25.1 min, 90/10 at 30 min
AC$CHROMATOGRAPHY: FLOW_RATE 200 ul/min
AC$CHROMATOGRAPHY: RETENTION_TIME 10.8 min
AC$CHROMATOGRAPHY: SOLVENT A water with 0.1% formic acid
AC$CHROMATOGRAPHY: SOLVENT B methanol with 0.1% formic acid
MS$FOCUSED_ION: BASE_PEAK 446.0345
MS$FOCUSED_ION: PRECURSOR_M/Z 446.0352
MS$FOCUSED_ION: PRECURSOR_TYPE [M+H]+
MS$DATA_PROCESSING: DEPROFILE Spline
MS$DATA_PROCESSING: RECALIBRATE loess on assigned fragments and MS1
MS$DATA_PROCESSING: REANALYZE Peaks with additional N2/O included
MS$DATA_PROCESSING: WHOLE RMassBank 1.3.1
PK$SPLASH: splash10-0002-0950000000-6eecb349c3e59d77eee0
PK$ANNOTATION: m/z tentative_formula formula_count mass error(ppm)
  83.024 C3H3N2O+ 1 83.024 -0.11
  110.0213 C3H3F3N+ 1 110.0212 0.54
  127.0478 C3H6F3N2+ 1 127.0478 0.4
  145.026 C7H4F3+ 2 145.026 0.54
  175.0427 C2H10FN3O3S+ 3 175.0421 2.9
  186.002 C2H4F2N4O2S+ 3 186.0018 1.16
  195.0488 C5H6F3N4O+ 3 195.0488 0.09
  206.0082 C7H6F2NO2S+ 4 206.0082 -0.16
  208.988 C7H4F3O2S+ 4 208.9879 0.42
  220.0442 C11H6F2N2O+ 4 220.0443 -0.28
  221.0281 C6H4F3N4O2+ 6 221.0281 0.06
  231.9875 C8H4F2NO3S+ 4 231.9874 0.32
  363.0171 C12H7F4N4O3S+ 3 363.017 0.3
  403.0293 C12H9F6N4O3S+ 1 403.0294 -0.34
  446.0348 C13H10F6N5O4S+ 1 446.0352 -0.88
PK$NUM_PEAK: 15
PK$PEAK: m/z int. rel.int.
  83.024 9992.5 1
  110.0213 27003.4 4
  127.0478 68727.9 10
  145.026 1049524.4 157
  175.0427 7675.1 1
  186.002 105167.6 15
  195.0488 6677182.9 999
  206.0082 68410.6 10
  208.988 1602916.9 239
  220.0442 69147.6 10
  221.0281 2717979.7 406
  231.9875 161439.6 24
  363.0171 60078.3 8
  403.0293 59359.6 8
  446.0348 57605.1 8
//
