ACCESSION: MSBNK-Eawag-EQ314004
RECORD_TITLE: Nystatin; LC-ESI-QFT; MS2; CE: 60; R=35000; [M+H]+
DATE: 2015.08.25
AUTHORS: Beck B, Stravs M, Schymanski E, Singer H, Department of Environmental Chemistry, Eawag
LICENSE: CC BY
COPYRIGHT: Copyright (C) 2015 Eawag, Duebendorf, Switzerland
COMMENT: CONFIDENCE standard compound
COMMENT: EAWAG_UCHEM_ID 3140
CH$NAME: Nystatin
CH$NAME: (1S,3R,4R,7R,9R,11R,15S,16R,17R,18S,19E,21E,25E,27E,29E,31E,33R,35S,36R,37S)-33-[(3-Amino-3,6-dideoxy-?-D-mannopyranosyl)oxy]-1,3,4,7,9,11,17,37-octahydroxy-15,16,18-trimethyl-13-oxo-14,39-dioxabic yclo[33.3.1]nonatriaconta-19,21,25,27,29,31-hexaene-36-carboxylic acid
CH$COMPOUND_CLASS: N/A; Environmental Standard
CH$FORMULA: C47H75NO17
CH$EXACT_MASS: 925.50350
CH$SMILES: CC1C=CC=CCCC=CC=CC=CC=CC(CC2C(C(CC(O2)(CC(C(CCC(CC(CC(CC(=O)OC(C(C1O)C)C)O)O)O)O)O)O)O)C(=O)O)OC3C(C(C(C(O3)C)O)N)O
CH$IUPAC: InChI=1S/C47H75NO17/c1-27-17-15-13-11-9-7-5-6-8-10-12-14-16-18-34(64-46-44(58)41(48)43(57)30(4)63-46)24-38-40(45(59)60)37(54)26-47(61,65-38)25-36(53)35(52)20-19-31(49)21-32(50)22-33(51)23-39(55)62-29(3)28(2)42(27)56/h5-6,8,10-18,27-38,40-44,46,49-54,56-58,61H,7,9,19-26,48H2,1-4H3,(H,59,60)/b6-5+,10-8+,13-11+,14-12+,17-15+,18-16+/t27-,28-,29-,30+,31+,32+,33+,34-,35+,36+,37-,38-,40+,41-,42+,43+,44-,46-,47+/m0/s1
CH$LINK: PUBCHEM CID:11286230
CH$LINK: INCHIKEY VQOXZBDYSJBXMA-NQTDYLQESA-N
CH$LINK: CHEMSPIDER 23078586
CH$LINK: COMPTOX DTXSID80872323
AC$INSTRUMENT: Q Exactive Orbitrap Thermo Scientific
AC$INSTRUMENT_TYPE: LC-ESI-QFT
AC$MASS_SPECTROMETRY: MS_TYPE MS2
AC$MASS_SPECTROMETRY: ION_MODE POSITIVE
AC$MASS_SPECTROMETRY: IONIZATION ESI
AC$MASS_SPECTROMETRY: FRAGMENTATION_MODE HCD
AC$MASS_SPECTROMETRY: COLLISION_ENERGY 60 (nominal)
AC$MASS_SPECTROMETRY: RESOLUTION 35000
AC$CHROMATOGRAPHY: COLUMN_NAME XBridge C18 3.5um, 2.1x50mm, Waters
AC$CHROMATOGRAPHY: FLOW_GRADIENT 90/10 at 0 min, 50/50 at 4 min, 5/95 at 17 min, 5/95 at 25 min, 90/10 at 25.1 min, 90/10 at 30 min
AC$CHROMATOGRAPHY: FLOW_RATE 200 ul/min
AC$CHROMATOGRAPHY: RETENTION_TIME 11.6 min
AC$CHROMATOGRAPHY: SOLVENT A water with 0.1% formic acid
AC$CHROMATOGRAPHY: SOLVENT B methanol with 0.1% formic acid
MS$FOCUSED_ION: BASE_PEAK 926.5109
MS$FOCUSED_ION: PRECURSOR_M/Z 926.5108
MS$FOCUSED_ION: PRECURSOR_TYPE [M+H]+
MS$DATA_PROCESSING: DEPROFILE Spline
MS$DATA_PROCESSING: RECALIBRATE loess on assigned fragments and MS1
MS$DATA_PROCESSING: REANALYZE Peaks with additional N2/O included
MS$DATA_PROCESSING: WHOLE RMassBank 1.9.6
PK$SPLASH: splash10-005c-0930000000-87741c2c98ecc15658f0
PK$ANNOTATION: m/z tentative_formula formula_count mass error(ppm)
  128.0621 C10H8+ 1 128.0621 0.06
  129.0699 C10H9+ 1 129.0699 -0.05
  130.0732 C5H10N2O2+ 1 130.0737 -3.61
  130.0778 C10H10+ 1 130.0777 0.76
  131.0492 C9H7O+ 1 131.0491 0.37
  131.0856 C10H11+ 1 131.0855 0.25
  132.057 C9H8O+ 1 132.057 0.26
  132.0889 C5H12N2O2+ 1 132.0893 -3.1
  133.0283 C8H5O2+ 1 133.0284 -0.8
  133.0648 C9H9O+ 1 133.0648 0.22
  133.1012 C10H13+ 1 133.1012 0.17
  134.068 C4H10N2O3+ 1 134.0686 -4.58
  134.0726 C9H10O+ 1 134.0726 0.18
  134.1045 C5H14N2O2+ 1 134.105 -3.95
  135.0441 C8H7O2+ 1 135.0441 0.18
  135.0805 C9H11O+ 1 135.0804 0.43
  135.1169 C10H15+ 1 135.1168 0.47
  137.0598 C8H9O2+ 1 137.0597 0.54
  137.0962 C9H13O+ 1 137.0961 0.79
  139.039 C7H7O3+ 1 139.039 -0.08
  139.0754 C8H11O2+ 1 139.0754 0.24
  141.0548 C7H9O3+ 1 141.0546 1.48
  141.0699 C11H9+ 1 141.0699 -0.05
  142.0733 C6H10N2O2+ 1 142.0737 -2.81
  142.0779 C11H10+ 1 142.0777 1.61
  143.0493 C10H7O+ 1 143.0491 1.04
  143.0857 C11H11+ 1 143.0855 1
  144.0571 C10H8O+ 1 144.057 1.14
  144.0889 C6H12N2O2+ 1 144.0893 -2.98
  144.0935 C11H12+ 1 144.0934 1.38
  145.0649 C10H9O+ 1 145.0648 0.89
  145.1013 C11H13+ 1 145.1012 0.64
  146.0679 C5H10N2O3+ 1 146.0686 -4.61
  146.0731 C10H10O+ 1 146.0726 3.11
  146.1044 C6H14N2O2+ 1 146.105 -4.24
  146.1093 C11H14+ 1 146.109 2.11
  147.0442 C9H7O2+ 1 147.0441 0.64
  147.0805 C10H11O+ 1 147.0804 0.47
  147.117 C11H15+ 1 147.1168 0.84
  148.0473 C4H8N2O4+ 1 148.0479 -3.43
  148.0837 C5H12N2O3+ 1 148.0842 -3.94
  149.0234 C8H5O3+ 1 149.0233 0.67
  149.0598 C9H9O2+ 1 149.0597 0.9
  149.0965 C10H13O+ 1 149.0961 2.94
  151.0391 C8H7O3+ 1 151.039 0.59
  151.0755 C9H11O2+ 1 151.0754 0.82
  151.1117 C10H15O+ 1 151.1117 -0.27
  152.0621 C12H8+ 1 152.0621 0.52
  153.0548 C8H9O3+ 1 153.0546 0.85
  153.07 C12H9+ 1 153.0699 0.87
  154.0779 C12H10+ 1 154.0777 1.29
  155.0605 C10H7N2+ 1 155.0604 0.49
  155.0856 C12H11+ 1 155.0855 0.21
  156.0571 C11H8O+ 1 156.057 0.86
  156.0886 C7H12N2O2+ 1 156.0893 -4.61
  156.0941 C12H12+ 1 156.0934 4.92
  157.0649 C11H9O+ 1 157.0648 0.69
  157.1013 C12H13+ 1 157.1012 0.59
  158.0725 C11H10O+ 1 158.0726 -0.55
  158.1096 C12H14+ 1 158.109 4.1
  159.0442 C10H7O2+ 1 159.0441 0.59
  159.0805 C11H11O+ 1 159.0804 0.49
  159.1169 C12H15+ 1 159.1168 0.4
  161.0598 C10H9O2+ 1 161.0597 0.65
  161.0962 C11H13O+ 1 161.0961 0.74
  161.1326 C12H17+ 1 161.1325 0.7
  162.0628 C5H10N2O4+ 1 162.0635 -4.12
  163.0391 C9H7O3+ 1 163.039 0.61
  163.0753 C10H11O2+ 1 163.0754 -0.22
  163.1116 C11H15O+ 1 163.1117 -0.56
  165.0549 C9H9O3+ 1 165.0546 1.51
  165.0699 C13H9+ 1 165.0699 0.26
  165.0911 C10H13O2+ 1 165.091 0.75
  166.078 C13H10+ 1 166.0777 1.8
  167.0705 C9H11O3+ 1 167.0703 1.55
  167.0857 C13H11+ 1 167.0855 0.86
  168.0568 C12H8O+ 1 168.057 -1.05
  168.094 C13H12+ 1 168.0934 3.62
  169.0649 C12H9O+ 1 169.0648 0.41
  169.1012 C13H13+ 1 169.1012 0.31
  170.0726 C12H10O+ 1 170.0726 0.08
  170.109 C13H14+ 1 170.109 0.05
  171.0442 C11H7O2+ 1 171.0441 0.55
  171.0805 C12H11O+ 1 171.0804 0.63
  171.1169 C13H15+ 1 171.1168 0.19
  173.0598 C11H9O2+ 1 173.0597 0.25
  173.0962 C12H13O+ 1 173.0961 0.51
  173.1326 C13H17+ 1 173.1325 0.71
  175.0391 C10H7O3+ 1 175.039 0.63
  175.0754 C11H11O2+ 1 175.0754 0.48
  176.0614 C14H8+ 1 176.0621 -3.47
  176.0785 C6H12N2O4+ 1 176.0792 -3.91
  177.0547 C10H9O3+ 1 177.0546 0.45
  177.0699 C14H9+ 1 177.0699 0.13
  177.091 C11H13O2+ 1 177.091 -0.03
  177.1274 C12H17O+ 1 177.1274 -0.23
  178.0777 C14H10+ 1 178.0777 0.21
  179.0701 C10H11O3+ 1 179.0703 -0.79
  179.0857 C14H11+ 1 179.0855 0.86
  180.0941 C14H12+ 1 180.0934 4.38
  181.0649 C13H9O+ 1 181.0648 0.43
  181.1013 C14H13+ 1 181.1012 0.46
  182.0729 C13H10O+ 1 182.0726 1.67
  183.0807 C13H11O+ 1 183.0804 1.19
  183.117 C14H15+ 1 183.1168 0.78
  184.0889 C13H12O+ 1 184.0883 3.33
  184.1244 C14H16+ 1 184.1247 -1.1
  185.0599 C12H9O2+ 1 185.0597 0.83
  185.0962 C13H13O+ 1 185.0961 0.86
  185.1326 C14H17+ 1 185.1325 0.72
  187.0756 C12H11O2+ 1 187.0754 1.14
  187.1119 C13H15O+ 1 187.1117 1.06
  187.1483 C14H19+ 1 187.1481 0.87
  189.055 C11H9O3+ 1 189.0546 2.17
  189.0698 C15H9+ 1 189.0699 -0.56
  189.0912 C12H13O2+ 1 189.091 0.92
  190.0777 C15H10+ 1 190.0777 -0.27
  190.0945 C7H14N2O4+ 1 190.0948 -1.78
  191.0709 C11H11O3+ 1 191.0703 3.24
  191.0857 C15H11+ 1 191.0855 0.8
  191.1065 C12H15O2+ 1 191.1067 -1.03
  192.0938 C15H12+ 1 192.0934 2.18
  193.1013 C15H13+ 1 193.1012 0.9
  194.073 C14H10O+ 1 194.0726 2.23
  194.0902 C6H14N2O5+ 1 194.0897 2.25
  194.1098 C15H14+ 1 194.109 4.16
  195.0806 C14H11O+ 1 195.0804 0.76
  195.117 C15H15+ 1 195.1168 0.84
  196.088 C14H12O+ 1 196.0883 -1.21
  196.125 C15H16+ 1 196.1247 1.57
  197.0597 C13H9O2+ 1 197.0597 -0.03
  197.0962 C14H13O+ 1 197.0961 0.45
  197.1325 C15H17+ 1 197.1325 0.27
  199.0755 C13H11O2+ 1 199.0754 0.62
  199.1117 C14H15O+ 1 199.1117 -0.16
  199.1479 C15H19+ 1 199.1481 -1.34
  201.0547 C12H9O3+ 1 201.0546 0.59
  201.0911 C13H13O2+ 1 201.091 0.72
  201.1273 C14H17O+ 1 201.1274 -0.65
  202.0779 C16H10+ 1 202.0777 0.73
  203.0711 C12H11O3+ 1 203.0703 4.18
  203.0856 C16H11+ 1 203.0855 0.21
  203.1064 C13H15O2+ 1 203.1067 -1.36
  204.0937 C16H12+ 1 204.0934 1.71
  205.1015 C16H13+ 1 205.1012 1.53
  206.0724 C15H10O+ 1 206.0726 -1
  206.1097 C16H14+ 1 206.109 3.39
  207.0807 C15H11O+ 1 207.0804 1.35
  207.1014 C12H15O3+ 1 207.1016 -0.92
  207.117 C16H15+ 1 207.1168 0.79
  208.0877 C15H12O+ 1 208.0883 -2.72
  208.124 C16H16+ 1 208.1247 -2.99
  209.0594 C14H9O2+ 1 209.0597 -1.46
  209.0805 C11H13O4+ 1 209.0808 -1.8
  209.0963 C15H13O+ 1 209.0961 0.9
  209.1326 C16H17+ 1 209.1325 0.59
  211.0754 C14H11O2+ 1 211.0754 0.35
  211.0966 C11H15O4+ 1 211.0965 0.4
  211.1118 C15H15O+ 1 211.1117 0.23
  211.1484 C16H19+ 1 211.1481 1.1
  212.0827 C14H12O2+ 1 212.0832 -2.13
  213.0549 C13H9O3+ 1 213.0546 1.12
  213.091 C14H13O2+ 1 213.091 -0.08
  213.1274 C15H17O+ 1 213.1274 0.09
  213.164 C16H21+ 1 213.1638 1.14
  215.0701 C13H11O3+ 1 215.0703 -0.61
  215.0856 C17H11+ 1 215.0855 0.15
  215.1068 C14H15O2+ 1 215.1067 0.44
  216.0937 C17H12+ 1 216.0934 1.7
  217.0861 C13H13O3+ 1 217.0859 0.78
  217.1014 C17H13+ 1 217.1012 0.89
  218.0725 C16H10O+ 1 218.0726 -0.58
  218.1095 C17H14+ 1 218.109 2.1
  219.0653 C12H11O4+ 1 219.0652 0.62
  219.0807 C16H11O+ 1 219.0804 1.13
  219.1016 C13H15O3+ 1 219.1016 0.22
  219.117 C17H15+ 1 219.1168 0.84
  220.0877 C16H12O+ 1 220.0883 -2.53
  220.1241 C17H16+ 1 220.1247 -2.73
  221.0963 C16H13O+ 1 221.0961 0.9
  221.1327 C17H17+ 1 221.1325 0.87
  223.0757 C15H11O2+ 1 223.0754 1.36
  223.1119 C16H15O+ 1 223.1117 0.67
  223.1484 C17H19+ 1 223.1481 1.36
  224.1525 C12H20N2O2+ 1 224.1519 2.59
  225.0911 C15H13O2+ 1 225.091 0.37
  225.1272 C16H17O+ 1 225.1274 -0.9
  225.1635 C17H21+ 1 225.1638 -1.36
  226.0775 C18H10+ 1 226.0777 -0.76
  227.0702 C14H11O3+ 1 227.0703 -0.36
  227.0852 C18H11+ 1 227.0855 -1.48
  227.1065 C15H15O2+ 1 227.1067 -0.51
  228.0934 C18H12+ 1 228.0934 0.08
  229.0859 C14H13O3+ 1 229.0859 0.08
  229.101 C18H13+ 1 229.1012 -0.73
  230.1096 C18H14+ 1 230.109 2.64
  231.0807 C17H11O+ 1 231.0804 1.29
  231.1171 C18H15+ 1 231.1168 1.27
  232.0882 C17H12O+ 1 232.0883 -0.24
  232.1254 C18H16+ 1 232.1247 3.27
  233.0962 C17H13O+ 1 233.0961 0.64
  233.1172 C14H17O3+ 1 233.1172 0.08
  233.1323 C18H17+ 1 233.1325 -0.67
  234.0678 C16H10O2+ 1 234.0675 1.28
  234.1034 C17H14O+ 1 234.1039 -2.42
  235.0752 C16H11O2+ 1 235.0754 -0.88
  235.112 C17H15O+ 1 235.1117 1.06
  235.1484 C18H19+ 1 235.1481 1.12
  236.1553 C18H20+ 1 236.156 -2.63
  237.0912 C16H13O2+ 1 237.091 0.86
  237.1271 C17H17O+ 1 237.1274 -1.06
  237.1635 C18H21+ 1 237.1638 -1
  238.096 C11H14N2O4+ 1 238.0948 4.88
  239.07 C15H11O3+ 1 239.0703 -1.3
  239.0853 C19H11+ 1 239.0855 -1.16
  239.1069 C16H15O2+ 1 239.1067 0.85
  239.1428 C17H19O+ 1 239.143 -1.01
  239.1789 C18H23+ 1 239.1794 -2.29
  240.0932 C19H12+ 1 240.0934 -0.67
  241.0857 C15H13O3+ 1 241.0859 -0.75
  241.1009 C19H13+ 1 241.1012 -1.07
  241.1219 C16H17O2+ 1 241.1223 -1.56
  242.1095 C19H14+ 1 242.109 2.06
  243.0806 C18H11O+ 1 243.0804 0.65
  243.1014 C15H15O3+ 1 243.1016 -0.54
  243.1168 C19H15+ 1 243.1168 -0.11
  244.088 C18H12O+ 1 244.0883 -1.05
  244.1061 C10H16N2O5+ 1 244.1054 2.9
  244.1239 C19H16+ 1 244.1247 -3.04
  245.0964 C18H13O+ 1 245.0961 1.22
  245.1199 C18H15N+ 1 245.1199 0
  245.1326 C19H17+ 1 245.1325 0.38
  246.1039 C18H14O+ 1 246.1039 -0.23
  246.1408 C19H18+ 1 246.1403 2.02
  247.0757 C17H11O2+ 1 247.0754 1.27
  247.1118 C18H15O+ 1 247.1117 0.36
  247.1482 C19H19+ 1 247.1481 0.38
  248.1186 C18H16O+ 1 248.1196 -3.9
  248.1564 C19H20+ 1 248.156 1.89
  249.0913 C17H13O2+ 1 249.091 1.22
  249.1276 C18H17O+ 1 249.1274 0.96
  249.1634 C19H21+ 1 249.1638 -1.35
  250.1342 C18H18O+ 1 250.1352 -3.9
  251.1063 C17H15O2+ 1 251.1067 -1.34
  251.1423 C18H19O+ 1 251.143 -2.95
  251.1793 C19H23+ 1 251.1794 -0.55
  252.0931 C20H12+ 1 252.0934 -1.12
  253.101 C20H13+ 1 253.1012 -0.66
  253.122 C17H17O2+ 1 253.1223 -1.13
  254.1093 C20H14+ 1 254.109 1.13
  255.1027 C16H15O3+ 1 255.1016 4.58
  255.1166 C20H15+ 1 255.1168 -1.01
  255.1374 C17H19O2+ 1 255.138 -2.1
  256.1246 C20H16+ 1 256.1247 -0.09
  257.0958 C19H13O+ 1 257.0961 -0.98
  257.1327 C20H17+ 1 257.1325 1.06
  258.1033 C19H14O+ 1 258.1039 -2.5
  258.1395 C20H18+ 1 258.1403 -3.03
  259.112 C19H15O+ 1 259.1117 0.92
  259.148 C20H19+ 1 259.1481 -0.61
  260.1189 C19H16O+ 1 260.1196 -2.56
  260.1552 C20H20+ 1 260.156 -2.78
  261.0913 C18H13O2+ 1 261.091 0.97
  261.1123 C15H17O4+ 1 261.1121 0.67
  261.1273 C19H17O+ 1 261.1274 -0.16
  261.1638 C20H21+ 1 261.1638 0.13
  263.1064 C18H15O2+ 1 263.1067 -1.16
  263.1428 C19H19O+ 1 263.143 -0.8
  263.1797 C20H23+ 1 263.1794 1.15
  264.1132 C18H16O2+ 1 264.1145 -4.7
  265.0865 C17H13O3+ 1 265.0859 2.37
  265.1006 C21H13+ 1 265.1012 -2.1
  265.1222 C18H17O2+ 1 265.1223 -0.29
  266.1093 C21H14+ 1 266.109 1.08
  267.1014 C17H15O3+ 1 267.1016 -0.75
  267.1168 C21H15+ 1 267.1168 -0.06
  267.1387 C18H19O2+ 1 267.138 2.86
  268.1243 C21H16+ 1 268.1247 -1.42
  269.0953 C20H13O+ 1 269.0961 -2.87
  269.1184 C17H17O3+ 1 269.1172 4.23
  269.1325 C21H17+ 1 269.1325 0.09
  270.1034 C20H14O+ 1 270.1039 -1.99
  270.1406 C21H18+ 1 270.1403 1.14
  271.0966 C16H15O4+ 1 271.0965 0.31
  271.1114 C20H15O+ 1 271.1117 -1.26
  271.1486 C21H19+ 1 271.1481 1.71
  272.1191 C20H16O+ 1 272.1196 -1.53
  273.0911 C19H13O2+ 1 273.091 0.38
  273.1272 C20H17O+ 1 273.1274 -0.59
  273.1634 C21H21+ 1 273.1638 -1.23
  274.1352 C20H18O+ 1 274.1352 -0.1
  275.1065 C19H15O2+ 1 275.1067 -0.68
  275.1427 C20H19O+ 1 275.143 -1.06
  275.1797 C21H23+ 1 275.1794 1.1
  277.1223 C19H17O2+ 1 277.1223 -0.06
  278.1081 C7H20NO10+ 2 278.1082 -0.22
  279.1021 C18H15O3+ 1 279.1016 1.75
  279.1174 C22H15+ 1 279.1168 1.98
  279.1376 C19H19O2+ 1 279.138 -1.35
  280.1243 C22H16+ 1 280.1247 -1.29
  281.1183 C18H17O3+ 1 281.1172 3.87
  281.1323 C22H17+ 1 281.1325 -0.7
  282.1399 C22H18+ 1 282.1403 -1.28
  283.1117 C21H15O+ 1 283.1117 -0.29
  283.1483 C22H19+ 1 283.1481 0.65
  284.1187 C21H16O+ 1 284.1196 -2.94
  285.1273 C21H17O+ 1 285.1274 -0.5
  285.1629 C22H21+ 1 285.1638 -3.01
  287.1066 C20H15O2+ 1 287.1067 -0.3
  287.1427 C21H19O+ 1 287.143 -1.12
  289.1222 C20H17O2+ 1 289.1223 -0.23
  289.1586 C21H21O+ 1 289.1587 -0.28
  291.1375 C20H19O2+ 1 291.138 -1.64
  293.1327 C23H17+ 1 293.1325 0.62
  293.1526 C20H21O2+ 1 293.1536 -3.47
  294.1401 C23H18+ 1 294.1403 -0.69
  295.1118 C22H15O+ 1 295.1117 0.3
  295.1483 C23H19+ 1 295.1481 0.69
  297.1634 C23H21+ 1 297.1638 -1.37
  298.1346 C22H18O+ 1 298.1352 -2.17
  299.1426 C22H19O+ 1 299.143 -1.58
  299.1791 C23H23+ 1 299.1794 -1.06
  301.1225 C21H17O2+ 1 301.1223 0.68
  301.1581 C22H21O+ 1 301.1587 -1.93
  303.1374 C21H19O2+ 1 303.138 -1.9
  305.1335 C24H17+ 1 305.1325 3.45
  305.1524 C21H21O2+ 1 305.1536 -4.08
  307.1322 C20H19O3+ 1 307.1329 -2.22
  307.148 C24H19+ 1 307.1481 -0.28
  309.1268 C23H17O+ 1 309.1274 -1.75
  309.1641 C24H21+ 1 309.1638 1.14
  311.143 C23H19O+ 1 311.143 -0.1
  311.1784 C24H23+ 1 311.1794 -3.24
  313.1588 C23H21O+ 1 313.1587 0.35
  315.1385 C22H19O2+ 1 315.138 1.66
  315.175 C23H23O+ 1 315.1743 2.12
  317.1534 C22H21O2+ 1 317.1536 -0.62
  319.1326 C21H19O3+ 1 319.1329 -0.82
  321.1479 C21H21O3+ 1 321.1485 -2.09
  321.1648 C25H21+ 1 321.1638 3.15
  325.1594 C24H21O+ 1 325.1587 2.21
  327.1383 C23H19O2+ 1 327.138 0.93
  329.1538 C23H21O2+ 1 329.1536 0.62
  339.1737 C25H23O+ 1 339.1743 -1.95
  341.1547 C24H21O2+ 1 341.1536 3.24
  349.1267 C18H21O7+ 1 349.1282 -4.24
PK$NUM_PEAK: 346
PK$PEAK: m/z int. rel.int.
  128.0621 2179419.6 588
  129.0699 3697167.6 999
  130.0732 157068.1 42
  130.0778 335673 90
  131.0492 817618.7 220
  131.0856 2466303.6 666
  132.057 65952.8 17
  132.0889 85749.5 23
  133.0283 101218.1 27
  133.0648 1565694.4 423
  133.1012 921453.3 248
  134.068 30564.6 8
  134.0726 18582.5 5
  134.1045 29745.5 8
  135.0441 533411.9 144
  135.0805 536151.5 144
  135.1169 289708.1 78
  137.0598 591056 159
  137.0962 133038.6 35
  139.039 270296.2 73
  139.0754 184027.4 49
  141.0548 153297.3 41
  141.0699 1863938.9 503
  142.0733 71130.9 19
  142.0779 658921.6 178
  143.0493 118706.5 32
  143.0857 2110153.2 570
  144.0571 144640.4 39
  144.0889 53519.1 14
  144.0935 170004.6 45
  145.0649 1212457.8 327
  145.1013 1354507.2 365
  146.0679 40941.4 11
  146.0731 32098.1 8
  146.1044 35988.3 9
  146.1093 21815.6 5
  147.0442 741105.6 200
  147.0805 1291594.3 348
  147.117 219607.3 59
  148.0473 32395.9 8
  148.0837 74732.3 20
  149.0234 82985.9 22
  149.0598 622825 168
  149.0965 191310.6 51
  151.0391 741245.4 200
  151.0755 494242.8 133
  151.1117 74827.2 20
  152.0621 459545.7 124
  153.0548 121144.5 32
  153.07 1156452.4 312
  154.0779 696646.4 188
  155.0605 248199.5 67
  155.0856 2262043.8 611
  156.0571 21045.3 5
  156.0886 79203.1 21
  156.0941 222091.8 60
  157.0649 850209.9 229
  157.1013 1061255.9 286
  158.0725 90679.5 24
  158.1096 43054.3 11
  159.0442 232534.1 62
  159.0805 613613.7 165
  159.1169 514080.9 138
  161.0598 433282.8 117
  161.0962 299337.8 80
  161.1326 233960.9 63
  162.0628 24565.9 6
  163.0391 190141.7 51
  163.0753 380737.7 102
  163.1116 83725 22
  165.0549 299601.6 80
  165.0699 1390067.5 375
  165.0911 242458.3 65
  166.078 787606.6 212
  167.0705 289756.3 78
  167.0857 1690846.2 456
  168.0568 69586.2 18
  168.094 355446.9 96
  169.0649 363727.9 98
  169.1012 1361970.6 368
  170.0726 75049.4 20
  170.109 92107.2 24
  171.0442 65611.5 17
  171.0805 916930 247
  171.1169 559215.4 151
  173.0598 401758.5 108
  173.0962 537658.3 145
  173.1326 159587.5 43
  175.0391 274280.2 74
  175.0754 701665.8 189
  176.0614 23360.4 6
  176.0785 24986.7 6
  177.0547 198966.4 53
  177.0699 68611.1 18
  177.091 83926.4 22
  177.1274 16871.2 4
  178.0777 827358.5 223
  179.0701 116581.1 31
  179.0857 1491137.4 402
  180.0941 316921.6 85
  181.0649 430956.8 116
  181.1013 1464851.7 395
  182.0729 197419.5 53
  183.0807 574305.3 155
  183.117 726690.6 196
  184.0889 45972.4 12
  184.1244 77062.3 20
  185.0599 297149.6 80
  185.0962 361895.8 97
  185.1326 269910.1 72
  187.0756 274254.9 74
  187.1119 162629.6 43
  187.1483 26293.2 7
  189.055 128337.9 34
  189.0698 153981 41
  189.0912 400449.8 108
  190.0777 250287.9 67
  190.0945 20220.4 5
  191.0709 222974.5 60
  191.0857 679335.8 183
  191.1065 178659 48
  192.0938 436990.6 118
  193.1013 1027328.3 277
  194.073 129065 34
  194.0902 13604.9 3
  194.1098 185904.6 50
  195.0806 581380.2 157
  195.117 708178.9 191
  196.088 97899.7 26
  196.125 65329.5 17
  197.0597 184229.8 49
  197.0962 624396.3 168
  197.1325 381192.5 103
  199.0755 435967.6 117
  199.1117 149214.7 40
  199.1479 111145.2 30
  201.0547 138205.3 37
  201.0911 277401.6 74
  201.1273 20804.6 5
  202.0779 368845.4 99
  203.0711 134747.1 36
  203.0856 624847.4 168
  203.1064 38436.4 10
  204.0937 455438 123
  205.1015 944781.7 255
  206.0724 87274.7 23
  206.1097 266900 72
  207.0807 316732.8 85
  207.1014 99143.2 26
  207.117 653982.6 176
  208.0877 90495.3 24
  208.124 98640.2 26
  209.0594 86797.4 23
  209.0805 66226.1 17
  209.0963 444153.8 120
  209.1326 339655 91
  211.0754 217031.2 58
  211.0966 17109.5 4
  211.1118 256977.7 69
  211.1484 160946.9 43
  212.0827 14563.2 3
  213.0549 22089.3 5
  213.091 179927.3 48
  213.1274 41730.1 11
  213.164 16847.2 4
  215.0701 108795.9 29
  215.0856 377793.3 102
  215.1068 200202 54
  216.0937 289045.9 78
  217.0861 143889.8 38
  217.1014 690559.5 186
  218.0725 82408.7 22
  218.1095 186304 50
  219.0653 40871.7 11
  219.0807 222980.5 60
  219.1016 94423 25
  219.117 706409 190
  220.0877 119329.2 32
  220.1241 118582.6 32
  221.0963 464294.3 125
  221.1327 481898.3 130
  223.0757 205211.8 55
  223.1119 291714.3 78
  223.1484 248129.5 67
  224.1525 17866.9 4
  225.0911 308032.3 83
  225.1272 78384.6 21
  225.1635 72818.4 19
  226.0775 32138.1 8
  227.0702 41740.2 11
  227.0852 87691.1 23
  227.1065 116018.7 31
  228.0934 173270 46
  229.0859 69891.4 18
  229.101 424845.6 114
  230.1096 196364.1 53
  231.0807 138268.1 37
  231.1171 479532.2 129
  232.0882 74120.1 20
  232.1254 149630.7 40
  233.0962 260693.7 70
  233.1172 77841.9 21
  233.1323 398932.6 107
  234.0678 28129.7 7
  234.1034 74329 20
  235.0752 109811.6 29
  235.112 341563 92
  235.1484 183793.7 49
  236.1553 20084.7 5
  237.0912 210628.7 56
  237.1271 114912.4 31
  237.1635 42127.5 11
  238.096 17160.2 4
  239.07 19482.1 5
  239.0853 108975.7 29
  239.1069 184864 49
  239.1428 25275.4 6
  239.1789 24668.7 6
  240.0932 92635.9 25
  241.0857 113575.1 30
  241.1009 276628.9 74
  241.1219 40363.9 10
  242.1095 214162.6 57
  243.0806 38282.2 10
  243.1014 164049.7 44
  243.1168 388914.2 105
  244.088 67766.7 18
  244.1061 17710.8 4
  244.1239 121685.4 32
  245.0964 211950.8 57
  245.1199 15971.6 4
  245.1326 313020.8 84
  246.1039 99441.8 26
  246.1408 120152 32
  247.0757 78484 21
  247.1118 244438.2 66
  247.1482 198904.5 53
  248.1186 39076.6 10
  248.1564 24878.8 6
  249.0913 141737.1 38
  249.1276 196492.1 53
  249.1634 74072.5 20
  250.1342 23420.6 6
  251.1063 112360.4 30
  251.1423 69828.1 18
  251.1793 38720.6 10
  252.0931 84071.7 22
  253.101 125850.4 34
  253.122 90433.5 24
  254.1093 124417.7 33
  255.1027 49655.5 13
  255.1166 239183.3 64
  255.1374 18961.7 5
  256.1246 155018.9 41
  257.0958 99722.9 26
  257.1327 302483 81
  258.1033 28777.5 7
  258.1395 103830.9 28
  259.112 206572.9 55
  259.148 173689.2 46
  260.1189 40951 11
  260.1552 24369.2 6
  261.0913 50909.1 13
  261.1123 81200.8 21
  261.1273 167284.1 45
  261.1638 70694.6 19
  263.1064 105352.1 28
  263.1428 97459.5 26
  263.1797 32508.8 8
  264.1132 15661.1 4
  265.0865 21642.8 5
  265.1006 35666.2 9
  265.1222 81326 21
  266.1093 39379.4 10
  267.1014 71034.2 19
  267.1168 172033.5 46
  267.1387 18257.5 4
  268.1243 90542.4 24
  269.0953 39872.9 10
  269.1184 33305 8
  269.1325 173854.8 46
  270.1034 38204.5 10
  270.1406 74707.9 20
  271.0966 33396.9 9
  271.1114 113818.3 30
  271.1486 164454.9 44
  272.1191 42242.7 11
  273.0911 29312.2 7
  273.1272 157261.2 42
  273.1634 104285.7 28
  274.1352 32197.6 8
  275.1065 66392.7 17
  275.1427 35504.5 9
  275.1797 25817.4 6
  277.1223 113475.4 30
  278.1081 18892.9 5
  279.1021 28406 7
  279.1174 94103.1 25
  279.1376 42213.6 11
  280.1243 35247.9 9
  281.1183 31739.3 8
  281.1323 160220 43
  282.1399 38698.7 10
  283.1117 27339.7 7
  283.1483 133837.1 36
  284.1187 16514.1 4
  285.1273 85818.7 23
  285.1629 89004.6 24
  287.1066 34136.7 9
  287.1427 102113.4 27
  289.1222 69045.4 18
  289.1586 80967.1 21
  291.1375 39831.3 10
  293.1327 84190.2 22
  293.1526 17297.2 4
  294.1401 68140.2 18
  295.1118 34149.8 9
  295.1483 73982.1 19
  297.1634 20654.6 5
  298.1346 17859.3 4
  299.1426 70202.6 18
  299.1791 21531.1 5
  301.1225 39433.2 10
  301.1581 42944.9 11
  303.1374 39953.5 10
  305.1335 34402.1 9
  305.1524 22314.5 6
  307.1322 25296.7 6
  307.148 24556.2 6
  309.1268 23107.9 6
  309.1641 22562.3 6
  311.143 40955.7 11
  311.1784 32496.1 8
  313.1588 31875.1 8
  315.1385 21140.5 5
  315.175 24296.9 6
  317.1534 19768.9 5
  319.1326 22108.3 5
  321.1479 26298.6 7
  321.1648 23028.7 6
  325.1594 23228.9 6
  327.1383 30505 8
  329.1538 39976 10
  339.1737 16756.4 4
  341.1547 19037.1 5
  349.1267 23310.8 6
//
