ACCESSION: MSBNK-Eawag-EA293414
RECORD_TITLE: Difenoconazole; LC-ESI-ITFT; MS2; CE: 35%; R=30000; [M+H]+
DATE: 2014.01.14
AUTHORS: Stravs M, Schymanski E, Singer H, Department of Environmental Chemistry, Eawag
LICENSE: CC BY
COPYRIGHT: Copyright (C) 2012 Eawag, Duebendorf, Switzerland
COMMENT: CONFIDENCE standard compound
COMMENT: EAWAG_UCHEM_ID 2934
CH$NAME: Difenoconazole
CH$NAME: 1-[[2-[2-chloranyl-4-(4-chloranylphenoxy)phenyl]-4-methyl-1,3-dioxolan-2-yl]methyl]-1,2,4-triazole
CH$COMPOUND_CLASS: N/A; Environmental Standard
CH$FORMULA: C19H17Cl2N3O3
CH$EXACT_MASS: 405.0647
CH$SMILES: Clc4ccc(Oc1ccc(c(Cl)c1)C2(OCC(O2)C)Cn3ncnc3)cc4
CH$IUPAC: InChI=1S/C19H17Cl2N3O3/c1-13-9-25-19(27-13,10-24-12-22-11-23-24)17-7-6-16(8-18(17)21)26-15-4-2-14(20)3-5-15/h2-8,11-13H,9-10H2,1H3
CH$LINK: CAS 119446-68-3
CH$LINK: PUBCHEM CID:86173
CH$LINK: INCHIKEY BQYJATMQXGBDHF-UHFFFAOYSA-N
CH$LINK: CHEMSPIDER 77730
CH$LINK: COMPTOX DTXSID4032372
AC$INSTRUMENT: LTQ Orbitrap XL Thermo Scientific
AC$INSTRUMENT_TYPE: LC-ESI-ITFT
AC$MASS_SPECTROMETRY: MS_TYPE MS2
AC$MASS_SPECTROMETRY: ION_MODE POSITIVE
AC$MASS_SPECTROMETRY: IONIZATION ESI
AC$MASS_SPECTROMETRY: FRAGMENTATION_MODE CID
AC$MASS_SPECTROMETRY: COLLISION_ENERGY 35 % (nominal)
AC$MASS_SPECTROMETRY: RESOLUTION 30000
AC$CHROMATOGRAPHY: COLUMN_NAME XBridge C18 3.5um, 2.1x50mm, Waters
AC$CHROMATOGRAPHY: FLOW_GRADIENT 90/10 at 0 min, 50/50 at 4 min, 5/95 at 17 min, 5/95 at 25 min, 90/10 at 25.1 min, 90/10 at 30 min
AC$CHROMATOGRAPHY: FLOW_RATE 200 ul/min
AC$CHROMATOGRAPHY: RETENTION_TIME 14.1 min
AC$CHROMATOGRAPHY: SOLVENT A water with 0.1% formic acid
AC$CHROMATOGRAPHY: SOLVENT B methanol with 0.1% formic acid
MS$FOCUSED_ION: BASE_PEAK 406.0724
MS$FOCUSED_ION: PRECURSOR_M/Z 406.072
MS$FOCUSED_ION: PRECURSOR_TYPE [M+H]+
MS$DATA_PROCESSING: DEPROFILE Spline
MS$DATA_PROCESSING: RECALIBRATE loess on assigned fragments and MS1
MS$DATA_PROCESSING: REANALYZE Peaks with additional N2/O included
MS$DATA_PROCESSING: WHOLE RMassBank 1.3.1
PK$SPLASH: splash10-0f79-0079000000-6f9e27b225003e7829a3
PK$ANNOTATION: m/z tentative_formula formula_count mass error(ppm)
  139.0308 C8H8Cl+ 1 139.0309 -0.68
  164.0387 C10H9Cl+ 1 164.0387 0
  199.0156 C9H8ClO3+ 3 199.0156 -0.34
  251.0024 C13H9Cl2O+ 1 251.0025 -0.27
  256.0649 C16H13ClO+ 3 256.0649 -0.29
  263.0023 C14H9Cl2O+ 2 263.0025 -0.9
  273.0312 C15H10ClO3+ 4 273.0313 -0.47
  291.0337 C16H13Cl2O+ 2 291.0338 -0.4
  301.0626 C17H14ClO3+ 3 301.0626 -0.03
  309.0078 C15H11Cl2O3+ 3 309.008 -0.6
  309.0443 C16H15Cl2O2+ 2 309.0444 -0.23
  323.0233 C16H13Cl2O3+ 3 323.0236 -1.16
  337.039 C15H13Cl2N3O2+ 3 337.0379 3.05
  348.029 C19H9ClN2O3+ 2 348.0296 -1.79
PK$NUM_PEAK: 14
PK$PEAK: m/z int. rel.int.
  139.0308 26225 1
  164.0387 37431.7 1
  199.0156 40087.2 1
  251.0024 18915581.4 744
  256.0649 27012.2 1
  263.0023 40142.7 1
  273.0312 34761.4 1
  291.0337 1928053.7 75
  301.0626 43651.2 1
  309.0078 71496.6 2
  309.0443 92097.3 3
  323.0233 74918.9 2
  337.039 25379163.9 999
  348.029 47498.8 1
//
