ACCESSION: MSBNK-Eawag-EQ365901
RECORD_TITLE: Flubendazole; LC-ESI-QFT; MS2; CE: 15; R=35000; [M+H]+
DATE: 2015.08.25
AUTHORS: Stravs M, Schymanski E, Singer H, Department of Environmental Chemistry, Eawag and Thomaidis N, University of Athens
LICENSE: CC BY
COPYRIGHT: Copyright (C) 2015 Eawag, Duebendorf, Switzerland
COMMENT: CONFIDENCE standard compound
COMMENT: EAWAG_UCHEM_ID 3659
CH$NAME: Flubendazole
CH$NAME: Methyl N-[6-(4-fluorobenzoyl)-1H-benzimidazol-2-yl]carbamate
CH$COMPOUND_CLASS: N/A; Environmental Standard
CH$FORMULA: C16H12FN3O3
CH$EXACT_MASS: 313.08627
CH$SMILES: COC(=O)NC1=NC2=C(N1)C=C(C=C2)C(=O)C3=CC=C(C=C3)F
CH$IUPAC: InChI=1S/C16H12FN3O3/c1-23-16(22)20-15-18-12-7-4-10(8-13(12)19-15)14(21)9-2-5-11(17)6-3-9/h2-8H,1H3,(H2,18,19,20,22)
CH$LINK: CAS 31430-15-6
CH$LINK: CHEBI CHEBI:77095
CH$LINK: PUBCHEM CID:35802
CH$LINK: INCHIKEY CPEUVMUXAHMANV-UHFFFAOYSA-N
CH$LINK: CHEMSPIDER 32932
CH$LINK: COMPTOX DTXSID8023058
AC$INSTRUMENT: Q Exactive Plus Orbitrap Thermo Scientific
AC$INSTRUMENT_TYPE: LC-ESI-QFT
AC$MASS_SPECTROMETRY: MS_TYPE MS2
AC$MASS_SPECTROMETRY: ION_MODE POSITIVE
AC$MASS_SPECTROMETRY: IONIZATION ESI
AC$MASS_SPECTROMETRY: FRAGMENTATION_MODE HCD
AC$MASS_SPECTROMETRY: COLLISION_ENERGY 15 (nominal)
AC$MASS_SPECTROMETRY: RESOLUTION 35000
AC$CHROMATOGRAPHY: COLUMN_NAME XBridge C18 3.5um, 2.1x50mm, Waters
AC$CHROMATOGRAPHY: FLOW_GRADIENT 90/10 at 0 min, 50/50 at 4 min, 5/95 at 17 min, 5/95 at 25 min, 90/10 at 25.1 min, 90/10 at 30 min
AC$CHROMATOGRAPHY: FLOW_RATE 200 ul/min
AC$CHROMATOGRAPHY: RETENTION_TIME 8.1 min
AC$CHROMATOGRAPHY: SOLVENT A water with 0.1% formic acid
AC$CHROMATOGRAPHY: SOLVENT B methanol with 0.1% formic acid
MS$FOCUSED_ION: BASE_PEAK 314.093
MS$FOCUSED_ION: PRECURSOR_M/Z 314.0935
MS$FOCUSED_ION: PRECURSOR_TYPE [M+H]+
MS$DATA_PROCESSING: RECALIBRATE loess on assigned fragments and MS1
MS$DATA_PROCESSING: REANALYZE Peaks with additional N2/O included
MS$DATA_PROCESSING: WHOLE RMassBank 1.9.6
PK$SPLASH: splash10-03di-0009000000-ed0f29d23de7528633c3
PK$ANNOTATION: m/z tentative_formula formula_count mass error(ppm)
  282.0671 C15H9FN3O2+ 1 282.0673 -0.89
  314.0935 C16H13FN3O3+ 1 314.0935 -0.18
PK$NUM_PEAK: 2
PK$PEAK: m/z int. rel.int.
  282.0671 36095732 38
  314.0935 932636672 999
//
