ACCESSION: MSBNK-Eawag-EQ01139504
RECORD_TITLE: Pyrimidifen; LC-ESI-QFT; MS2; CE: 60%; R=17500; [M+H]+
DATE: 2023.04.27
AUTHORS: B. Beck [dtc,com], J. Hollender [dtc]
LICENSE: CC BY-SA
COPYRIGHT: Copyright (C) Eawag 2023
COMMENT: CONFIDENCE standard compound
COMMENT: UCHEM_ID 11395
CH$NAME: Pyrimidifen
CH$NAME: 5-chloro-N-[2-[4-(2-ethoxyethyl)-2,3-dimethylphenoxy]ethyl]-6-ethylpyrimidin-4-amine
CH$COMPOUND_CLASS: N/A; Environmental Standard
CH$FORMULA: C20H28ClN3O2
CH$EXACT_MASS: 377.1870
CH$SMILES: CCC1=C(C(=NC=N1)NCCOC2=C(C(=C(C=C2)CCOCC)C)C)Cl
CH$IUPAC: InChI=1S/C20H28ClN3O2/c1-5-17-19(21)20(24-13-23-17)22-10-12-26-18-8-7-16(9-11-25-6-2)14(3)15(18)4/h7-8,13H,5-6,9-12H2,1-4H3,(H,22,23,24)
CH$LINK: CAS 105779-78-0
CH$LINK: CHEBI CHEBI:38604
CH$LINK: KEGG C18603
CH$LINK: PUBCHEM CID:6451139
CH$LINK: INCHIKEY ITKAIUGKVKDENI-UHFFFAOYSA-N
CH$LINK: CHEMSPIDER 4953620
AC$INSTRUMENT: Exploris 240 Orbitrap Thermo Scientific
AC$INSTRUMENT_TYPE: LC-ESI-QFT
AC$MASS_SPECTROMETRY: MS_TYPE MS2
AC$MASS_SPECTROMETRY: ION_MODE POSITIVE
AC$MASS_SPECTROMETRY: IONIZATION ESI
AC$MASS_SPECTROMETRY: FRAGMENTATION_MODE HCD
AC$MASS_SPECTROMETRY: COLLISION_ENERGY 60 % (nominal)
AC$MASS_SPECTROMETRY: RESOLUTION 17500
AC$MASS_SPECTROMETRY: MASS_RANGE_M/Z 50-407
AC$CHROMATOGRAPHY: COLUMN_NAME XBridge C18 3.5um, 2.1x50mm, Waters
AC$CHROMATOGRAPHY: FLOW_GRADIENT 90/10 at 0 min, 50/50 at 4 min, 5/95 at 17 min, 5/95 at 25 min, 90/10 at 25.1 min, 90/10 at 30 min
AC$CHROMATOGRAPHY: FLOW_RATE 200 uL/min
AC$CHROMATOGRAPHY: RETENTION_TIME 11.376 min
MS$FOCUSED_ION: BASE_PEAK 378.1939
MS$FOCUSED_ION: PRECURSOR_M/Z 378.1943
MS$FOCUSED_ION: PRECURSOR_TYPE [M+H]+
MS$DATA_PROCESSING: RECALIBRATE loess on assigned fragments and MS1
MS$DATA_PROCESSING: REANALYZE Peaks with additional N2/O included
MS$DATA_PROCESSING: WHOLE RMassBank 3.11.0.1
PK$SPLASH: splash10-0f89-0900000000-c7ff25bf6cbd0a3b684a
PK$ANNOTATION: m/z tentative_formula formula_count mass error(ppm)
  130.0295 C5H7ClN2+ 1 130.0292 2.15
  148.0872 C8H10N3+ 1 148.0869 2.19
  149.096 C10H13O+ 2 149.0961 -0.58
  150.1026 C8H12N3+ 1 150.1026 0.24
  157.0398 C9H5N2O+ 2 157.0396 1.04
  157.0534 C7H10ClN2+ 1 157.0527 4.53
  169.0403 C7H8ClN3+ 2 169.0401 1.12
  175.1109 C12H15O+ 2 175.1117 -4.58
  184.0636 C8H11ClN3+ 2 184.0636 0.12
PK$NUM_PEAK: 9
PK$PEAK: m/z int. rel.int.
  130.0295 11328559 39
  148.0872 7287175.5 25
  149.096 7806287.5 27
  150.1026 158113984 552
  157.0398 114515008 399
  157.0534 13716039 47
  169.0403 10844382 37
  175.1109 2620123.2 9
  184.0636 286082528 999
//
