ACCESSION: MSBNK-Eawag-EQ01156155
RECORD_TITLE: Tapentadol O-sulfate; LC-ESI-QFT; MS2; CE: 75%; R=17500; [M-H]-
DATE: 2024.05.08
AUTHORS: C. Meyer [dtc], B. Beck [dtc,com], J. Hollender [dtc]
LICENSE: CC BY-SA
COPYRIGHT: Copyright (C) Eawag 2023
PUBLICATION: Meyer, C., Stravs, M., Hollender, J.. How Wastewater Reflects Human Metabolism - Suspect Screening of Pharmaceutical Metabolites in Wastewater Influent. doi:10.1021/acs.est.4c00968
COMMENT: CONFIDENCE standard compound
COMMENT: UCHEM_ID 11561
CH$NAME: Tapentadol O-sulfate
CH$NAME: [3-[1-(dimethylamino)-2-methylpentan-3-yl]phenyl] hydrogen sulfate
CH$COMPOUND_CLASS: N/A; Environmental Standard
CH$FORMULA: C14H23NO4S
CH$EXACT_MASS: 301.1347792
CH$SMILES: CCC(C1=CC(=CC=C1)OS(=O)(=O)O)C(C)CN(C)C
CH$IUPAC: InChI=1S/C14H23NO4S/c1-5-14(11(2)10-15(3)4)12-7-6-8-13(9-12)19-20(16,17)18/h6-9,11,14H,5,10H2,1-4H3,(H,16,17,18)
CH$LINK: PUBCHEM CID:78046278
CH$LINK: INCHIKEY HPEFZESOUVTBSA-UHFFFAOYSA-N
CH$LINK: CHEMSPIDER 35805304
AC$INSTRUMENT: Exploris 240 Orbitrap Thermo Scientific
AC$INSTRUMENT_TYPE: LC-ESI-QFT
AC$MASS_SPECTROMETRY: MS_TYPE MS2
AC$MASS_SPECTROMETRY: ION_MODE NEGATIVE
AC$MASS_SPECTROMETRY: IONIZATION ESI
AC$MASS_SPECTROMETRY: FRAGMENTATION_MODE HCD
AC$MASS_SPECTROMETRY: COLLISION_ENERGY 75 % (nominal)
AC$MASS_SPECTROMETRY: RESOLUTION 17500
AC$MASS_SPECTROMETRY: MASS_RANGE_M/Z 50-327
AC$CHROMATOGRAPHY: COLUMN_NAME XBridge C18 3.5um, 2.1x50mm, Waters
AC$CHROMATOGRAPHY: FLOW_GRADIENT 90/10 at 0 min, 50/50 at 4 min, 5/95 at 17 min, 5/95 at 25 min, 90/10 at 25.1 min, 90/10 at 30 min
AC$CHROMATOGRAPHY: FLOW_RATE 200 uL/min
AC$CHROMATOGRAPHY: RETENTION_TIME 4.230 min
MS$FOCUSED_ION: BASE_PEAK 300.1274
MS$FOCUSED_ION: PRECURSOR_M/Z 300.1275
MS$FOCUSED_ION: PRECURSOR_TYPE [M-H]-
MS$DATA_PROCESSING: RECALIBRATE loess on assigned fragments and MS1
MS$DATA_PROCESSING: REANALYZE Peaks with additional N2/O included
MS$DATA_PROCESSING: WHOLE RMassBank 3.15.1
PK$SPLASH: splash10-01c0-1930000000-3440a63206f2bd745265
PK$ANNOTATION: m/z tentative_formula formula_count mass error(ppm)
  79.9573 O3S- 1 79.9574 -0.39
  92.0269 C6H4O- 1 92.0268 1.05
  119.0502 C8H7O- 1 119.0502 -0.29
  133.0659 C9H9O- 1 133.0659 -0.21
  134.0737 C9H10O- 1 134.0737 -0.08
  135.0816 C9H11O- 1 135.0815 0.62
  137.0241 C7H5O3- 1 137.0244 -2.57
  147.0814 C10H11O- 1 147.0815 -0.78
  149.0608 C9H9O2- 1 149.0608 0.04
  163.113 C11H15O- 1 163.1128 1.07
  199.0073 C8H7O4S- 2 199.0071 1.14
  220.1706 C14H22NO- 1 220.1707 -0.19
PK$NUM_PEAK: 12
PK$PEAK: m/z int. rel.int.
  79.9573 5498921 276
  92.0269 153428.2 7
  119.0502 19847268 999
  133.0659 6854784.5 345
  134.0737 3484764.5 175
  135.0816 213985.2 10
  137.0241 373000.7 18
  147.0814 773298.2 38
  149.0608 112286.7 5
  163.113 80772 4
  199.0073 383235.2 19
  220.1706 11059308 556
//
