ACCESSION: MSBNK-Eawag-EQ317652
RECORD_TITLE: Prothioconazole-desethio; LC-ESI-QFT; MS2; CE: 30; R=35000; [M-H]-
DATE: 2015.08.25
AUTHORS: Huntscha S, Stravs M, Schymanski E, Singer H, Department of Environmental Chemistry, Eawag
LICENSE: CC BY
COPYRIGHT: Copyright (C) 2015 Eawag, Duebendorf, Switzerland
COMMENT: CONFIDENCE standard compound
COMMENT: EAWAG_UCHEM_ID 3176
CH$NAME: Prothioconazole-desethio
CH$NAME: 1H-1,2,4-Triazole-1-ethanol, alpha-(1-chlorocyclopropyl)-alpha-((2-chlorophenyl)methyl)-
CH$NAME: 2-(1-chloranylcyclopropyl)-1-(2-chlorophenyl)-3-(1,2,4-triazol-1-yl)propan-2-ol
CH$COMPOUND_CLASS: N/A; Environmental Standard
CH$FORMULA: C14H15Cl2N3O
CH$EXACT_MASS: 311.05922
CH$SMILES: Clc1ccccc1CC(O)(C2(Cl)CC2)Cn3ncnc3
CH$IUPAC: InChI=1S/C14H15Cl2N3O/c15-12-4-2-1-3-11(12)7-14(20,13(16)5-6-13)8-19-10-17-9-18-19/h1-4,9-10,20H,5-8H2
CH$LINK: CAS 120983-64-4
CH$LINK: PUBCHEM CID:119361
CH$LINK: INCHIKEY HHUQPWODPBDTLI-UHFFFAOYSA-N
CH$LINK: CHEMSPIDER 106612
CH$LINK: COMPTOX DTXSID3044338
AC$INSTRUMENT: Q Exactive Orbitrap Thermo Scientific
AC$INSTRUMENT_TYPE: LC-ESI-QFT
AC$MASS_SPECTROMETRY: MS_TYPE MS2
AC$MASS_SPECTROMETRY: ION_MODE NEGATIVE
AC$MASS_SPECTROMETRY: IONIZATION ESI
AC$MASS_SPECTROMETRY: FRAGMENTATION_MODE HCD
AC$MASS_SPECTROMETRY: COLLISION_ENERGY 30 (nominal)
AC$MASS_SPECTROMETRY: RESOLUTION 35000
AC$CHROMATOGRAPHY: COLUMN_NAME XBridge C18 3.5um, 2.1x50mm, Waters
AC$CHROMATOGRAPHY: FLOW_GRADIENT 90/10 at 0 min, 50/50 at 4 min, 5/95 at 17 min, 5/95 at 25 min, 90/10 at 25.1 min, 90/10 at 30 min
AC$CHROMATOGRAPHY: FLOW_RATE 200 ul/min
AC$CHROMATOGRAPHY: RETENTION_TIME 12.2 min
AC$CHROMATOGRAPHY: SOLVENT A water with 0.1% formic acid
AC$CHROMATOGRAPHY: SOLVENT B methanol with 0.1% formic acid
MS$FOCUSED_ION: BASE_PEAK 356.0576
MS$FOCUSED_ION: PRECURSOR_M/Z 310.0519
MS$FOCUSED_ION: PRECURSOR_TYPE [M-H]-
MS$DATA_PROCESSING: DEPROFILE Spline
MS$DATA_PROCESSING: RECALIBRATE loess on assigned fragments and MS1
MS$DATA_PROCESSING: REANALYZE Peaks with additional N2/O included
MS$DATA_PROCESSING: WHOLE RMassBank 1.9.6
PK$SPLASH: splash10-0fc0-0900000000-d1f603a90e54469db3d7
PK$ANNOTATION: m/z tentative_formula formula_count mass error(ppm)
  68.0254 C2H2N3- 1 68.0254 -0.6
  125.0163 C7H6Cl- 1 125.0164 -0.25
  130.0171 C7H2N2O- 2 130.0173 -1.09
  148.0515 C7H6N3O- 1 148.0516 -1.12
  151.04 Cl2H11N5- 2 151.0397 1.92
  151.0762 C6H14ClNO- 1 151.0769 -4.64
  152.0842 C9H12O2- 1 152.0843 -0.51
  163.9874 Cl2H6N4O2- 1 163.9873 0.74
  184.0282 C7H7ClN3O- 1 184.0283 -0.89
PK$NUM_PEAK: 9
PK$PEAK: m/z int. rel.int.
  68.0254 1975.7 222
  125.0163 8862.7 999
  130.0171 2584.8 291
  148.0515 2855.7 321
  151.04 664.9 74
  151.0762 2868.6 323
  152.0842 3273.6 369
  163.9874 1911.2 215
  184.0282 4414.9 497
//
