ACCESSION: MSBNK-Eawag-EQ01122902
RECORD_TITLE: Diclobutrazol; LC-ESI-QFT; MS2; CE: 30%; R=17500; [M+H]+
DATE: 2023.04.27
AUTHORS: B. Beck [dtc,com], J. Hollender [dtc]
LICENSE: CC BY-SA
COPYRIGHT: Copyright (C) Eawag 2023
COMMENT: CONFIDENCE standard compound
COMMENT: UCHEM_ID 11229
CH$NAME: Diclobutrazol
CH$NAME: 1-(2,4-dichlorophenyl)-4,4-dimethyl-2-(1,2,4-triazol-1-yl)pentan-3-ol
CH$COMPOUND_CLASS: N/A; Environmental Standard
CH$FORMULA: C15H19Cl2N3O
CH$EXACT_MASS: 327.0905
CH$SMILES: CC(C)(C)C(C(CC1=C(C=C(C=C1)Cl)Cl)N2C=NC=N2)O
CH$IUPAC: InChI=1S/C15H19Cl2N3O/c1-15(2,3)14(21)13(20-9-18-8-19-20)6-10-4-5-11(16)7-12(10)17/h4-5,7-9,13-14,21H,6H2,1-3H3
CH$LINK: CAS 84709-81-9
CH$LINK: CHEBI CHEBI:4506
CH$LINK: KEGG C11235
CH$LINK: PUBCHEM CID:53309
CH$LINK: INCHIKEY URDNHJIVMYZFRT-UHFFFAOYSA-N
CH$LINK: CHEMSPIDER 48148
AC$INSTRUMENT: Exploris 240 Orbitrap Thermo Scientific
AC$INSTRUMENT_TYPE: LC-ESI-QFT
AC$MASS_SPECTROMETRY: MS_TYPE MS2
AC$MASS_SPECTROMETRY: ION_MODE POSITIVE
AC$MASS_SPECTROMETRY: IONIZATION ESI
AC$MASS_SPECTROMETRY: FRAGMENTATION_MODE HCD
AC$MASS_SPECTROMETRY: COLLISION_ENERGY 30 % (nominal)
AC$MASS_SPECTROMETRY: RESOLUTION 17500
AC$MASS_SPECTROMETRY: MASS_RANGE_M/Z 50-356
AC$CHROMATOGRAPHY: COLUMN_NAME XBridge C18 3.5um, 2.1x50mm, Waters
AC$CHROMATOGRAPHY: FLOW_GRADIENT 90/10 at 0 min, 50/50 at 4 min, 5/95 at 17 min, 5/95 at 25 min, 90/10 at 25.1 min, 90/10 at 30 min
AC$CHROMATOGRAPHY: FLOW_RATE 200 uL/min
AC$CHROMATOGRAPHY: RETENTION_TIME 10.847 min
MS$FOCUSED_ION: BASE_PEAK 328.0979
MS$FOCUSED_ION: PRECURSOR_M/Z 328.0978
MS$FOCUSED_ION: PRECURSOR_TYPE [M+H]+
MS$DATA_PROCESSING: RECALIBRATE loess on assigned fragments and MS1
MS$DATA_PROCESSING: REANALYZE Peaks with additional N2/O included
MS$DATA_PROCESSING: WHOLE RMassBank 3.11.0.1
PK$SPLASH: splash10-00di-9003000000-e26bc7b5d65f85429bd4
PK$ANNOTATION: m/z tentative_formula formula_count mass error(ppm)
  57.07 C4H9+ 1 57.0699 2.05
  59.0492 C3H7O+ 1 59.0491 1.74
  70.04 C2H4N3+ 1 70.04 0.08
  87.0805 C5H11O+ 1 87.0804 0.21
  113.0958 C7H13O+ 1 113.0961 -2.23
  172.9923 C8H7Cl2+ 1 172.9919 1.98
  199.0084 C10H9Cl2+ 1 199.0076 3.91
  328.0981 C15H20Cl2N3O+ 1 328.0978 0.94
PK$NUM_PEAK: 8
PK$PEAK: m/z int. rel.int.
  57.07 3522550 10
  59.0492 2456177.5 7
  70.04 341970976 999
  87.0805 3488984 10
  113.0958 2189448.8 6
  172.9923 2404683 7
  199.0084 3011592.2 8
  328.0981 144082592 420
//
