ACCESSION: MSBNK-Eawag-EA020808
RECORD_TITLE: Mefenamic acid; LC-ESI-ITFT; MS2; CE: 15%; R=15000; [M+H]+
DATE: 2014.01.14
AUTHORS: Stravs M, Schymanski E, Singer H, Department of Environmental Chemistry, Eawag
LICENSE: CC BY
COPYRIGHT: Copyright (C) 2012 Eawag, Duebendorf, Switzerland
COMMENT: CONFIDENCE standard compound
COMMENT: EAWAG_UCHEM_ID 208
CH$NAME: Mefenamic acid
CH$NAME: 2-(2,3-dimethylanilino)benzoic acid
CH$COMPOUND_CLASS: N/A; Environmental Standard
CH$FORMULA: C15H15NO2
CH$EXACT_MASS: 241.1103
CH$SMILES: c1(c(cccc1)C(O)=O)Nc1c(c(ccc1)C)C
CH$IUPAC: InChI=1S/C15H15NO2/c1-10-6-5-9-13(11(10)2)16-14-8-4-3-7-12(14)15(17)18/h3-9,16H,1-2H3,(H,17,18)
CH$LINK: CAS 61-68-7
CH$LINK: KEGG C02168
CH$LINK: PUBCHEM CID:4044
CH$LINK: INCHIKEY HYYBABOKPJLUIN-UHFFFAOYSA-N
CH$LINK: CHEMSPIDER 3904
CH$LINK: COMPTOX DTXSID5023243
AC$INSTRUMENT: LTQ Orbitrap XL Thermo Scientific
AC$INSTRUMENT_TYPE: LC-ESI-ITFT
AC$MASS_SPECTROMETRY: MS_TYPE MS2
AC$MASS_SPECTROMETRY: ION_MODE POSITIVE
AC$MASS_SPECTROMETRY: IONIZATION ESI
AC$MASS_SPECTROMETRY: FRAGMENTATION_MODE HCD
AC$MASS_SPECTROMETRY: COLLISION_ENERGY 15 % (nominal)
AC$MASS_SPECTROMETRY: RESOLUTION 15000
AC$CHROMATOGRAPHY: COLUMN_NAME XBridge C18 3.5um, 2.1x50mm, Waters
AC$CHROMATOGRAPHY: FLOW_GRADIENT 90/10 at 0 min, 50/50 at 4 min, 5/95 at 17 min, 5/95 at 25 min, 90/10 at 25.1 min, 90/10 at 30 min
AC$CHROMATOGRAPHY: FLOW_RATE 200 ul/min
AC$CHROMATOGRAPHY: RETENTION_TIME 14.5 min
AC$CHROMATOGRAPHY: SOLVENT A water with 0.1% formic acid
AC$CHROMATOGRAPHY: SOLVENT B methanol with 0.1% formic acid
MS$FOCUSED_ION: BASE_PEAK 242.1182
MS$FOCUSED_ION: PRECURSOR_M/Z 242.1176
MS$FOCUSED_ION: PRECURSOR_TYPE [M+H]+
MS$DATA_PROCESSING: DEPROFILE Spline
MS$DATA_PROCESSING: RECALIBRATE loess on assigned fragments and MS1
MS$DATA_PROCESSING: REANALYZE Peaks with additional N2/O included
MS$DATA_PROCESSING: WHOLE RMassBank 1.3.1
PK$SPLASH: splash10-006x-0090000000-5a1c44509aa114a5d978
PK$ANNOTATION: m/z tentative_formula formula_count mass error(ppm)
  179.0726 C13H9N+ 1 179.073 -1.9
  191.0722 C14H9N+ 1 191.073 -3.77
  208.0766 C14H10NO+ 1 208.0757 4.42
  222.0919 C15H12NO+ 1 222.0913 2.47
  223.1 C15H13NO+ 1 223.0992 3.83
  224.107 C15H14NO+ 1 224.107 0.13
  241.1097 C15H15NO2+ 1 241.1097 0.08
  242.1176 C15H16NO2+ 1 242.1176 0.19
PK$NUM_PEAK: 8
PK$PEAK: m/z int. rel.int.
  179.0726 2834.7 1
  191.0722 2929 1
  208.0766 5217.6 2
  222.0919 2576.9 1
  223.1 7774.5 3
  224.107 1600010.4 656
  241.1097 38768.8 15
  242.1176 2433613.9 999
//
