ACCESSION: MSBNK-Eawag-EQ417701
RECORD_TITLE: Terbuthylazine-TP CSCD692760 (LM3); LC-ESI-QFT; MS2; CE: 15%; R=17500; [M+H]+
DATE: 2019.12.03
AUTHORS: K. Kiefer [dtc], J. Hollender [dtc], H. Singer [dtc], M. Stravs [com]
LICENSE: CC BY-SA
COPYRIGHT: Copyright (C) Eawag 2019
PUBLICATION: Kiefer, K.; Mueller, A.; Singer, H.; Hollender, J. New relevant pesticide transformation products in groundwater detected using target and suspect screening for agricultural and urban micropollutants with LC-HRMS. Water Research 2019, 165. DOI: https://doi.org/10.1016/j.watres.2019.114972
COMMENT: CONFIDENCE standard compound
COMMENT: UCHEM_ID 4177
CH$NAME: Terbuthylazine-TP CSCD692760 (LM3)
CH$NAME: 6-Hydroxy-7,7-dimethyl-7,8-dihydroimidazo[1,2-a][1,3,5]triazine-2,4(3H,6H)-dione
CH$COMPOUND_CLASS: N/A; Environmental Standard
CH$FORMULA: C7H10N4O3
CH$EXACT_MASS: 198.0753
CH$SMILES: CC1(C)NC2=NC(O)=NC(=O)N2C1O
CH$IUPAC: InChI=1S/C7H10N4O3/c1-7(2)3(12)11-4(10-7)8-5(13)9-6(11)14/h3,12H,1-2H3,(H2,8,9,10,13,14)
CH$LINK: INCHIKEY SDFNUIRNRULFGI-UHFFFAOYSA-N
CH$LINK: CHEMSPIDER 71047231
AC$INSTRUMENT: Q Exactive Plus Orbitrap Thermo Scientific
AC$INSTRUMENT_TYPE: LC-ESI-QFT
AC$MASS_SPECTROMETRY: MS_TYPE MS2
AC$MASS_SPECTROMETRY: ION_MODE POSITIVE
AC$MASS_SPECTROMETRY: IONIZATION ESI
AC$MASS_SPECTROMETRY: FRAGMENTATION_MODE HCD
AC$MASS_SPECTROMETRY: COLLISION_ENERGY 15 % (nominal)
AC$MASS_SPECTROMETRY: RESOLUTION 17500
AC$CHROMATOGRAPHY: COLUMN_NAME XBridge C18 3.5um, 2.1x50mm, Waters
AC$CHROMATOGRAPHY: FLOW_GRADIENT 90/10 at 0 min, 50/50 at 4 min, 5/95 at 17 min, 5/95 at 25 min, 90/10 at 25.1 min, 90/10 at 30 min
AC$CHROMATOGRAPHY: FLOW_RATE 200 uL/min
AC$CHROMATOGRAPHY: RETENTION_TIME 1.307 min
AC$CHROMATOGRAPHY: SOLVENT A water with 0.1% formic acid
AC$CHROMATOGRAPHY: SOLVENT B MeOH with 0.1% formic acid
MS$FOCUSED_ION: BASE_PEAK 199.0826
MS$FOCUSED_ION: PRECURSOR_M/Z 199.0826
MS$FOCUSED_ION: PRECURSOR_TYPE [M+H]+
MS$DATA_PROCESSING: RECALIBRATE loess on assigned fragments and MS1
MS$DATA_PROCESSING: REANALYZE Peaks with additional N2/O included
MS$DATA_PROCESSING: WHOLE RMassBank 2.99.1
PK$SPLASH: splash10-0002-0900000000-c97e3b2314e9b7387e56
PK$ANNOTATION: m/z tentative_formula formula_count mass error(ppm)
  71.049 C4H7O+ 1 71.0491 -1.59
  110.0716 C5H8N3+ 1 110.0713 3.01
  113.0709 C5H9N2O+ 1 113.0709 -0.34
  114.0661 C4H8N3O+ 1 114.0662 -0.6
  129.0406 C3H5N4O2+ 1 129.0407 -0.77
  138.0662 C6H8N3O+ 1 138.0662 0
  139.05 C6H7N2O2+ 1 139.0502 -1.13
  156.0767 C6H10N3O2+ 1 156.0768 -0.14
  157.0607 C6H9N2O3+ 1 157.0608 -0.17
  181.0719 C7H9N4O2+ 1 181.072 -0.42
  199.0825 C7H11N4O3+ 1 199.0826 -0.38
PK$NUM_PEAK: 13
PK$PEAK: m/z int. rel.int.
  68.524 334971.5 3
  71.049 261131.9 2
  110.0716 107158.6 1
  113.0709 230296 2
  114.0661 328056.8 3
  129.0406 2151383.5 20
  129.05 160044.6 1
  138.0662 2227668.8 21
  139.05 271726.7 2
  156.0767 1821557.5 17
  157.0607 162559 1
  181.0719 6662806 64
  199.0825 103653664 999
//
