ACCESSION: MSBNK-Eawag-EQ319052
RECORD_TITLE: 2-Mercaptobenzothiazole; LC-ESI-QFT; MS2; CE: 30; R=35000; [M-H]-
DATE: 2015.08.26
AUTHORS: Beck B, Stravs M, Schymanski E, Singer H, Department of Environmental Chemistry, Eawag
LICENSE: CC BY
COPYRIGHT: Copyright (C) 2015 Eawag, Duebendorf, Switzerland
COMMENT: CONFIDENCE standard compound
COMMENT: EAWAG_UCHEM_ID 3190
CH$NAME: 2-Mercaptobenzothiazole
CH$NAME: 1,3-Benzothiazole-2(3H)-thione
CH$NAME: 3H-1,3-benzothiazole-2-thione
CH$COMPOUND_CLASS: N/A; Environmental Standard
CH$FORMULA: C7H5NS2
CH$EXACT_MASS: 166.98634
CH$SMILES: S=C2Sc1ccccc1N2
CH$IUPAC: InChI=1S/C7H5NS2/c9-7-8-5-3-1-2-4-6(5)10-7/h1-4H,(H,8,9)
CH$LINK: CAS 149-30-4
CH$LINK: CHEBI CHEBI:34292
CH$LINK: KEGG C14437
CH$LINK: PUBCHEM CID:697993
CH$LINK: INCHIKEY YXIWHUQXZSMYRE-UHFFFAOYSA-N
CH$LINK: CHEMSPIDER 608157
CH$LINK: COMPTOX DTXSID1020807
AC$INSTRUMENT: Q Exactive Plus Orbitrap Thermo Scientific
AC$INSTRUMENT_TYPE: LC-ESI-QFT
AC$MASS_SPECTROMETRY: MS_TYPE MS2
AC$MASS_SPECTROMETRY: ION_MODE NEGATIVE
AC$MASS_SPECTROMETRY: IONIZATION ESI
AC$MASS_SPECTROMETRY: FRAGMENTATION_MODE HCD
AC$MASS_SPECTROMETRY: COLLISION_ENERGY 30 (nominal)
AC$MASS_SPECTROMETRY: RESOLUTION 35000
AC$CHROMATOGRAPHY: COLUMN_NAME XBridge C18 3.5um, 2.1x50mm, Waters
AC$CHROMATOGRAPHY: FLOW_GRADIENT 90/10 at 0 min, 50/50 at 4 min, 5/95 at 17 min, 5/95 at 25 min, 90/10 at 25.1 min, 90/10 at 30 min
AC$CHROMATOGRAPHY: FLOW_RATE 200 ul/min
AC$CHROMATOGRAPHY: RETENTION_TIME 6.7 min
AC$CHROMATOGRAPHY: SOLVENT A water with 0.1% formic acid
AC$CHROMATOGRAPHY: SOLVENT B methanol with 0.1% formic acid
MS$FOCUSED_ION: BASE_PEAK 165.9789
MS$FOCUSED_ION: PRECURSOR_M/Z 165.9791
MS$FOCUSED_ION: PRECURSOR_TYPE [M-H]-
MS$DATA_PROCESSING: RECALIBRATE loess on assigned fragments and MS1
MS$DATA_PROCESSING: REANALYZE Peaks with additional N2/O included
MS$DATA_PROCESSING: WHOLE RMassBank 1.9.6
PK$SPLASH: splash10-014i-0900000000-5ee2ab0aad359223be6b
PK$ANNOTATION: m/z tentative_formula formula_count mass error(ppm)
  57.9755 CNS- 1 57.9757 -4.2
  102.0349 C7H4N- 1 102.0349 -0.71
  134.007 C7H4NS- 1 134.007 0.05
  165.979 C7H4NS2- 1 165.9791 -0.15
PK$NUM_PEAK: 4
PK$PEAK: m/z int. rel.int.
  57.9755 1985183 4
  102.0349 470637.6 1
  134.007 6613711.5 16
  165.979 407789536 999
//
