ACCESSION: MSBNK-Eawag-EA066453
RECORD_TITLE: Flufenacet OXA; LC-ESI-ITFT; MS2; CE: 30%; R=7500; [M-H]-
DATE: 2014.01.14
AUTHORS: Stravs M, Schymanski E, Singer H, Department of Environmental Chemistry, Eawag
LICENSE: CC BY
COPYRIGHT: Copyright (C) 2012 Eawag, Duebendorf, Switzerland
COMMENT: CONFIDENCE standard compound
COMMENT: EAWAG_UCHEM_ID 664
CH$NAME: Flufenacet OXA
CH$NAME: [(4-Fluorophenyl)(isopropyl)amino](oxo)acetic acid
CH$COMPOUND_CLASS: N/A; Environmental Standard
CH$FORMULA: C11H12FNO3
CH$EXACT_MASS: 225.0801
CH$SMILES: Fc1ccc(cc1)N(C(C)C)C(=O)C(O)=O
CH$IUPAC: InChI=1S/C11H12FNO3/c1-7(2)13(10(14)11(15)16)9-5-3-8(12)4-6-9/h3-7H,1-2H3,(H,15,16)
CH$LINK: CAS 201668-31-7
CH$LINK: PUBCHEM CID:16212222
CH$LINK: INCHIKEY FFKNXXCOXIZLJD-UHFFFAOYSA-N
CH$LINK: CHEMSPIDER 17340100
CH$LINK: COMPTOX DTXSID2037552
AC$INSTRUMENT: LTQ Orbitrap XL Thermo Scientific
AC$INSTRUMENT_TYPE: LC-ESI-ITFT
AC$MASS_SPECTROMETRY: MS_TYPE MS2
AC$MASS_SPECTROMETRY: ION_MODE NEGATIVE
AC$MASS_SPECTROMETRY: IONIZATION ESI
AC$MASS_SPECTROMETRY: FRAGMENTATION_MODE HCD
AC$MASS_SPECTROMETRY: COLLISION_ENERGY 30 % (nominal)
AC$MASS_SPECTROMETRY: RESOLUTION 7500
AC$CHROMATOGRAPHY: COLUMN_NAME XBridge C18 3.5um, 2.1x50mm, Waters
AC$CHROMATOGRAPHY: FLOW_GRADIENT 90/10 at 0 min, 50/50 at 4 min, 5/95 at 17 min, 5/95 at 25 min, 90/10 at 25.1 min, 90/10 at 30 min
AC$CHROMATOGRAPHY: FLOW_RATE 200 ul/min
AC$CHROMATOGRAPHY: RETENTION_TIME 5.9 min
AC$CHROMATOGRAPHY: SOLVENT A water with 0.1% formic acid
AC$CHROMATOGRAPHY: SOLVENT B methanol with 0.1% formic acid
MS$FOCUSED_ION: BASE_PEAK 152.0886
MS$FOCUSED_ION: PRECURSOR_M/Z 224.0728
MS$FOCUSED_ION: PRECURSOR_TYPE [M-H]-
MS$DATA_PROCESSING: DEPROFILE Spline
MS$DATA_PROCESSING: RECALIBRATE loess on assigned fragments and MS1
MS$DATA_PROCESSING: REANALYZE Peaks with additional N2/O included
MS$DATA_PROCESSING: WHOLE RMassBank 1.3.1
PK$SPLASH: splash10-0udi-0900000000-9042779a572cfbcc2305
PK$ANNOTATION: m/z tentative_formula formula_count mass error(ppm)
  95.0301 C6H4F- 1 95.0303 -1.18
  110.0414 C6H5FN- 1 110.0412 1.9
  136.0571 C8H7FN- 1 136.0568 2.34
  150.073 C9H9FN- 1 150.0725 3.66
  152.0886 C9H11FN- 1 152.0881 3.15
PK$NUM_PEAK: 5
PK$PEAK: m/z int. rel.int.
  95.0301 19053.8 5
  110.0414 50003.8 14
  136.0571 263699.1 74
  150.073 46771.2 13
  152.0886 3542042.4 999
//
