ACCESSION: MSBNK-Eawag-EQ01163303
RECORD_TITLE: Alverine; LC-ESI-QFT; MS2; CE: 45%; R=17500; [M+H]+
DATE: 2024.01.16
AUTHORS: B. Beck [dtc,com], J. Hollender [dtc]
LICENSE: CC BY-SA
COPYRIGHT: Copyright (C) Eawag 2023
COMMENT: CONFIDENCE standard compound
COMMENT: UCHEM_ID 11633
CH$NAME: Alverine
CH$NAME: N-ethyl-3-phenyl-N-(3-phenylpropyl)propan-1-amine
CH$COMPOUND_CLASS: N/A; Environmental Standard
CH$FORMULA: C20H27N
CH$EXACT_MASS: 281.214349864
CH$SMILES: CCN(CCCC1=CC=CC=C1)CCCC2=CC=CC=C2
CH$IUPAC: InChI=1S/C20H27N/c1-2-21(17-9-15-19-11-5-3-6-12-19)18-10-16-20-13-7-4-8-14-20/h3-8,11-14H,2,9-10,15-18H2,1H3
CH$LINK: CHEBI CHEBI:518413
CH$LINK: PUBCHEM CID:3678
CH$LINK: INCHIKEY ZPFXAOWNKLFJDN-UHFFFAOYSA-N
CH$LINK: CHEMSPIDER 3550
AC$INSTRUMENT: Exploris 240 Orbitrap Thermo Scientific
AC$INSTRUMENT_TYPE: LC-ESI-QFT
AC$MASS_SPECTROMETRY: MS_TYPE MS2
AC$MASS_SPECTROMETRY: ION_MODE POSITIVE
AC$MASS_SPECTROMETRY: IONIZATION ESI
AC$MASS_SPECTROMETRY: FRAGMENTATION_MODE HCD
AC$MASS_SPECTROMETRY: COLLISION_ENERGY 45 % (nominal)
AC$MASS_SPECTROMETRY: RESOLUTION 17500
AC$MASS_SPECTROMETRY: MASS_RANGE_M/Z 50-309
AC$CHROMATOGRAPHY: COLUMN_NAME XBridge C18 3.5um, 2.1x50mm, Waters
AC$CHROMATOGRAPHY: FLOW_GRADIENT 90/10 at 0 min, 50/50 at 4 min, 5/95 at 17 min, 5/95 at 25 min, 90/10 at 25.1 min, 90/10 at 30 min
AC$CHROMATOGRAPHY: FLOW_RATE 200 uL/min
AC$CHROMATOGRAPHY: RETENTION_TIME 7.913 min
MS$FOCUSED_ION: BASE_PEAK 282.2213
MS$FOCUSED_ION: PRECURSOR_M/Z 282.2216
MS$FOCUSED_ION: PRECURSOR_TYPE [M+H]+
MS$DATA_PROCESSING: RECALIBRATE loess on assigned fragments and MS1
MS$DATA_PROCESSING: REANALYZE Peaks with additional N2/O included
MS$DATA_PROCESSING: WHOLE RMassBank 3.11.2
PK$SPLASH: splash10-001i-3190000000-8a9bf887e648a98fc32f
PK$ANNOTATION: m/z tentative_formula formula_count mass error(ppm)
  58.0651 C3H8N+ 1 58.0651 -1.16
  91.0542 C7H7+ 1 91.0542 -0.18
  119.0854 C9H11+ 1 119.0855 -1.3
  162.1283 C11H16N+ 1 162.1277 3.27
  164.1433 C11H18N+ 1 164.1434 -0.4
  282.2216 C20H28N+ 1 282.2216 -0.01
PK$NUM_PEAK: 6
PK$PEAK: m/z int. rel.int.
  58.0651 3809149.5 7
  91.0542 183232784 365
  119.0854 18252942 36
  162.1283 3929976.2 7
  164.1433 53741480 107
  282.2216 501043360 999
//
