ACCESSION: MSBNK-Eawag-EQ01122907
RECORD_TITLE: Diclobutrazol; LC-ESI-QFT; MS2; CE: 120%; R=17500; [M+H]+
DATE: 2023.04.27
AUTHORS: B. Beck [dtc,com], J. Hollender [dtc]
LICENSE: CC BY-SA
COPYRIGHT: Copyright (C) Eawag 2023
COMMENT: CONFIDENCE standard compound
COMMENT: UCHEM_ID 11229
CH$NAME: Diclobutrazol
CH$NAME: 1-(2,4-dichlorophenyl)-4,4-dimethyl-2-(1,2,4-triazol-1-yl)pentan-3-ol
CH$COMPOUND_CLASS: N/A; Environmental Standard
CH$FORMULA: C15H19Cl2N3O
CH$EXACT_MASS: 327.0905
CH$SMILES: CC(C)(C)C(C(CC1=C(C=C(C=C1)Cl)Cl)N2C=NC=N2)O
CH$IUPAC: InChI=1S/C15H19Cl2N3O/c1-15(2,3)14(21)13(20-9-18-8-19-20)6-10-4-5-11(16)7-12(10)17/h4-5,7-9,13-14,21H,6H2,1-3H3
CH$LINK: CAS 84709-81-9
CH$LINK: CHEBI CHEBI:4506
CH$LINK: KEGG C11235
CH$LINK: PUBCHEM CID:53309
CH$LINK: INCHIKEY URDNHJIVMYZFRT-UHFFFAOYSA-N
CH$LINK: CHEMSPIDER 48148
AC$INSTRUMENT: Exploris 240 Orbitrap Thermo Scientific
AC$INSTRUMENT_TYPE: LC-ESI-QFT
AC$MASS_SPECTROMETRY: MS_TYPE MS2
AC$MASS_SPECTROMETRY: ION_MODE POSITIVE
AC$MASS_SPECTROMETRY: IONIZATION ESI
AC$MASS_SPECTROMETRY: FRAGMENTATION_MODE HCD
AC$MASS_SPECTROMETRY: COLLISION_ENERGY 120 % (nominal)
AC$MASS_SPECTROMETRY: RESOLUTION 17500
AC$MASS_SPECTROMETRY: MASS_RANGE_M/Z 50-356
AC$CHROMATOGRAPHY: COLUMN_NAME XBridge C18 3.5um, 2.1x50mm, Waters
AC$CHROMATOGRAPHY: FLOW_GRADIENT 90/10 at 0 min, 50/50 at 4 min, 5/95 at 17 min, 5/95 at 25 min, 90/10 at 25.1 min, 90/10 at 30 min
AC$CHROMATOGRAPHY: FLOW_RATE 200 uL/min
AC$CHROMATOGRAPHY: RETENTION_TIME 10.847 min
MS$FOCUSED_ION: BASE_PEAK 328.0979
MS$FOCUSED_ION: PRECURSOR_M/Z 328.0978
MS$FOCUSED_ION: PRECURSOR_TYPE [M+H]+
MS$DATA_PROCESSING: RECALIBRATE loess on assigned fragments and MS1
MS$DATA_PROCESSING: REANALYZE Peaks with additional N2/O included
MS$DATA_PROCESSING: WHOLE RMassBank 3.11.0.1
PK$SPLASH: splash10-00di-9100000000-961671d53a81db0c0e4b
PK$ANNOTATION: m/z tentative_formula formula_count mass error(ppm)
  59.0491 C3H7O+ 1 59.0491 -0.46
  69.0698 C5H9+ 1 69.0699 -1.53
  70.04 C2H4N3+ 1 70.04 -0.25
  75.0228 C6H3+ 1 75.0229 -1.48
  98.9995 C5H4Cl+ 1 98.9996 -0.92
  102.0468 C8H6+ 1 102.0464 3.63
  122.9994 C7H4Cl+ 1 122.9996 -1.41
  124.0076 C7H5Cl+ 1 124.0074 1.76
  125.0148 C7H6Cl+ 1 125.0153 -3.85
  128.0617 C10H8+ 1 128.0621 -3.11
  132.9609 C5H3Cl2+ 1 132.9606 2.22
  139.0063 C6H4ClN2+ 1 139.0058 4.18
  158.9763 C7H5Cl2+ 1 158.9763 -0.15
PK$NUM_PEAK: 13
PK$PEAK: m/z int. rel.int.
  59.0491 6947934.5 23
  69.0698 1606635.4 5
  70.04 297399264 999
  75.0228 2552810 8
  98.9995 4546102.5 15
  102.0468 4977333.5 16
  122.9994 13559991 45
  124.0076 6460298 21
  125.0148 2240250.5 7
  128.0617 1623175.9 5
  132.9609 2242650.5 7
  139.0063 1630419.6 5
  158.9763 20638130 69
//
