ACCESSION: MSBNK-Eawag-EA281804
RECORD_TITLE: 1-(3-Chlorophenyl)piperazine; LC-ESI-ITFT; MS2; CE: 45%; R=7500; [M+H]+
DATE: 2014.01.14
AUTHORS: Stravs M, Schymanski E, Singer H, Department of Environmental Chemistry, Eawag
LICENSE: CC BY
COPYRIGHT: Copyright (C) 2012 Eawag, Duebendorf, Switzerland
COMMENT: CONFIDENCE standard compound
COMMENT: EAWAG_UCHEM_ID 2818
CH$NAME: 1-(3-Chlorophenyl)piperazine
CH$COMPOUND_CLASS: N/A; Environmental Standard
CH$FORMULA: C10H13ClN2
CH$EXACT_MASS: 196.0767
CH$SMILES: c1c(Cl)cccc1N1CCNCC1
CH$IUPAC: InChI=1S/C10H13ClN2/c11-9-2-1-3-10(8-9)13-6-4-12-5-7-13/h1-3,8,12H,4-7H2
CH$LINK: CAS 6640-24-0
CH$LINK: CHEBI CHEBI:10588
CH$LINK: KEGG C11738
CH$LINK: PUBCHEM CID:1355
CH$LINK: INCHIKEY VHFVKMTVMIZMIK-UHFFFAOYSA-N
CH$LINK: CHEMSPIDER 1314
CH$LINK: COMPTOX DTXSID9045138
AC$INSTRUMENT: LTQ Orbitrap XL Thermo Scientific
AC$INSTRUMENT_TYPE: LC-ESI-ITFT
AC$MASS_SPECTROMETRY: MS_TYPE MS2
AC$MASS_SPECTROMETRY: ION_MODE POSITIVE
AC$MASS_SPECTROMETRY: IONIZATION ESI
AC$MASS_SPECTROMETRY: FRAGMENTATION_MODE HCD
AC$MASS_SPECTROMETRY: COLLISION_ENERGY 45 % (nominal)
AC$MASS_SPECTROMETRY: RESOLUTION 7500
AC$CHROMATOGRAPHY: COLUMN_NAME XBridge C18 3.5um, 2.1x50mm, Waters
AC$CHROMATOGRAPHY: FLOW_GRADIENT 90/10 at 0 min, 50/50 at 4 min, 5/95 at 17 min, 5/95 at 25 min, 90/10 at 25.1 min, 90/10 at 30 min
AC$CHROMATOGRAPHY: FLOW_RATE 200 ul/min
AC$CHROMATOGRAPHY: RETENTION_TIME 5.2 min
AC$CHROMATOGRAPHY: SOLVENT A water with 0.1% formic acid
AC$CHROMATOGRAPHY: SOLVENT B methanol with 0.1% formic acid
MS$FOCUSED_ION: BASE_PEAK 197.0847
MS$FOCUSED_ION: PRECURSOR_M/Z 197.084
MS$FOCUSED_ION: PRECURSOR_TYPE [M+H]+
MS$DATA_PROCESSING: DEPROFILE Spline
MS$DATA_PROCESSING: RECALIBRATE loess on assigned fragments and MS1
MS$DATA_PROCESSING: REANALYZE Peaks with additional N2/O included
MS$DATA_PROCESSING: WHOLE RMassBank 1.3.1
PK$SPLASH: splash10-0002-0900000000-6188e12d6302f0aac6ad
PK$ANNOTATION: m/z tentative_formula formula_count mass error(ppm)
  70.0652 C4H8N+ 1 70.0651 1.06
  118.0651 C8H8N+ 1 118.0651 -0.22
  119.0731 C8H9N+ 1 119.073 1.09
  140.0265 C7H7ClN+ 1 140.0262 2.48
  145.0884 C10H11N+ 1 145.0886 -1.25
  152.0267 C8H7ClN+ 1 152.0262 3.46
  154.042 C8H9ClN+ 1 154.0418 1.08
  180.0575 C10H11ClN+ 1 180.0575 0.31
  195.0684 C10H12ClN2+ 1 195.0684 0.45
  197.0843 C10H14ClN2+ 1 197.084 1.46
PK$NUM_PEAK: 10
PK$PEAK: m/z int. rel.int.
  70.0652 36182.2 4
  118.0651 39699.9 5
  119.0731 347412.7 45
  140.0265 27461.8 3
  145.0884 16383.4 2
  152.0267 43839.1 5
  154.042 2366028 309
  180.0575 86603.1 11
  195.0684 245364.8 32
  197.0843 7629029 999
//
