ACCESSION: MSBNK-Eawag-EA294614
RECORD_TITLE: Triclopyr; LC-ESI-ITFT; MS2; CE: 35%; R=30000; [M+H]+
DATE: 2014.01.14
AUTHORS: Stravs M, Schymanski E, Singer H, Department of Environmental Chemistry, Eawag
LICENSE: CC BY
COPYRIGHT: Copyright (C) 2012 Eawag, Duebendorf, Switzerland
COMMENT: CONFIDENCE standard compound
COMMENT: EAWAG_UCHEM_ID 2946
CH$NAME: Triclopyr
CH$NAME: 2-(3,5,6-trichloropyridin-2-yl)oxyacetic acid
CH$COMPOUND_CLASS: N/A; Environmental Standard
CH$FORMULA: C7H4Cl3NO3
CH$EXACT_MASS: 254.9257
CH$SMILES: ClC1=C(OCC(O)=O)N=C(Cl)C(Cl)=C1
CH$IUPAC: InChI=1S/C7H4Cl3NO3/c8-3-1-4(9)7(11-6(3)10)14-2-5(12)13/h1H,2H2,(H,12,13)
CH$LINK: CAS 55335-06-3
CH$LINK: KEGG C11032
CH$LINK: PUBCHEM CID:41428
CH$LINK: INCHIKEY REEQLXCGVXDJSQ-UHFFFAOYSA-N
CH$LINK: CHEMSPIDER 37801
CH$LINK: COMPTOX DTXSID0032497
AC$INSTRUMENT: LTQ Orbitrap XL Thermo Scientific
AC$INSTRUMENT_TYPE: LC-ESI-ITFT
AC$MASS_SPECTROMETRY: MS_TYPE MS2
AC$MASS_SPECTROMETRY: ION_MODE POSITIVE
AC$MASS_SPECTROMETRY: IONIZATION ESI
AC$MASS_SPECTROMETRY: FRAGMENTATION_MODE CID
AC$MASS_SPECTROMETRY: COLLISION_ENERGY 35 % (nominal)
AC$MASS_SPECTROMETRY: RESOLUTION 30000
AC$CHROMATOGRAPHY: COLUMN_NAME XBridge C18 3.5um, 2.1x50mm, Waters
AC$CHROMATOGRAPHY: FLOW_GRADIENT 90/10 at 0 min, 50/50 at 4 min, 5/95 at 17 min, 5/95 at 25 min, 90/10 at 25.1 min, 90/10 at 30 min
AC$CHROMATOGRAPHY: FLOW_RATE 200 ul/min
AC$CHROMATOGRAPHY: RETENTION_TIME 10.3 min
AC$CHROMATOGRAPHY: SOLVENT A water with 0.1% formic acid
AC$CHROMATOGRAPHY: SOLVENT B methanol with 0.1% formic acid
MS$FOCUSED_ION: BASE_PEAK 255.9336
MS$FOCUSED_ION: PRECURSOR_M/Z 255.933
MS$FOCUSED_ION: PRECURSOR_TYPE [M+H]+
MS$DATA_PROCESSING: DEPROFILE Spline
MS$DATA_PROCESSING: RECALIBRATE loess on assigned fragments and MS1
MS$DATA_PROCESSING: REANALYZE Peaks with additional N2/O included
MS$DATA_PROCESSING: WHOLE RMassBank 1.3.1
PK$SPLASH: splash10-000i-0090000000-94872b8489b9b4f3dd1a
PK$ANNOTATION: m/z tentative_formula formula_count mass error(ppm)
  179.9166 C5HCl3N+ 1 179.9169 -1.83
  197.9274 C5H3Cl3NO+ 1 197.9275 -0.52
  209.9273 C6H3Cl3NO+ 1 209.9275 -0.68
  237.9224 C7H3Cl3NO2+ 1 237.9224 -0.07
PK$NUM_PEAK: 4
PK$PEAK: m/z int. rel.int.
  179.9166 3570.4 2
  197.9274 56116.7 44
  209.9273 281704.4 224
  237.9224 1251309.5 999
//
