ACCESSION: MSBNK-Eawag-EQ00353503
RECORD_TITLE: Quinoxyfen; LC-ESI-QFT; MS2; CE: 45%; R=15000; [M+H]+
DATE: 2024.06.14
AUTHORS: F. Jud [dtc], K. Arturi [dtc], J. Hollender [dtc], A. Dax [com]
LICENSE: CC BY-SA
COPYRIGHT: Copyright (C) Eawag 2024
COMMENT: CONFIDENCE standard compound
COMMENT: UCHEM_ID 3535
CH$NAME: Quinoxyfen
CH$NAME: 5,7-dichloro-4-(4-fluorophenoxy)quinoline
CH$COMPOUND_CLASS: N/A
CH$FORMULA: C15H8Cl2FNO
CH$EXACT_MASS: 306.9966975
CH$SMILES: FC1=CC=C(OC2=CC=NC3=CC(Cl)=CC(Cl)=C23)C=C1
CH$IUPAC: InChI=1S/C15H8Cl2FNO/c16-9-7-12(17)15-13(8-9)19-6-5-14(15)20-11-3-1-10(18)2-4-11/h1-8H
CH$LINK: CAS 124495-18-7
CH$LINK: CHEBI CHEBI:82040
CH$LINK: KEGG C18892
CH$LINK: PUBCHEM CID:3391107
CH$LINK: INCHIKEY WRPIRSINYZBGPK-UHFFFAOYSA-N
CH$LINK: CHEMSPIDER 2635909
AC$INSTRUMENT: Q Exactive Plus
AC$INSTRUMENT_TYPE: LC-ESI-QFT
AC$MASS_SPECTROMETRY: MS_TYPE MS2
AC$MASS_SPECTROMETRY: ION_MODE POSITIVE
AC$MASS_SPECTROMETRY: IONIZATION ESI
AC$MASS_SPECTROMETRY: FRAGMENTATION_MODE HCD
AC$MASS_SPECTROMETRY: COLLISION_ENERGY 45 % (nominal)
AC$MASS_SPECTROMETRY: RESOLUTION 15000
AC$MASS_SPECTROMETRY: MASS_RANGE_M/Z 50-330
AC$CHROMATOGRAPHY: COLUMN_NAME XBridge C18 3.5um, 2.1x50mm, Waters
AC$CHROMATOGRAPHY: FLOW_GRADIENT 90/10 at 0 min, 50/50 at 4 min, 5/95 at 17 min, 5/95 at 25 min, 90/10 at 25.1 min, 90/10 at 30 min
AC$CHROMATOGRAPHY: FLOW_RATE 200 uL/min
AC$CHROMATOGRAPHY: RETENTION_TIME 13.956 min
MS$FOCUSED_ION: BASE_PEAK 308.0044
MS$FOCUSED_ION: PRECURSOR_M/Z 308.004
MS$FOCUSED_ION: PRECURSOR_TYPE [M+H]+
MS$FOCUSED_ION: PRECURSOR_INTENSITY 283474084.27
MS$DATA_PROCESSING: RECALIBRATE loess on assigned fragments and MS1
MS$DATA_PROCESSING: REANALYZE Peaks with additional N2/O included
MS$DATA_PROCESSING: WHOLE RMassBank 3.15.1.1
PK$SPLASH: splash10-0a4i-0029000000-d5e7ac9a723078df62ed
PK$ANNOTATION: m/z tentative_formula formula_count mass error(ppm)
  196.9795 C9H5Cl2N+ 3 196.9794 0.87
  213.9822 C9H6Cl2NO+ 1 213.9821 0.64
  244.0328 C14H8ClFN+ 1 244.0324 1.7
  245.0404 C14H9ClFN+ 1 245.0402 0.9
  272.0274 C15H8ClFNO+ 1 272.0273 0.24
  280.0092 C14H9Cl2FN+ 1 280.0091 0.45
  287.998 C15H8Cl2NO+ 1 287.9977 0.88
  308.0042 C15H9Cl2FNO+ 1 308.004 0.61
PK$NUM_PEAK: 8
PK$PEAK: m/z int. rel.int.
  196.9795 8117007 107
  213.9822 4091377 54
  244.0328 1421551.6 18
  245.0404 2618725.5 34
  272.0274 11994987 158
  280.0092 1984190.1 26
  287.998 828635.4 10
  308.0042 75577736 999
//
