ACCESSION: MSBNK-Eawag-EA274014
RECORD_TITLE: Tritosulfuron; LC-ESI-ITFT; MS2; CE: 35%; R=30000; [M+H]+
DATE: 2014.01.14
AUTHORS: Stravs M, Schymanski E, Singer H, Department of Environmental Chemistry, Eawag
LICENSE: CC BY
COPYRIGHT: Copyright (C) 2012 Eawag, Duebendorf, Switzerland
COMMENT: CONFIDENCE standard compound
COMMENT: EAWAG_UCHEM_ID 2740
CH$NAME: Tritosulfuron
CH$NAME: N-{[4-methoxy-6-(trifluoromethyl)-1,3,5-triazin-2-yl]carbamoyl}-2-(trifluoromethyl)benzenesulfonamide
CH$COMPOUND_CLASS: N/A; Environmental Standard
CH$FORMULA: C13H9F6N5O4S
CH$EXACT_MASS: 445.0279
CH$SMILES: c1c(S(=O)(=O)NC(Nc2nc(nc(n2)C(F)(F)F)OC)=O)c(C(F)(F)F)ccc1
CH$IUPAC: InChI=1S/C13H9F6N5O4S/c1-28-11-21-8(13(17,18)19)20-9(23-11)22-10(25)24-29(26,27)7-5-3-2-4-6(7)12(14,15)16/h2-5H,1H3,(H2,20,21,22,23,24,25)
CH$LINK: CAS 142469-14-5
CH$LINK: PUBCHEM CID:11657899
CH$LINK: INCHIKEY KVEQCVKVIFQSGC-UHFFFAOYSA-N
CH$LINK: CHEMSPIDER 9832635
CH$LINK: COMPTOX DTXSID9057975
AC$INSTRUMENT: LTQ Orbitrap XL Thermo Scientific
AC$INSTRUMENT_TYPE: LC-ESI-ITFT
AC$MASS_SPECTROMETRY: MS_TYPE MS2
AC$MASS_SPECTROMETRY: ION_MODE POSITIVE
AC$MASS_SPECTROMETRY: IONIZATION ESI
AC$MASS_SPECTROMETRY: FRAGMENTATION_MODE CID
AC$MASS_SPECTROMETRY: COLLISION_ENERGY 35 % (nominal)
AC$MASS_SPECTROMETRY: RESOLUTION 30000
AC$CHROMATOGRAPHY: COLUMN_NAME XBridge C18 3.5um, 2.1x50mm, Waters
AC$CHROMATOGRAPHY: FLOW_GRADIENT 90/10 at 0 min, 50/50 at 4 min, 5/95 at 17 min, 5/95 at 25 min, 90/10 at 25.1 min, 90/10 at 30 min
AC$CHROMATOGRAPHY: FLOW_RATE 200 ul/min
AC$CHROMATOGRAPHY: RETENTION_TIME 10.8 min
AC$CHROMATOGRAPHY: SOLVENT A water with 0.1% formic acid
AC$CHROMATOGRAPHY: SOLVENT B methanol with 0.1% formic acid
MS$FOCUSED_ION: BASE_PEAK 446.0345
MS$FOCUSED_ION: PRECURSOR_M/Z 446.0352
MS$FOCUSED_ION: PRECURSOR_TYPE [M+H]+
MS$DATA_PROCESSING: DEPROFILE Spline
MS$DATA_PROCESSING: RECALIBRATE loess on assigned fragments and MS1
MS$DATA_PROCESSING: REANALYZE Peaks with additional N2/O included
MS$DATA_PROCESSING: WHOLE RMassBank 1.3.1
PK$SPLASH: splash10-00dj-0790000000-0f034c4d87c5b3dcca87
PK$ANNOTATION: m/z tentative_formula formula_count mass error(ppm)
  110.0212 C3H3F3N+ 1 110.0212 0.18
  127.0476 C3H6F3N2+ 1 127.0478 -1.1
  145.0262 C7H4F3+ 2 145.026 1.65
  148.0317 CH9FN2O3S+ 3 148.0312 3.09
  164.0067 C9H2F2O+ 3 164.0068 -0.56
  175.0426 C2H10FN3O3S+ 3 175.0421 2.62
  195.0487 C5H6F3N4O+ 3 195.0488 -0.52
  206.0076 C7H6F2NO2S+ 9 206.0082 -2.78
  208.9878 C7H4F3O2S+ 4 208.9879 -0.2
  220.0443 C11H6F2N2O+ 4 220.0443 -0.05
  403.0292 C12H9F6N4O3S+ 1 403.0294 -0.39
  426.0287 C13H9F5N5O4S+ 1 426.029 -0.59
PK$NUM_PEAK: 13
PK$PEAK: m/z int. rel.int.
  110.0212 6051 1
  127.0476 16817.9 3
  145.0262 22491.4 4
  148.0317 10081.5 1
  164.0067 16270.3 2
  175.0426 35802.7 6
  195.0487 4649590.4 830
  206.0076 7351.1 1
  208.9878 99399.6 17
  220.0443 37783 6
  221.028 5593313.246 999
  403.0292 356745 63
  426.0287 79191 14
//
