ACCESSION: MSBNK-Eawag-EA030502
RECORD_TITLE: Iodocarb; LC-ESI-ITFT; MS2; CE: 15%; R=7500; [M+H]+
DATE: 2014.01.14
AUTHORS: Stravs M, Schymanski E, Singer H, Department of Environmental Chemistry, Eawag
LICENSE: CC BY
COPYRIGHT: Copyright (C) 2012 Eawag, Duebendorf, Switzerland
COMMENT: CONFIDENCE standard compound
COMMENT: EAWAG_UCHEM_ID 305
CH$NAME: Iodocarb
CH$NAME: Iodopropynyl butylcarbamate (IPBC)
CH$NAME: 3-iodanylprop-2-ynyl N-butylcarbamate
CH$COMPOUND_CLASS: N/A; Environmental Standard
CH$FORMULA: C8H12INO2
CH$EXACT_MASS: 280.9913
CH$SMILES: N(C(OCC#CI)=O)CCCC
CH$IUPAC: InChI=1S/C8H12INO2/c1-2-3-6-10-8(11)12-7-4-5-9/h2-3,6-7H2,1H3,(H,10,11)
CH$LINK: CAS 55406-53-6
CH$LINK: PUBCHEM CID:62097
CH$LINK: INCHIKEY WYVVKGNFXHOCQV-UHFFFAOYSA-N
CH$LINK: CHEMSPIDER 55933
CH$LINK: COMPTOX DTXSID0028038
AC$INSTRUMENT: LTQ Orbitrap XL Thermo Scientific
AC$INSTRUMENT_TYPE: LC-ESI-ITFT
AC$MASS_SPECTROMETRY: MS_TYPE MS2
AC$MASS_SPECTROMETRY: ION_MODE POSITIVE
AC$MASS_SPECTROMETRY: IONIZATION ESI
AC$MASS_SPECTROMETRY: FRAGMENTATION_MODE HCD
AC$MASS_SPECTROMETRY: COLLISION_ENERGY 15 % (nominal)
AC$MASS_SPECTROMETRY: RESOLUTION 7500
AC$CHROMATOGRAPHY: COLUMN_NAME XBridge C18 3.5um, 2.1x50mm, Waters
AC$CHROMATOGRAPHY: FLOW_GRADIENT 90/10 at 0 min, 50/50 at 4 min, 5/95 at 17 min, 5/95 at 25 min, 90/10 at 25.1 min, 90/10 at 30 min
AC$CHROMATOGRAPHY: FLOW_RATE 200 ul/min
AC$CHROMATOGRAPHY: RETENTION_TIME 8.4 min
AC$CHROMATOGRAPHY: SOLVENT A water with 0.1% formic acid
AC$CHROMATOGRAPHY: SOLVENT B methanol with 0.1% formic acid
MS$FOCUSED_ION: BASE_PEAK 281.9991
MS$FOCUSED_ION: PRECURSOR_M/Z 281.9986
MS$FOCUSED_ION: PRECURSOR_TYPE [M+H]+
MS$DATA_PROCESSING: DEPROFILE Spline
MS$DATA_PROCESSING: RECALIBRATE loess on assigned fragments and MS1
MS$DATA_PROCESSING: REANALYZE Peaks with additional N2/O included
MS$DATA_PROCESSING: WHOLE RMassBank 1.3.1
PK$SPLASH: splash10-03di-1920000000-42ea5eb110ffa9134c23
PK$ANNOTATION: m/z tentative_formula formula_count mass error(ppm)
  55.0179 C3H3O+ 1 55.0178 0.34
  57.0699 C4H9+ 1 57.0699 0.41
  68.0497 C4H6N+ 1 68.0495 2.86
  74.0237 C2H4NO2+ 1 74.0237 1.15
  82.0653 C5H8N+ 1 82.0651 2.49
  86.0965 C5H12N+ 1 86.0964 0.86
  96.0808 C6H10N+ 1 96.0808 0.46
  100.0757 C5H10NO+ 1 100.0757 0.1
  110.0965 C7H12N+ 1 110.0964 1.04
  116.0707 C5H10NO2+ 1 116.0706 0.39
  140.0704 C7H10NO2+ 1 140.0706 -1.25
  155.0942 C8H13NO2+ 1 155.0941 0.52
  164.9196 C3H2I+ 1 164.9196 0.34
  181.9463 C3H5IN+ 1 181.9461 0.97
  182.9302 C3H4IO+ 1 182.9301 0.39
  195.9625 C4H7IN+ 1 195.9618 3.6
  238.0087 C7H13IN+ 1 238.0087 -0.23
  281.9987 C8H13INO2+ 1 281.9986 0.66
PK$NUM_PEAK: 18
PK$PEAK: m/z int. rel.int.
  55.0179 197786.3 17
  57.0699 2168659.5 196
  68.0497 37013.8 3
  74.0237 81804 7
  82.0653 31273.7 2
  86.0965 127387 11
  96.0808 54247.5 4
  100.0757 262733.3 23
  110.0965 57118.2 5
  116.0707 148743.8 13
  140.0704 13181.8 1
  155.0942 538335.2 48
  164.9196 11004728.4 999
  181.9463 100485 9
  182.9302 250983.5 22
  195.9625 67606.7 6
  238.0087 372447.4 33
  281.9987 3523219.8 319
//
