ACCESSION: MSBNK-Eawag-EQ321157
RECORD_TITLE: Triclabendazole; LC-ESI-QFT; MS2; CE: 120; R=35000; [M-H]-
DATE: 2015.08.26
AUTHORS: Beck B, Stravs M, Schymanski E, Singer H, Department of Environmental Chemistry, Eawag
LICENSE: CC BY
COPYRIGHT: Copyright (C) 2015 Eawag, Duebendorf, Switzerland
COMMENT: CONFIDENCE standard compound
COMMENT: EAWAG_UCHEM_ID 3211
CH$NAME: Triclabendazole
CH$NAME: Triclabendazol
CH$NAME: 6-chloro-5-(2,3-dichlorophenoxy)-2-methylsulfanyl-1H-benzimidazole
CH$COMPOUND_CLASS: N/A; Environmental Standard
CH$FORMULA: C14H9Cl3N2OS
CH$EXACT_MASS: 357.95012
CH$SMILES: CSc1[nH]c2cc(c(cc2n1)Oc3cccc(c3Cl)Cl)Cl
CH$IUPAC: InChI=1S/C14H9Cl3N2OS/c1-21-14-18-9-5-8(16)12(6-10(9)19-14)20-11-4-2-3-7(15)13(11)17/h2-6H,1H3,(H,18,19)
CH$LINK: CAS 68786-66-3
CH$LINK: PUBCHEM CID:50248
CH$LINK: INCHIKEY NQPDXQQQCQDHHW-UHFFFAOYSA-N
CH$LINK: CHEMSPIDER 45565
CH$LINK: COMPTOX DTXSID7043952
AC$INSTRUMENT: Q Exactive Plus Orbitrap Thermo Scientific
AC$INSTRUMENT_TYPE: LC-ESI-QFT
AC$MASS_SPECTROMETRY: MS_TYPE MS2
AC$MASS_SPECTROMETRY: ION_MODE NEGATIVE
AC$MASS_SPECTROMETRY: IONIZATION ESI
AC$MASS_SPECTROMETRY: FRAGMENTATION_MODE HCD
AC$MASS_SPECTROMETRY: COLLISION_ENERGY 120 (nominal)
AC$MASS_SPECTROMETRY: RESOLUTION 35000
AC$CHROMATOGRAPHY: COLUMN_NAME XBridge C18 3.5um, 2.1x50mm, Waters
AC$CHROMATOGRAPHY: FLOW_GRADIENT 90/10 at 0 min, 50/50 at 4 min, 5/95 at 17 min, 5/95 at 25 min, 90/10 at 25.1 min, 90/10 at 30 min
AC$CHROMATOGRAPHY: FLOW_RATE 200 ul/min
AC$CHROMATOGRAPHY: RETENTION_TIME 14.2 min
AC$CHROMATOGRAPHY: SOLVENT A water with 0.1% formic acid
AC$CHROMATOGRAPHY: SOLVENT B methanol with 0.1% formic acid
MS$FOCUSED_ION: BASE_PEAK 358.9395
MS$FOCUSED_ION: PRECURSOR_M/Z 356.9428
MS$FOCUSED_ION: PRECURSOR_TYPE [M-H]-
MS$DATA_PROCESSING: RECALIBRATE loess on assigned fragments and MS1
MS$DATA_PROCESSING: REANALYZE Peaks with additional N2/O included
MS$DATA_PROCESSING: WHOLE RMassBank 1.9.6
PK$SPLASH: splash10-066r-9000000000-6ef46d3a6eaad77f377a
PK$ANNOTATION: m/z tentative_formula formula_count mass error(ppm)
  50.0036 C3N- 1 50.0036 -0.65
  57.9757 CNS- 1 57.9757 0.28
  65.9986 C3NO- 1 65.9985 0.65
  74.0037 C5N- 1 74.0036 0.51
  81.9758 C3NS- 1 81.9757 1.18
  85.9803 C3HClN- 1 85.9803 0.46
  86.0036 C6N- 1 86.0036 -0.03
  89.0145 C5HN2- 1 89.0145 -0.47
  113.0145 C7HN2- 1 113.0145 0.25
  117.0095 C6HN2O- 1 117.0094 0.89
  124.98 C6H2ClO- 2 124.98 0.03
  130.0172 C7H2N2O- 1 130.0173 -0.63
  152.9862 C6H2ClN2O- 1 152.9861 0.56
  160.9567 C6H3Cl2O- 2 160.9566 0.47
  165.9933 C7H3ClN2O- 1 165.9939 -3.91
  196.9582 C7H2ClN2OS- 1 196.9582 0.13
PK$NUM_PEAK: 16
PK$PEAK: m/z int. rel.int.
  50.0036 515619.2 70
  57.9757 5792426 792
  65.9986 7303381 999
  74.0037 47530.4 6
  81.9758 10696.8 1
  85.9803 730347.1 99
  86.0036 61767.3 8
  89.0145 116982.9 16
  113.0145 59145.7 8
  117.0095 42563.9 5
  124.98 20095.1 2
  130.0172 24230.3 3
  152.9862 436476.4 59
  160.9567 20279.1 2
  165.9933 17080.9 2
  196.9582 932470 127
//
