ACCESSION: MSBNK-Eawag-EQ00381353
RECORD_TITLE: Prothioconazole; LC-ESI-QFT; MS2; CE: 45%; R=15000; [M-H]-
DATE: 2024.06.14
AUTHORS: F. Jud [dtc], K. Arturi [dtc], J. Hollender [dtc], A. Dax [com]
LICENSE: CC BY-SA
COPYRIGHT: Copyright (C) Eawag 2024
COMMENT: CONFIDENCE standard compound
COMMENT: UCHEM_ID 3813
CH$NAME: Prothioconazole
CH$NAME: 2-[2-(1-chlorocyclopropyl)-3-(2-chlorophenyl)-2-hydroxypropyl]-1H-1,2,4-triazole-3-thione
CH$COMPOUND_CLASS: N/A
CH$FORMULA: C14H15Cl2N3OS
CH$EXACT_MASS: 343.0312885
CH$SMILES: C1CC1(C(CC2=CC=CC=C2Cl)(CN3C(=S)N=CN3)O)Cl
CH$IUPAC: InChI=1S/C14H15Cl2N3OS/c15-11-4-2-1-3-10(11)7-14(20,13(16)5-6-13)8-19-12(21)17-9-18-19/h1-4,9,20H,5-8H2,(H,17,18,21)
CH$LINK: CAS 178928-70-6
CH$LINK: CHEBI CHEBI:84008
CH$LINK: KEGG C18888
CH$LINK: PUBCHEM CID:6451142
CH$LINK: INCHIKEY MNHVNIJQQRJYDH-UHFFFAOYSA-N
CH$LINK: CHEMSPIDER 4953623
AC$INSTRUMENT: Exploris 240 Thermo Scientific
AC$INSTRUMENT_TYPE: LC-ESI-QFT
AC$MASS_SPECTROMETRY: MS_TYPE MS2
AC$MASS_SPECTROMETRY: ION_MODE NEGATIVE
AC$MASS_SPECTROMETRY: IONIZATION ESI
AC$MASS_SPECTROMETRY: FRAGMENTATION_MODE HCD
AC$MASS_SPECTROMETRY: COLLISION_ENERGY 45 % (nominal)
AC$MASS_SPECTROMETRY: RESOLUTION 15000
AC$MASS_SPECTROMETRY: MASS_RANGE_M/Z 50-370
AC$CHROMATOGRAPHY: COLUMN_NAME XBridge C18 3.5um, 2.1x50mm, Waters
AC$CHROMATOGRAPHY: FLOW_GRADIENT 90/10 at 0 min, 50/50 at 4 min, 5/95 at 17 min, 5/95 at 25 min, 90/10 at 25.1 min, 90/10 at 30 min
AC$CHROMATOGRAPHY: FLOW_RATE 200 uL/min
AC$CHROMATOGRAPHY: RETENTION_TIME 11.780 min
MS$FOCUSED_ION: BASE_PEAK 342.0242
MS$FOCUSED_ION: PRECURSOR_M/Z 342.024
MS$FOCUSED_ION: PRECURSOR_TYPE [M-H]-
MS$DATA_PROCESSING: RECALIBRATE loess on assigned fragments and MS1
MS$DATA_PROCESSING: REANALYZE Peaks with additional N2/O included
MS$DATA_PROCESSING: WHOLE RMassBank 3.15.1.1
PK$SPLASH: splash10-002b-9510000000-d94e0d6e220dc62ec96c
PK$ANNOTATION: m/z tentative_formula formula_count mass error(ppm)
  57.9757 CNS- 1 57.9757 0.29
  68.0255 C2H2N3- 1 68.0254 0.76
  98.9897 C2HN3S- 1 98.9897 0.49
  99.9975 C2H2N3S- 1 99.9975 0.23
  114.0131 C3H4N3S- 1 114.0131 -0.77
  125.0164 C7H6Cl- 1 125.0164 0.39
  147.044 C7H5N3O- 1 147.0438 1.58
  180.0238 C7H6N3OS- 1 180.0237 0.26
  216 C7H7ClN3OS- 1 216.0004 -1.57
  264.0366 C12H11ClN3S- 1 264.0368 -0.71
PK$NUM_PEAK: 10
PK$PEAK: m/z int. rel.int.
  57.9757 2900983 315
  68.0255 2295728.8 249
  98.9897 1494687.1 162
  99.9975 9199519 999
  114.0131 618079.5 67
  125.0164 6196441 672
  147.044 467378.3 50
  180.0238 3081324.2 334
  216 675954.3 73
  264.0366 1411565.8 153
//
