ACCESSION: MSBNK-Eawag-EQ01123606
RECORD_TITLE: Diphenamid; LC-ESI-QFT; MS2; CE: 90%; R=17500; [M+H]+
DATE: 2023.04.27
AUTHORS: B. Beck [dtc,com], J. Hollender [dtc]
LICENSE: CC BY-SA
COPYRIGHT: Copyright (C) Eawag 2023
COMMENT: CONFIDENCE standard compound
COMMENT: UCHEM_ID 11236
CH$NAME: Diphenamid
CH$NAME: N,N-dimethyl-2,2-diphenylacetamide
CH$COMPOUND_CLASS: N/A; Environmental Standard
CH$FORMULA: C16H17NO
CH$EXACT_MASS: 239.1310
CH$SMILES: CN(C)C(=O)C(C1=CC=CC=C1)C2=CC=CC=C2
CH$IUPAC: InChI=1S/C16H17NO/c1-17(2)16(18)15(13-9-5-3-6-10-13)14-11-7-4-8-12-14/h3-12,15H,1-2H3
CH$LINK: CAS 957-51-7
CH$LINK: CHEBI CHEBI:81915
CH$LINK: KEGG C18722
CH$LINK: PUBCHEM CID:13728
CH$LINK: INCHIKEY QAHFOPIILNICLA-UHFFFAOYSA-N
CH$LINK: CHEMSPIDER 13133
AC$INSTRUMENT: Exploris 240 Orbitrap Thermo Scientific
AC$INSTRUMENT_TYPE: LC-ESI-QFT
AC$MASS_SPECTROMETRY: MS_TYPE MS2
AC$MASS_SPECTROMETRY: ION_MODE POSITIVE
AC$MASS_SPECTROMETRY: IONIZATION ESI
AC$MASS_SPECTROMETRY: FRAGMENTATION_MODE HCD
AC$MASS_SPECTROMETRY: COLLISION_ENERGY 90 % (nominal)
AC$MASS_SPECTROMETRY: RESOLUTION 17500
AC$MASS_SPECTROMETRY: MASS_RANGE_M/Z 50-266
AC$CHROMATOGRAPHY: COLUMN_NAME XBridge C18 3.5um, 2.1x50mm, Waters
AC$CHROMATOGRAPHY: FLOW_GRADIENT 90/10 at 0 min, 50/50 at 4 min, 5/95 at 17 min, 5/95 at 25 min, 90/10 at 25.1 min, 90/10 at 30 min
AC$CHROMATOGRAPHY: FLOW_RATE 200 uL/min
AC$CHROMATOGRAPHY: RETENTION_TIME 7.502 min
MS$FOCUSED_ION: BASE_PEAK 274.2526
MS$FOCUSED_ION: PRECURSOR_M/Z 240.1383
MS$FOCUSED_ION: PRECURSOR_TYPE [M+H]+
MS$DATA_PROCESSING: RECALIBRATE loess on assigned fragments and MS1
MS$DATA_PROCESSING: REANALYZE Peaks with additional N2/O included
MS$DATA_PROCESSING: WHOLE RMassBank 3.11.0.1
PK$SPLASH: splash10-001i-1900000000-8f2956716e5ef1c5ccfd
PK$ANNOTATION: m/z tentative_formula formula_count mass error(ppm)
  56.0493 C3H6N+ 1 56.0495 -2.42
  72.0444 C3H6NO+ 1 72.0444 -0.28
  91.0542 C7H7+ 1 91.0542 -0.66
  93.0696 C7H9+ 1 93.0699 -2.72
  105.0697 C8H9+ 1 105.0699 -1.85
  118.065 C8H8N+ 1 118.0651 -1.23
  119.0728 C8H9N+ 1 119.073 -1.65
  128.0621 C10H8+ 1 128.0621 0.19
  132.0807 C9H10N+ 1 132.0808 -0.55
  134.0964 C9H12N+ 1 134.0964 -0.39
  151.0544 C12H7+ 1 151.0542 1.2
  152.062 C12H8+ 1 152.0621 -0.6
  165.0699 C13H9+ 1 165.0699 0.24
  166.0776 C13H10+ 1 166.0777 -0.39
  167.0854 C13H11+ 1 167.0855 -0.56
PK$NUM_PEAK: 15
PK$PEAK: m/z int. rel.int.
  56.0493 1947497.2 8
  72.0444 22115614 101
  91.0542 27969876 127
  93.0696 1129771.6 5
  105.0697 1148450.1 5
  118.065 11503647 52
  119.0728 5246580.5 23
  128.0621 1077742 4
  132.0807 2432557 11
  134.0964 218446784 999
  151.0544 1565866 7
  152.062 35752376 163
  165.0699 31990914 146
  166.0776 13744599 62
  167.0854 27800282 127
//
