ACCESSION: MSBNK-Eawag-EQ01166051
RECORD_TITLE: 2-ClPFPECA-0-1; LC-ESI-QFT; MS2; CE: 15%; R=17500; [M-H]-
DATE: 2024.05.15
AUTHORS: B. Beck [dtc,com], J. Hollender [dtc]
LICENSE: CC BY-SA
COPYRIGHT: Copyright (C) Eawag 2023
COMMENT: CONFIDENCE standard compound
COMMENT: UCHEM_ID 11660
CH$NAME: 2-ClPFPECA-0-1
CH$NAME: Chloro-perfluoro methyl diether nonanoic acid
CH$NAME: 2-[1-(2-chloro-1,1,2,3,3,3-hexafluoropropoxy)-1,1,2,3,3,3-hexafluoropropan-2-yl]oxy-2,2-difluoroacetic acid
CH$COMPOUND_CLASS: N/A; Environmental Standard
CH$FORMULA: C8HClF14O4
CH$EXACT_MASS: 461.933981272
CH$SMILES: C(=O)(C(OC(C(OC(C(C(F)(F)F)(F)Cl)(F)F)(F)F)(C(F)(F)F)F)(F)F)O
CH$IUPAC: InChI=1S/C8HClF14O4/c9-3(12,5(14,15)16)7(20,21)27-8(22,23)4(13,6(17,18)19)26-2(10,11)1(24)25/h(H,24,25)
CH$LINK: PUBCHEM CID:102331880
CH$LINK: INCHIKEY JZLICTXOXFCCDU-UHFFFAOYSA-N
AC$INSTRUMENT: Exploris 240 Orbitrap Thermo Scientific
AC$INSTRUMENT_TYPE: LC-ESI-QFT
AC$MASS_SPECTROMETRY: MS_TYPE MS2
AC$MASS_SPECTROMETRY: ION_MODE NEGATIVE
AC$MASS_SPECTROMETRY: IONIZATION ESI
AC$MASS_SPECTROMETRY: FRAGMENTATION_MODE HCD
AC$MASS_SPECTROMETRY: COLLISION_ENERGY 15 % (nominal)
AC$MASS_SPECTROMETRY: RESOLUTION 17500
AC$MASS_SPECTROMETRY: MASS_RANGE_M/Z 50-491
AC$CHROMATOGRAPHY: COLUMN_NAME XBridge C18 3.5um, 2.1x50mm, Waters
AC$CHROMATOGRAPHY: FLOW_GRADIENT 90/10 at 0 min, 50/50 at 4 min, 5/95 at 17 min, 5/95 at 25 min, 90/10 at 25.1 min, 90/10 at 30 min
AC$CHROMATOGRAPHY: FLOW_RATE 200 uL/min
AC$CHROMATOGRAPHY: RETENTION_TIME 10.396 min
MS$FOCUSED_ION: BASE_PEAK 366.9399
MS$FOCUSED_ION: PRECURSOR_M/Z 460.9267
MS$FOCUSED_ION: PRECURSOR_TYPE [M-H]-
MS$DATA_PROCESSING: RECALIBRATE loess on assigned fragments and MS1
MS$DATA_PROCESSING: REANALYZE Peaks with additional N2/O included
MS$DATA_PROCESSING: WHOLE RMassBank 3.15.1.1
PK$SPLASH: splash10-014i-0019000000-bc41d165cbe89fcd0dba
PK$ANNOTATION: m/z tentative_formula formula_count mass error(ppm)
  184.9846 C3F7O- 1 184.9843 1.5
  200.9548 C3ClF6O- 1 200.9547 0.14
  366.9403 C6ClF12O2- 1 366.9401 0.51
PK$NUM_PEAK: 3
PK$PEAK: m/z int. rel.int.
  184.9846 393089 31
  200.9548 1991829.4 159
  366.9403 12447351 999
//
