ACCESSION: MSBNK-Eawag-EQ312405
RECORD_TITLE: Amantadine; LC-ESI-QFT; MS2; CE: 75; R=35000; [M+H]+
DATE: 2015.08.25
AUTHORS: Beck B, Stravs M, Schymanski E, Singer H, Department of Environmental Chemistry, Eawag
LICENSE: CC BY
COPYRIGHT: Copyright (C) 2015 Eawag, Duebendorf, Switzerland
COMMENT: CONFIDENCE standard compound
COMMENT: EAWAG_UCHEM_ID 3124
CH$NAME: Amantadine
CH$NAME: 1-adamantanamine
CH$COMPOUND_CLASS: N/A; Environmental Standard
CH$FORMULA: C10H17N
CH$EXACT_MASS: 151.13610
CH$SMILES: C1C2CC3CC1CC(C2)(C3)N
CH$IUPAC: InChI=1S/C10H17N/c11-10-4-7-1-8(5-10)3-9(2-7)6-10/h7-9H,1-6,11H2
CH$LINK: CAS 768-94-5
CH$LINK: CHEBI CHEBI:2618
CH$LINK: KEGG D07441
CH$LINK: PUBCHEM CID:2130
CH$LINK: INCHIKEY DKNWSYNQZKUICI-UHFFFAOYSA-N
CH$LINK: CHEMSPIDER 2045
CH$LINK: COMPTOX DTXSID8022117
AC$INSTRUMENT: Q Exactive Orbitrap Thermo Scientific
AC$INSTRUMENT_TYPE: LC-ESI-QFT
AC$MASS_SPECTROMETRY: MS_TYPE MS2
AC$MASS_SPECTROMETRY: ION_MODE POSITIVE
AC$MASS_SPECTROMETRY: IONIZATION ESI
AC$MASS_SPECTROMETRY: FRAGMENTATION_MODE HCD
AC$MASS_SPECTROMETRY: COLLISION_ENERGY 75 (nominal)
AC$MASS_SPECTROMETRY: RESOLUTION 35000
AC$CHROMATOGRAPHY: COLUMN_NAME XBridge C18 3.5um, 2.1x50mm, Waters
AC$CHROMATOGRAPHY: FLOW_GRADIENT 90/10 at 0 min, 50/50 at 4 min, 5/95 at 17 min, 5/95 at 25 min, 90/10 at 25.1 min, 90/10 at 30 min
AC$CHROMATOGRAPHY: FLOW_RATE 200 ul/min
AC$CHROMATOGRAPHY: RETENTION_TIME 4.6 min
AC$CHROMATOGRAPHY: SOLVENT A water with 0.1% formic acid
AC$CHROMATOGRAPHY: SOLVENT B methanol with 0.1% formic acid
MS$FOCUSED_ION: BASE_PEAK 152.1434
MS$FOCUSED_ION: PRECURSOR_M/Z 152.1434
MS$FOCUSED_ION: PRECURSOR_TYPE [M+H]+
MS$DATA_PROCESSING: DEPROFILE Spline
MS$DATA_PROCESSING: RECALIBRATE loess on assigned fragments and MS1
MS$DATA_PROCESSING: REANALYZE Peaks with additional N2/O included
MS$DATA_PROCESSING: WHOLE RMassBank 1.9.6
PK$SPLASH: splash10-000i-2900000000-496b35f0cfba5aa930ed
PK$ANNOTATION: m/z tentative_formula formula_count mass error(ppm)
  55.0543 C4H7+ 1 55.0542 0.42
  67.0543 C5H7+ 1 67.0542 0.8
  69.07 C5H9+ 1 69.0699 1.64
  79.0543 C6H7+ 1 79.0542 0.67
  81.07 C6H9+ 1 81.0699 1.03
  93.07 C7H9+ 1 93.0699 0.79
  107.0856 C8H11+ 1 107.0855 0.5
  135.1169 C10H15+ 1 135.1168 0.69
  152.1437 C10H18N+ 1 152.1434 2.2
PK$NUM_PEAK: 9
PK$PEAK: m/z int. rel.int.
  55.0543 274788.9 6
  67.0543 2948588.9 68
  69.07 205848.6 4
  79.0543 4477054.1 103
  81.07 1039565.3 24
  93.07 3598753.2 83
  107.0856 2351312 54
  135.1169 43237433.8 999
  152.1437 1817076.9 41
//
