ACCESSION: MSBNK-RIKEN_ReSpect-PT112240
RECORD_TITLE: Delphinidin-3-O-(2''-O-beta-xylopyranosyl-beta-glucopyranoside); LC-ESI-QTOF; MS2; [M]+
DATE: 2008.07.28
AUTHORS: Matsuda F, Suzuki M, Sawada Y, Plant Science Center, RIKEN.
LICENSE: CC BY-NC
COPYRIGHT: Copyright(C) 2009 Plant Science Center, RIKEN
COMMENT: Build 1 2009/06/24
COMMENT: Acquisition and generation of the data is financially supported in part by CREST/JST.
CH$NAME: Delphinidin-3-O-(2''-O-beta-xylopyranosyl-beta-glucopyranoside)
CH$NAME: Dp 3-Samb
CH$NAME: delphinidin-3-sambubioside
CH$NAME: Cannabinin
CH$NAME: Hibiscin
CH$COMPOUND_CLASS: CLASS1 Flavonoid; CLASS2 Anthocyanin; CLASS3 Delphinidin glycoside
CH$FORMULA: C26H29O16
CH$EXACT_MASS: 597.5
CH$SMILES: c
CH$IUPAC: 1/C4H9NO2/c5-3-1-2-4(6)7/h1-3,5H2,(H,6,7)/f/h6H
CH$LINK: CAS 53158-73-9
AC$INSTRUMENT: Q-Tof Premier, Waters
AC$INSTRUMENT_TYPE: LC-ESI-QTOF
AC$MASS_SPECTROMETRY: MS_TYPE MS2
AC$MASS_SPECTROMETRY: ION_MODE POSITIVE
AC$MASS_SPECTROMETRY: IONIZATION ESI
AC$MASS_SPECTROMETRY: CAPILLARY_VOLTAGE 3.0 kV
AC$MASS_SPECTROMETRY: COLLISION_ENERGY Ramp 5-45 V
AC$MASS_SPECTROMETRY: FRAGMENTATION_MODE LOW-ENERGY CID
AC$MASS_SPECTROMETRY: SOURCE_TEMPERATURE 120 C
AC$CHROMATOGRAPHY: SOLVENT CH3CN/H2O
AC$CHROMATOGRAPHY: SAMPLING_CONE 23.0 V
MS$FOCUSED_ION: ION_TYPE [M]+
MS$FOCUSED_ION: PRECURSOR_M/Z 597.14553
PK$SPLASH: splash10-0udi-0009010000-e791fd76a0de59af2606
PK$NUM_PEAK: 5
PK$PEAK: m/z int. rel.int.
  229.0505 41.02 20
  257.0449 41.58 20
  303.0499 2019 999
  304.049 25.09 12
  597.1455 409.9 202
//
