ACCESSION: MSBNK-RIKEN_ReSpect-PT108400
RECORD_TITLE: peonidin-3-o-beta-d-glucopyranoside; LC-ESI-QTOF; MS2; [M]+
DATE: 2008.07.28
AUTHORS: Matsuda F, Suzuki M, Sawada Y, Plant Science Center, RIKEN.
LICENSE: CC BY-NC
COPYRIGHT: Copyright(C) 2009 Plant Science Center, RIKEN
COMMENT: Build 1 2009/06/24
COMMENT: Acquisition and generation of the data is financially supported in part by CREST/JST.
CH$NAME: peonidin-3-o-beta-d-glucopyranoside
CH$NAME: Pend-3-Glc
CH$NAME: oxycoccicyanin
CH$NAME: peonidin-3-o-beta-d-glucopyranoside
CH$NAME: 3-(Glucosyloxy)-4',5,7-trihydroxy-3'-methoxyflavylium 
CH$NAME: (2S,3R,4S,5S,6R)-2-[5,7-dihydroxy-2-(4-hydroxy-3-methoxyphenyl)chromenylium-3-yl]oxy-6-(hydroxymethyl)oxane-3,4,5-triol
CH$COMPOUND_CLASS: CLASS1 Flavonoid; CLASS2 Anthocyanin; CLASS3 Peonidin glycoside
CH$FORMULA: C22H23O11
CH$EXACT_MASS: 463.41
CH$SMILES: COC1=C(C=CC(=C1)C2=C(C=C3C(=CC(=CC3=[O+]2)O)O)OC4C(C(C(C(O4)CO)O)O)O)O
CH$IUPAC: InChI=1S/C22H22O11/c1-30-15-4-9(2-3-12(15)25)21-16(7-11-13(26)5-10(24)6-14(11)31-21)32-22-20(29)19(28)18(27)17(8-23)33-22/h2-7,17-20,22-23,27-29H,8H2,1H3,(H2-,24,25,26)/p+1/t17-,18-,19+,20-,22-/m1/s1/fC22H23O11/h24-26H/q+1
CH$LINK: CAS 6906-39-4
AC$INSTRUMENT: Q-Tof Premier, Waters
AC$INSTRUMENT_TYPE: LC-ESI-QTOF
AC$MASS_SPECTROMETRY: MS_TYPE MS2
AC$MASS_SPECTROMETRY: ION_MODE POSITIVE
AC$MASS_SPECTROMETRY: IONIZATION ESI
AC$MASS_SPECTROMETRY: CAPILLARY_VOLTAGE 3.0 kV
AC$MASS_SPECTROMETRY: COLLISION_ENERGY Ramp 5-45 V
AC$MASS_SPECTROMETRY: FRAGMENTATION_MODE LOW-ENERGY CID
AC$MASS_SPECTROMETRY: SOURCE_TEMPERATURE 120 C
AC$CHROMATOGRAPHY: SOLVENT CH3CN/H2O
AC$CHROMATOGRAPHY: SAMPLING_CONE 23.0 V
MS$FOCUSED_ION: ION_TYPE [M]+
MS$FOCUSED_ION: PRECURSOR_M/Z 463.12401
PK$SPLASH: splash10-0udi-0039100000-cbeb7a2ec27315d1575a
PK$NUM_PEAK: 4
PK$PEAK: m/z int. rel.int.
  258.0547 567.6 109
  286.0496 1524 294
  301.0717 5175 999
  463.124 905.6 174
//
