ACCESSION: MSBNK-RIKEN_ReSpect-PT212210
RECORD_TITLE: Cyanidin-3-O-(2''-O-beta-glucopyranosyl-beta-glucopyranoside); LC-ESI-QTOF; MS2; [M-2H]-
DATE: 2008.07.29
AUTHORS: Matsuda F, Suzuki M, Sawada Y, Plant Science Center, RIKEN.
LICENSE: CC BY-NC
COPYRIGHT: Copyright(C) 2009 Plant Science Center, RIKEN
COMMENT: Build 1 2009/06/24
COMMENT: Acquisition and generation of the data is financially supported in part by CREST/JST.
CH$NAME: Cyanidin-3-O-(2''-O-beta-glucopyranosyl-beta-glucopyranoside)
CH$NAME: Cy 3-Soph
CH$NAME: cyanidin-3-sophoroside
CH$NAME: (2S,3R,4S,5S,6R)-2-[(2S,3R,4S,5S,6R)-2-[2-(3,4-dihydroxyphenyl)-5,7-dihydroxychromenylium-3-yl]oxy-4,5-dihydroxy-6-(hydroxymethyl)oxan-3-yl]oxy-6-(hydroxymethyl)oxane-3,4,5-triol
CH$COMPOUND_CLASS: CLASS1 Flavonoid; CLASS2 Anthocyanin; CLASS3 Cyanidin glycoside
CH$FORMULA: C27H31O16
CH$EXACT_MASS: 611.53
CH$SMILES: C1=CC(=C(C=C1C2=C(C=C3C(=CC(=CC3=[O+]2)O)O)OC4C(C(C(C(O4)CO)O)O)OC5C(C(C(C(O5)CO)O)O)O)O)O
CH$IUPAC: InChI=1S/C27H30O16/c28-7-17-19(34)21(36)23(38)26(41-17)43-25-22(37)20(35)18(8-29)42-27(25)40-16-6-11-13(32)4-10(30)5-15(11)39-24(16)9-1-2-12(31)14(33)3-9/h1-6,17-23,25-29,34-38H,7-8H2,(H3-,30,31,32,33)/p+1/t17-,18-,19-,20-,21+,22+,23-,25-,26+,27-/m1/s1/fC27H31O16/h30-33H/q+1
CH$LINK: CAS 38820-68-7
AC$INSTRUMENT: Q-Tof Premier, Waters
AC$INSTRUMENT_TYPE: LC-ESI-QTOF
AC$MASS_SPECTROMETRY: MS_TYPE MS2
AC$MASS_SPECTROMETRY: ION_MODE NEGATIVE
AC$MASS_SPECTROMETRY: IONIZATION ESI
AC$MASS_SPECTROMETRY: CAPILLARY_VOLTAGE 3.0 kV
AC$MASS_SPECTROMETRY: COLLISION_ENERGY Ramp 5-45 V
AC$MASS_SPECTROMETRY: FRAGMENTATION_MODE LOW-ENERGY CID
AC$MASS_SPECTROMETRY: SOURCE_TEMPERATURE 120 C
AC$CHROMATOGRAPHY: SOLVENT CH3CN/H2O
AC$CHROMATOGRAPHY: SAMPLING_CONE 35.0 V
MS$FOCUSED_ION: ION_TYPE [M-2H]-
MS$FOCUSED_ION: PRECURSOR_M/Z 609.14558
PK$SPLASH: splash10-053r-0090005000-d1c02e29290f4b1c6caa
PK$NUM_PEAK: 8
PK$PEAK: m/z int. rel.int.
  147.0093 74.89 52
  255.0323 152.2 106
  256.0392 89.48 62
  283.0255 169 117
  284.0338 1433 999
  285.0416 109.3 76
  339.0533 186.4 129
  609.1456 1143 796
//
