ACCESSION: MSBNK-RIKEN_ReSpect-PT110270
RECORD_TITLE: 1-Methylnicotinamide chloride; LC-ESI-QTOF; MS2; [M+H]+
DATE: 2008.07.28
AUTHORS: Matsuda F, Suzuki M, Sawada Y, Plant Science Center, RIKEN.
LICENSE: CC BY-NC
COPYRIGHT: Copyright(C) 2009 Plant Science Center, RIKEN
COMMENT: Build 1 2009/06/24
COMMENT: Acquisition and generation of the data is financially supported in part by CREST/JST.
CH$NAME: 1-Methylnicotinamide chloride
CH$NAME: N-Methylnicotinic acid amide
CH$NAME: 3-Carbamoyl-1-methylpyridinium
CH$NAME: Nicotinamide methiodide
CH$NAME: 1-methylpyridin-1-ium-3-carboxamide
CH$COMPOUND_CLASS: CLASS1 Other; CLASS2 Vitamin
CH$FORMULA: C7H9N2O
CH$EXACT_MASS: 137.16
CH$SMILES: C[N+]1=CC=CC(=C1)C(=O)N
CH$IUPAC: InChI=1S/C7H8N2O/c1-9-4-2-3-6(5-9)7(8)10/h2-5H,1H3,(H-,8,10)/p+1/fC7H9N2O/h8H2/q+1
CH$LINK: CAS 3106-60-3
AC$INSTRUMENT: Q-Tof Premier, Waters
AC$INSTRUMENT_TYPE: LC-ESI-QTOF
AC$MASS_SPECTROMETRY: MS_TYPE MS2
AC$MASS_SPECTROMETRY: ION_MODE POSITIVE
AC$MASS_SPECTROMETRY: IONIZATION ESI
AC$MASS_SPECTROMETRY: CAPILLARY_VOLTAGE 3.0 kV
AC$MASS_SPECTROMETRY: COLLISION_ENERGY Ramp 5-45 V
AC$MASS_SPECTROMETRY: FRAGMENTATION_MODE LOW-ENERGY CID
AC$MASS_SPECTROMETRY: SOURCE_TEMPERATURE 120 C
AC$CHROMATOGRAPHY: SOLVENT CH3CN/H2O
AC$CHROMATOGRAPHY: SAMPLING_CONE 23.0 V
MS$FOCUSED_ION: ION_TYPE [M+H]+
MS$FOCUSED_ION: PRECURSOR_M/Z 137.07146
PK$SPLASH: splash10-000l-6900000000-360fb882a925f7e9edc9
PK$NUM_PEAK: 4
PK$PEAK: m/z int. rel.int.
  78.037 457.9 92
  92.0527 944.1 191
  94.0681 2298 465
  137.0715 4928 999
//
