ACCESSION: MSBNK-RIKEN_ReSpect-PT212273
RECORD_TITLE: Petunidin-3-O-(6''-O-(4'''-O-E-coum)-alpha-rhamnopyranosyl-beta-glucopyranosyl)-5-O-beta-glucopyranoside; LC-ESI-QTOF; MS2; [M-2H]-
DATE: 2008.07.29
AUTHORS: Matsuda F, Suzuki M, Sawada Y, Plant Science Center, RIKEN.
LICENSE: CC BY-NC
COPYRIGHT: Copyright(C) 2009 Plant Science Center, RIKEN
COMMENT: Build 1 2009/06/24
COMMENT: Acquisition and generation of the data is financially supported in part by CREST/JST.
CH$NAME: Petunidin-3-O-(6''-O-(4'''-O-E-coum)-alpha-rhamnopyranosyl-beta-glucopyranosyl)-5-O-beta-glucopyranoside trifluoroacetate salt
CH$NAME: Pt 3-(coumRha)Glc-5-Glc
CH$NAME: Pt 3-coumRut-5-Glc
CH$NAME: Petanin
CH$NAME: Petunidin-3-(p-coumaroyl)-rutinoside-5-glucoside
CH$NAME: Pt 3-O-beta-(4''-O-E-coumaroyl-rutinoside)-5-O-beta-glc
CH$NAME: petunidin 3-o-(6-o-(4-o-(e)-p-coumaroyl-o-alpha-rhamnopyranosyl)-beta-glucopyranoside)-5-o-beta-glucopyranoside
CH$NAME: [(2S,3R,4S,5R)-6-[[(2R,3S,4S,5R)-6-[2-(3,4-dihydroxy-5-methoxyphenyl)-7-hydroxy-5-[(3R,4S,5S,6R)-3,4,5-trihydroxy-6-(hydroxymethyl)oxan-2-yl]oxychromenylium-3-yl]oxy-3,4,5-trihydroxyoxan-2-yl]methoxy]-4,5-dihydroxy-2-methyloxan-3-yl] (E)-3-(4-hydroxyphenyl)prop-2-enoate
CH$COMPOUND_CLASS: CLASS1 Flavonoid; CLASS2 Anthocyanin; CLASS3 Petunidin glycoside
CH$FORMULA: C43H49O23
CH$EXACT_MASS: 933.84
CH$SMILES: CC1C(C(C(C(O1)OCC2C(C(C(C(O2)OC3=C([O+]=C4C=C(C=C(C4=C3)OC5C(C(C(C(O5)CO)O)O)O)O)C6=CC(=C(C(=C6)OC)O)O)O)O)O)O)O)OC(=O)C=CC7=CC=C(C=C7)O
CH$IUPAC: InChI=1S/C43H48O23/c1-16-39(66-29(48)8-5-17-3-6-19(45)7-4-17)35(54)38(57)41(60-16)59-15-28-32(51)34(53)37(56)43(65-28)63-26-13-21-23(61-40(26)18-9-22(47)30(49)25(10-18)58-2)11-20(46)12-24(21)62-42-36(55)33(52)31(50)27(14-44)64-42/h3-13,16,27-28,31-39,41-44,50-57H,14-15H2,1-2H3,(H3-,45,46,47,48,49)/p+1/t16-,27+,28+,31+,32+,33-,34-,35-,36+,37+,38+,39-,41?,42?,43?/m0/s1/fC43H49O23/h45-47,49H/q+1/b8-5+
CH$LINK: CAS 69915-09-9
AC$INSTRUMENT: Q-Tof Premier, Waters
AC$INSTRUMENT_TYPE: LC-ESI-QTOF
AC$MASS_SPECTROMETRY: MS_TYPE MS2
AC$MASS_SPECTROMETRY: ION_MODE NEGATIVE
AC$MASS_SPECTROMETRY: IONIZATION ESI
AC$MASS_SPECTROMETRY: CAPILLARY_VOLTAGE 3.0 kV
AC$MASS_SPECTROMETRY: COLLISION_ENERGY 30 V
AC$MASS_SPECTROMETRY: FRAGMENTATION_MODE LOW-ENERGY CID
AC$MASS_SPECTROMETRY: SOURCE_TEMPERATURE 120 C
AC$CHROMATOGRAPHY: SOLVENT CH3CN/H2O
AC$CHROMATOGRAPHY: SAMPLING_CONE 35.0 V
MS$FOCUSED_ION: ION_TYPE [M-2H]-
MS$FOCUSED_ION: PRECURSOR_M/Z 931.25083
PK$SPLASH: splash10-016r-0007903700-d2bf24992eddbc184a4e
PK$NUM_PEAK: 10
PK$PEAK: m/z int. rel.int.
  125.0277 14.95 91
  314.0509 20.47 125
  315.0605 121.4 745
  476.1081 7.99 49
  477.1162 162.7 999
  623.1734 48.85 299
  643.1888 11.32 69
  769.2147 138.5 850
  931.2509 6.264 38
  931.2856 6.082 37
//
