ACCESSION: MSBNK-RIKEN_ReSpect-PT101630
RECORD_TITLE: Acetylcholine chloride; LC-ESI-QTOF; MS2; [M+H]+
DATE: 2008.07.25
AUTHORS: Matsuda F, Suzuki M, Sawada Y, Plant Science Center, RIKEN.
LICENSE: CC BY-NC
COPYRIGHT: Copyright(C) 2009 Plant Science Center, RIKEN
COMMENT: Build 1 2009/06/24
COMMENT: Acquisition and generation of the data is financially supported in part by CREST/JST.
CH$NAME: Acetylcholine chloride
CH$NAME: Ach
CH$NAME: 2-Acetoxyethyltrimethylammonium chloride
CH$NAME: Acetylcholinium chloride
CH$NAME: Aceolinc
CH$NAME: Arterocholine
CH$NAME: Miochol
CH$NAME: Ovisot
CH$NAME: 2-acetyloxyethyl-trimethylazanium
CH$COMPOUND_CLASS: CLASS1 Other; CLASS2 Other; CLASS3 Acetyl choline
CH$FORMULA: C7H16NO2
CH$EXACT_MASS: 146.21
CH$SMILES: CC(=O)OCC[N+](C)(C)C
CH$IUPAC: InChI=1S/C7H16NO2/c1-7(9)10-6-5-8(2,3)4/h5-6H2,1-4H3/q+1
CH$LINK: CAS 51-84-3
AC$INSTRUMENT: Q-Tof Premier, Waters
AC$INSTRUMENT_TYPE: LC-ESI-QTOF
AC$MASS_SPECTROMETRY: MS_TYPE MS2
AC$MASS_SPECTROMETRY: ION_MODE POSITIVE
AC$MASS_SPECTROMETRY: IONIZATION ESI
AC$MASS_SPECTROMETRY: CAPILLARY_VOLTAGE 3.0 kV
AC$MASS_SPECTROMETRY: COLLISION_ENERGY Ramp 5-45 V
AC$MASS_SPECTROMETRY: FRAGMENTATION_MODE LOW-ENERGY CID
AC$MASS_SPECTROMETRY: SOURCE_TEMPERATURE 120 C
AC$CHROMATOGRAPHY: SOLVENT CH3CN/H2O
AC$CHROMATOGRAPHY: SAMPLING_CONE 23.0 V
MS$FOCUSED_ION: ION_TYPE [M+H]+
MS$FOCUSED_ION: PRECURSOR_M/Z 146.11807
PK$SPLASH: splash10-0002-0900000000-f7fe18f2371596dc7333
PK$NUM_PEAK: 3
PK$PEAK: m/z int. rel.int.
  87.0457 351.2 105
  145.9591 38.05 11
  146.1181 3327 999
//
