ACCESSION: MSBNK-RIKEN_ReSpect-PT212140
RECORD_TITLE: Cyanidin-3-O-alpha-arabinopyranoside; LC-ESI-QTOF; MS2; [M-2H]-
DATE: 2008.07.29
AUTHORS: Matsuda F, Suzuki M, Sawada Y, Plant Science Center, RIKEN.
LICENSE: CC BY-NC
COPYRIGHT: Copyright(C) 2009 Plant Science Center, RIKEN
COMMENT: Build 1 2009/06/24
COMMENT: Acquisition and generation of the data is financially supported in part by CREST/JST.
CH$NAME: Cyanidin-3-O-alpha-arabinopyranoside
CH$NAME: Cy 3-Ara
CH$COMPOUND_CLASS: CLASS1 Flavonoid; CLASS2 Anthocyanin; CLASS3 Cyanidin glycoside
CH$FORMULA: C20H19O10
CH$EXACT_MASS: 419.36
CH$SMILES: c
CH$IUPAC: 1/C4H9NO2/c5-3-1-2-4(6)7/h1-3,5H2,(H,6,7)/f/h6H
CH$LINK: CAS 57186-11-5
AC$INSTRUMENT: Q-Tof Premier, Waters
AC$INSTRUMENT_TYPE: LC-ESI-QTOF
AC$MASS_SPECTROMETRY: MS_TYPE MS2
AC$MASS_SPECTROMETRY: ION_MODE NEGATIVE
AC$MASS_SPECTROMETRY: IONIZATION ESI
AC$MASS_SPECTROMETRY: CAPILLARY_VOLTAGE 3.0 kV
AC$MASS_SPECTROMETRY: COLLISION_ENERGY Ramp 5-45 V
AC$MASS_SPECTROMETRY: FRAGMENTATION_MODE LOW-ENERGY CID
AC$MASS_SPECTROMETRY: SOURCE_TEMPERATURE 120 C
AC$CHROMATOGRAPHY: SOLVENT CH3CN/H2O
AC$CHROMATOGRAPHY: SAMPLING_CONE 35.0 V
MS$FOCUSED_ION: ION_TYPE [M-2H]-
MS$FOCUSED_ION: PRECURSOR_M/Z 417.08219
PK$SPLASH: splash10-001i-0190200000-30d23a002ee5615bcf51
PK$NUM_PEAK: 13
PK$PEAK: m/z int. rel.int.
  125.025 41.3 50
  147.0085 83.8 101
  148.0162 49.75 60
  183.0464 42.33 51
  211.0413 70.92 86
  227.0353 71.4 86
  239.0367 48.96 59
  255.0306 134.5 163
  256.0384 57.88 70
  283.0255 87.17 105
  284.0338 823 999
  285.0412 201.7 244
  417.0822 406.2 493
//
