ACCESSION: MSBNK-RIKEN_ReSpect-PT209143
RECORD_TITLE: Isorhamnetin-3-Glucoside-4'-Glucoside; LC-ESI-QTOF; MS2; [M-H]-
DATE: 2008.09.26
AUTHORS: Matsuda F, Suzuki M, Sawada Y, Plant Science Center, RIKEN.
LICENSE: CC BY-NC
COPYRIGHT: Copyright(C) 2009 Plant Science Center, RIKEN
COMMENT: Build 1 2009/06/24
COMMENT: Acquisition and generation of the data is financially supported in part by CREST/JST.
CH$NAME: Isorhamnetin-3-Glucoside-4'-Glucoside
CH$NAME: Isor-3-Glc-4'-Glc
CH$NAME: Isorhamnetin 3,4'-diglucoside
CH$NAME: Dactylin
CH$NAME: Dactilin
CH$COMPOUND_CLASS: CLASS1 Flavonoid; CLASS2 Flavonol; CLASS3 Isorhamnetin glycoside
CH$FORMULA: C28H32O16
CH$EXACT_MASS: 640.54
CH$SMILES: c
CH$IUPAC: 1/C4H9NO2/c5-3-1-2-4(6)7/h1-3,5H2,(H,6,7)/f/h6H
CH$LINK: CAS 28288-98-4
AC$INSTRUMENT: Q-Tof Premier, Waters
AC$INSTRUMENT_TYPE: LC-ESI-QTOF
AC$MASS_SPECTROMETRY: MS_TYPE MS2
AC$MASS_SPECTROMETRY: ION_MODE NEGATIVE
AC$MASS_SPECTROMETRY: IONIZATION ESI
AC$MASS_SPECTROMETRY: CAPILLARY_VOLTAGE 3.0 kV
AC$MASS_SPECTROMETRY: COLLISION_ENERGY 30 V
AC$MASS_SPECTROMETRY: FRAGMENTATION_MODE LOW-ENERGY CID
AC$MASS_SPECTROMETRY: SOURCE_TEMPERATURE 120 C
AC$CHROMATOGRAPHY: SOLVENT CH3CN/H2O
AC$CHROMATOGRAPHY: SAMPLING_CONE 35.0 V
MS$FOCUSED_ION: ION_TYPE [M-H]-
MS$FOCUSED_ION: PRECURSOR_M/Z 623.16121
PK$SPLASH: splash10-014i-0009000000-8cace4ef6dc62f52bdb9
PK$NUM_PEAK: 6
PK$PEAK: m/z int. rel.int.
  299.0186 35.44 72
  300.0281 48.84 100
  314.0449 189.9 388
  315.0522 487.9 999
  316.0577 63.65 130
  623.1612 42.38 86
//
