ACCESSION: MSBNK-RIKEN_ReSpect-PT212320
RECORD_TITLE: alpha-L-(-)-Fucose 1-phosphate bis(cyclohexylammonium) salt; LC-ESI-QTOF; MS2; [M-H]-
DATE: 2008.07.29
AUTHORS: Matsuda F, Suzuki M, Sawada Y, Plant Science Center, RIKEN.
LICENSE: CC BY-NC
COPYRIGHT: Copyright(C) 2009 Plant Science Center, RIKEN
COMMENT: Build 1 2009/06/24
COMMENT: Acquisition and generation of the data is financially supported in part by CREST/JST.
CH$NAME: alpha-L-(-)-Fucose 1-phosphate bis(cyclohexylammonium) salt 
CH$NAME: alpha-Fuc-1P
CH$NAME: alpha-Fucopyranosyl phosphate
CH$NAME: 6-Deoxy-alpha-L-galactose phosphate
CH$NAME: [(2S,3S,4R,5S,6S)-3,4,5-trihydroxy-6-methyloxan-2-yl] dihydrogen phosphate
CH$COMPOUND_CLASS: CLASS1 Other; CLASS2 Suger phosphate; CLASS3 Galactose phosphate
CH$FORMULA: C6H13O8P
CH$EXACT_MASS: 244.14
CH$SMILES: CC1C(C(C(C(O1)OP(=O)(O)O)O)O)O
CH$IUPAC: InChI=1S/C6H13O8P/c1-2-3(7)4(8)5(9)6(13-2)14-15(10,11)12/h2-9H,1H3,(H2,10,11,12)/t2-,3+,4+,5-,6-/m0/s1/f/h10-11H
CH$LINK: CAS 24333-03-7
AC$INSTRUMENT: Q-Tof Premier, Waters
AC$INSTRUMENT_TYPE: LC-ESI-QTOF
AC$MASS_SPECTROMETRY: MS_TYPE MS2
AC$MASS_SPECTROMETRY: ION_MODE NEGATIVE
AC$MASS_SPECTROMETRY: IONIZATION ESI
AC$MASS_SPECTROMETRY: CAPILLARY_VOLTAGE 3.0 kV
AC$MASS_SPECTROMETRY: COLLISION_ENERGY Ramp 5-45 V
AC$MASS_SPECTROMETRY: FRAGMENTATION_MODE LOW-ENERGY CID
AC$MASS_SPECTROMETRY: SOURCE_TEMPERATURE 120 C
AC$CHROMATOGRAPHY: SOLVENT CH3CN/H2O
AC$CHROMATOGRAPHY: SAMPLING_CONE 35.0 V
MS$FOCUSED_ION: ION_TYPE [M-H]-
MS$FOCUSED_ION: PRECURSOR_M/Z 241.01135
PK$SPLASH: splash10-0229-0490000000-a983ee4ec6b1e08f5753
PK$NUM_PEAK: 6
PK$PEAK: m/z int. rel.int.
  78.9924 8.739 104
  145.9462 9.34 112
  162.9573 52.42 629
  222.9478 83.25 999
  225.1148 7.756 93
  240.9688 38.46 461
//
