ACCESSION: MSBNK-RIKEN_ReSpect-PT110240
RECORD_TITLE: O-Phosphocholine; LC-ESI-QTOF; MS2; [M+H]+
DATE: 2008.07.28
AUTHORS: Matsuda F, Suzuki M, Sawada Y, Plant Science Center, RIKEN.
LICENSE: CC BY-NC
COPYRIGHT: Copyright(C) 2009 Plant Science Center, RIKEN
COMMENT: Build 1 2009/06/24
COMMENT: Acquisition and generation of the data is financially supported in part by CREST/JST.
CH$NAME: O-Phosphocholine
CH$NAME: Phosphocholine chloride calcium salt tetrahydrate
CH$NAME: Choline phosphate
CH$NAME: Phosphorylcholine
CH$NAME: N-Trimethyl-2-aminoethylphosphonate
CH$NAME: trimethyl-(2-phosphonooxyethyl)azanium
CH$COMPOUND_CLASS: CLASS1 Other; CLASS2 Coline; CLASS3 Phosphorylcholine
CH$FORMULA: C5H15NO4P
CH$EXACT_MASS: 184.15
CH$SMILES: C[N+](C)(C)CCOP(=O)(O)O
CH$IUPAC: InChI=1S/C5H14NO4P/c1-6(2,3)4-5-10-11(7,8)9/h4-5H2,1-3H3,(H-,7,8,9)/p+1/fC5H15NO4P/h7-8H/q+1
CH$LINK: CAS 107-73-3
AC$INSTRUMENT: Q-Tof Premier, Waters
AC$INSTRUMENT_TYPE: LC-ESI-QTOF
AC$MASS_SPECTROMETRY: MS_TYPE MS2
AC$MASS_SPECTROMETRY: ION_MODE POSITIVE
AC$MASS_SPECTROMETRY: IONIZATION ESI
AC$MASS_SPECTROMETRY: CAPILLARY_VOLTAGE 3.0 kV
AC$MASS_SPECTROMETRY: COLLISION_ENERGY Ramp 5-45 V
AC$MASS_SPECTROMETRY: FRAGMENTATION_MODE LOW-ENERGY CID
AC$MASS_SPECTROMETRY: SOURCE_TEMPERATURE 120 C
AC$CHROMATOGRAPHY: SOLVENT CH3CN/H2O
AC$CHROMATOGRAPHY: SAMPLING_CONE 23.0 V
MS$FOCUSED_ION: ION_TYPE [M+H]+
MS$FOCUSED_ION: PRECURSOR_M/Z 184.07384
PK$SPLASH: splash10-0040-6900000000-8bbb64f5a93a59787a0d
PK$NUM_PEAK: 5
PK$PEAK: m/z int. rel.int.
  71.0742 90.79 109
  86.097 579.7 697
  98.9852 291.5 350
  125.001 572.5 689
  184.0738 830 999
//
