ACCESSION: MSBNK-RIKEN_ReSpect-PT108440
RECORD_TITLE: 2',6'-Dihydroxy-4-Methoxychalcone-4'-O-Neohesperidoside; LC-ESI-QTOF; MS2; [M+H]+
DATE: 2008.07.28
AUTHORS: Matsuda F, Suzuki M, Sawada Y, Plant Science Center, RIKEN.
LICENSE: CC BY-NC
COPYRIGHT: Copyright(C) 2009 Plant Science Center, RIKEN
COMMENT: Build 1 2009/06/24
COMMENT: Acquisition and generation of the data is financially supported in part by CREST/JST.
CH$NAME: 2',6'-Dihydroxy-4-Methoxychalcone-4'-O-Neohesperidoside
CH$NAME: Dhmc-7-Glc-2pp-Man
CH$COMPOUND_CLASS: CLASS1 Flavonoid; CLASS2 Chalcone; CLASS3 Chalcone glycoside
CH$FORMULA: C28H34O14
CH$EXACT_MASS: 594.56
CH$SMILES: c
CH$IUPAC: 1/C4H9NO2/c5-3-1-2-4(6)7/h1-3,5H2,(H,6,7)/f/h6H
AC$INSTRUMENT: Q-Tof Premier, Waters
AC$INSTRUMENT_TYPE: LC-ESI-QTOF
AC$MASS_SPECTROMETRY: MS_TYPE MS2
AC$MASS_SPECTROMETRY: ION_MODE POSITIVE
AC$MASS_SPECTROMETRY: IONIZATION ESI
AC$MASS_SPECTROMETRY: CAPILLARY_VOLTAGE 3.0 kV
AC$MASS_SPECTROMETRY: COLLISION_ENERGY Ramp 5-45 V
AC$MASS_SPECTROMETRY: FRAGMENTATION_MODE LOW-ENERGY CID
AC$MASS_SPECTROMETRY: SOURCE_TEMPERATURE 120 C
AC$CHROMATOGRAPHY: SOLVENT CH3CN/H2O
AC$CHROMATOGRAPHY: SAMPLING_CONE 23.0 V
MS$FOCUSED_ION: ION_TYPE [M+H]+
MS$FOCUSED_ION: PRECURSOR_M/Z 595.20265
PK$SPLASH: splash10-0f79-1980000000-3d13105e1b9d1c3518a3
PK$NUM_PEAK: 12
PK$PEAK: m/z int. rel.int.
  71.0503 111.9 49
  85.0293 231 102
  129.0553 107.7 47
  133.0659 79.44 35
  135.0818 75.77 33
  153.0188 1503 666
  161.0603 542.9 240
  195.0293 97.33 43
  287.0908 2254 999
  433.149 83.74 37
  449.144 123.6 54
  595.2026 118.7 52
//
