ACCESSION: MSBNK-RIKEN_ReSpect-PT102370
RECORD_TITLE: Gly-Gly; LC-ESI-QTOF; MS2; [M+H]+
DATE: 2008.07.25
AUTHORS: Matsuda F, Suzuki M, Sawada Y, Plant Science Center, RIKEN.
LICENSE: CC BY-NC
COPYRIGHT: Copyright(C) 2009 Plant Science Center, RIKEN
COMMENT: Build 1 2009/06/24
COMMENT: Acquisition and generation of the data is financially supported in part by CREST/JST.
CH$NAME: Gly-Gly
CH$NAME: Glycylglycine
CH$NAME: Diglycine
CH$NAME: 2-(Aminoacetamido)acetic Acid
CH$NAME: Glycine dipeptide
CH$NAME: 2-[(2-aminoacetyl)amino]acetic acid
CH$COMPOUND_CLASS: CLASS1 Amino acid; CLASS2 Glycine
CH$FORMULA: C4H8N2O3
CH$EXACT_MASS: 132.12
CH$SMILES: C(C(=O)NCC(=O)O)N
CH$IUPAC: InChI=1S/C4H8N2O3/c5-1-3(7)6-2-4(8)9/h1-2,5H2,(H,6,7)(H,8,9)/f/h6,8H
CH$LINK: CAS 556-50-3
AC$INSTRUMENT: Q-Tof Premier, Waters
AC$INSTRUMENT_TYPE: LC-ESI-QTOF
AC$MASS_SPECTROMETRY: MS_TYPE MS2
AC$MASS_SPECTROMETRY: ION_MODE POSITIVE
AC$MASS_SPECTROMETRY: IONIZATION ESI
AC$MASS_SPECTROMETRY: CAPILLARY_VOLTAGE 3.0 kV
AC$MASS_SPECTROMETRY: COLLISION_ENERGY Ramp 5-45 V
AC$MASS_SPECTROMETRY: FRAGMENTATION_MODE LOW-ENERGY CID
AC$MASS_SPECTROMETRY: SOURCE_TEMPERATURE 120 C
AC$CHROMATOGRAPHY: SOLVENT CH3CN/H2O
AC$CHROMATOGRAPHY: SAMPLING_CONE 23.0 V
MS$FOCUSED_ION: ION_TYPE [M+H]+
MS$FOCUSED_ION: PRECURSOR_M/Z 133.06129
PK$SPLASH: splash10-001i-0900000000-7bab12a2074040375089
PK$NUM_PEAK: 2
PK$PEAK: m/z int. rel.int.
  112.0165 52.32 89
  133.0613 581.6 999
//
