ACCESSION: MSBNK-RIKEN_ReSpect-PT212150
RECORD_TITLE: Peonidin-3-O-beta-galactopyranoside; LC-ESI-QTOF; MS2; [M-2H]-
DATE: 2008.07.29
AUTHORS: Matsuda F, Suzuki M, Sawada Y, Plant Science Center, RIKEN.
LICENSE: CC BY-NC
COPYRIGHT: Copyright(C) 2009 Plant Science Center, RIKEN
COMMENT: Build 1 2009/06/24
COMMENT: Acquisition and generation of the data is financially supported in part by CREST/JST.
CH$NAME: Peonidin-3-O-beta-galactopyranoside
CH$NAME: Pn 3-Gal
CH$COMPOUND_CLASS: CLASS1 Flavonoid; CLASS2 Anthocyanin; CLASS3 Peonidin glycoside
CH$FORMULA: C22H23O11
CH$EXACT_MASS: 463.41
CH$SMILES: c
CH$IUPAC: 1/C4H9NO2/c5-3-1-2-4(6)7/h1-3,5H2,(H,6,7)/f/h6H
CH$LINK: CAS 28148-89-2
AC$INSTRUMENT: Q-Tof Premier, Waters
AC$INSTRUMENT_TYPE: LC-ESI-QTOF
AC$MASS_SPECTROMETRY: MS_TYPE MS2
AC$MASS_SPECTROMETRY: ION_MODE NEGATIVE
AC$MASS_SPECTROMETRY: IONIZATION ESI
AC$MASS_SPECTROMETRY: CAPILLARY_VOLTAGE 3.0 kV
AC$MASS_SPECTROMETRY: COLLISION_ENERGY Ramp 5-45 V
AC$MASS_SPECTROMETRY: FRAGMENTATION_MODE LOW-ENERGY CID
AC$MASS_SPECTROMETRY: SOURCE_TEMPERATURE 120 C
AC$CHROMATOGRAPHY: SOLVENT CH3CN/H2O
AC$CHROMATOGRAPHY: SAMPLING_CONE 35.0 V
MS$FOCUSED_ION: ION_TYPE [M-2H]-
MS$FOCUSED_ION: PRECURSOR_M/Z 461.10841
PK$SPLASH: splash10-01pk-0090200000-b9eb977e2a8f55947396
PK$NUM_PEAK: 9
PK$PEAK: m/z int. rel.int.
  211.0406 125.7 159
  227.0354 206.2 262
  239.0366 84.43 107
  255.0311 283 359
  283.0263 516.5 656
  284.0342 180.5 229
  298.0497 785.4 999
  299.0579 502.5 639
  461.1084 598.4 761
//
