ACCESSION: MSBNK-RIKEN_ReSpect-PT206220
RECORD_TITLE: Disodium Glycerophoshate 5.5-Hydrate; LC-ESI-QTOF; MS2; [M-H]-
DATE: 2008.07.28
AUTHORS: Matsuda F, Suzuki M, Sawada Y, Plant Science Center, RIKEN.
LICENSE: CC BY-NC
COPYRIGHT: Copyright(C) 2009 Plant Science Center, RIKEN
COMMENT: Build 1 2009/06/24
COMMENT: Acquisition and generation of the data is financially supported in part by CREST/JST.
CH$NAME: Disodium Glycerophoshate 5.5-Hydrate
CH$NAME: Glycerol Phosphate 
CH$COMPOUND_CLASS: CLASS1 Other; CLASS2 Suger phosphate; CLASS3 Glycero phoshate
CH$FORMULA: C3H9O6P
CH$EXACT_MASS: 172.07
CH$SMILES: c
CH$IUPAC: 1/C4H9NO2/c5-3-1-2-4(6)7/h1-3,5H2,(H,6,7)/f/h6H
AC$INSTRUMENT: Q-Tof Premier, Waters
AC$INSTRUMENT_TYPE: LC-ESI-QTOF
AC$MASS_SPECTROMETRY: MS_TYPE MS2
AC$MASS_SPECTROMETRY: ION_MODE NEGATIVE
AC$MASS_SPECTROMETRY: IONIZATION ESI
AC$MASS_SPECTROMETRY: CAPILLARY_VOLTAGE 3.0 kV
AC$MASS_SPECTROMETRY: COLLISION_ENERGY Ramp 5-45 V
AC$MASS_SPECTROMETRY: FRAGMENTATION_MODE LOW-ENERGY CID
AC$MASS_SPECTROMETRY: SOURCE_TEMPERATURE 120 C
AC$CHROMATOGRAPHY: SOLVENT CH3CN/H2O
AC$CHROMATOGRAPHY: SAMPLING_CONE 35.0 V
MS$FOCUSED_ION: ION_TYPE [M-H]-
MS$FOCUSED_ION: PRECURSOR_M/Z 171.00587
PK$SPLASH: splash10-004i-9200000000-16287778217b04630cff
PK$NUM_PEAK: 3
PK$PEAK: m/z int. rel.int.
  78.9599 820.5 999
  96.9701 66.57 81
  171.0059 203 247
//
