ACCESSION: MSBNK-RIKEN_ReSpect-PT101330
RECORD_TITLE: S-(5'-Adenosyl)-L-methionine chloride; LC-ESI-QTOF; MS2; [M+H]+
DATE: 2008.07.24
AUTHORS: Matsuda F, Suzuki M, Sawada Y, Plant Science Center, RIKEN.
LICENSE: CC BY-NC
COPYRIGHT: Copyright(C) 2009 Plant Science Center, RIKEN
COMMENT: Build 1 2009/06/24
COMMENT: Acquisition and generation of the data is financially supported in part by CREST/JST.
CH$NAME: S-(5'-Adenosyl)-L-methionine chloride
CH$NAME: AdoMet
CH$NAME: SAM chloride
CH$NAME: Active methionine
CH$NAME: (2S)-2-amino-4-[[(2S,3S,4R,5R)-5-(6-aminopurin-9-yl)-3,4-dihydroxyoxolan-2-yl]methyl-methylsulfonio]butanoate
CH$COMPOUND_CLASS: CLASS1 Amino acid; CLASS2 Methionine
CH$FORMULA: C15H23N6O5S
CH$EXACT_MASS: 399.45
CH$SMILES: C[S+](CCC(C(=O)[O-])N)CC1C(C(C(O1)N2C=NC3=C2N=CN=C3N)O)O
CH$IUPAC: InChI=1S/C15H22N6O5S/c1-27(3-2-7(16)15(24)25)4-8-10(22)11(23)14(26-8)21-6-20-9-12(17)18-5-19-13(9)21/h5-8,10-11,14,22-23H,2-4,16H2,1H3,(H2-,17,18,19,24,25)/t7-,8+,10+,11+,14+,27?/m0/s1/f/h17H2
CH$LINK: CAS 29908-03-0
AC$INSTRUMENT: Q-Tof Premier, Waters
AC$INSTRUMENT_TYPE: LC-ESI-QTOF
AC$MASS_SPECTROMETRY: MS_TYPE MS2
AC$MASS_SPECTROMETRY: ION_MODE POSITIVE
AC$MASS_SPECTROMETRY: IONIZATION ESI
AC$MASS_SPECTROMETRY: CAPILLARY_VOLTAGE 3.0 kV
AC$MASS_SPECTROMETRY: COLLISION_ENERGY Ramp 5-45 V
AC$MASS_SPECTROMETRY: FRAGMENTATION_MODE LOW-ENERGY CID
AC$MASS_SPECTROMETRY: SOURCE_TEMPERATURE 120 C
AC$CHROMATOGRAPHY: SOLVENT CH3CN/H2O
AC$CHROMATOGRAPHY: SAMPLING_CONE 23.0 V
MS$FOCUSED_ION: ION_TYPE [M+H]+
MS$FOCUSED_ION: PRECURSOR_M/Z 399.14503
PK$SPLASH: splash10-0002-0009000000-adcbc32af8959a06de2f
PK$NUM_PEAK: 8
PK$PEAK: m/z int. rel.int.
  250.0971 2.466 139
  398.6728 1.153 65
  398.843 0.9425 53
  398.9208 1.07 60
  399.0087 1.87 105
  399.0478 1.811 102
  399.1472 17.69 999
  400.1519 1.209 68
//
