ACCESSION: MSBNK-RIKEN_ReSpect-PT212220
RECORD_TITLE: Peonidin-3,5-O-di-beta-glucopyranoside; LC-ESI-QTOF; MS2; [M-2H]-
DATE: 2008.07.29
AUTHORS: Matsuda F, Suzuki M, Sawada Y, Plant Science Center, RIKEN.
LICENSE: CC BY-NC
COPYRIGHT: Copyright(C) 2009 Plant Science Center, RIKEN
COMMENT: Build 1 2009/06/24
COMMENT: Acquisition and generation of the data is financially supported in part by CREST/JST.
CH$NAME: Peonidin-3,5-O-di-beta-glucopyranoside
CH$NAME: Pn 3,5-di-Glc
CH$NAME: Peonin
CH$NAME: Paeonin
CH$NAME: (2S,3R,4S,5S,6R)-2-[7-hydroxy-2-(4-hydroxy-3-methoxyphenyl)-5-[(2S,3R,4S,5S,6R)-3,4,5-trihydroxy-6-(hydroxymethyl)oxan-2-yl]oxychromenylium-3-yl]oxy-6-(hydroxymethyl)oxane-3,4,5-triol
CH$COMPOUND_CLASS: CLASS1 Flavonoid; CLASS2 Anthocyanin; CLASS3 Peonidin glycoside
CH$FORMULA: C28H33O16
CH$EXACT_MASS: 625.55
CH$SMILES: COC1=C(C=CC(=C1)C2=C(C=C3C(=CC(=CC3=[O+]2)O)OC4C(C(C(C(O4)CO)O)O)O)OC5C(C(C(C(O5)CO)O)O)O)O
CH$IUPAC: InChI=1S/C28H32O16/c1-39-16-4-10(2-3-13(16)32)26-17(42-28-25(38)23(36)21(34)19(9-30)44-28)7-12-14(40-26)5-11(31)6-15(12)41-27-24(37)22(35)20(33)18(8-29)43-27/h2-7,18-25,27-30,33-38H,8-9H2,1H3,(H-,31,32)/p+1/t18-,19-,20-,21-,22+,23+,24-,25-,27-,28-/m1/s1/fC28H33O16/h31-32H/q+1
CH$LINK: CAS 132-37-6
AC$INSTRUMENT: Q-Tof Premier, Waters
AC$INSTRUMENT_TYPE: LC-ESI-QTOF
AC$MASS_SPECTROMETRY: MS_TYPE MS2
AC$MASS_SPECTROMETRY: ION_MODE NEGATIVE
AC$MASS_SPECTROMETRY: IONIZATION ESI
AC$MASS_SPECTROMETRY: CAPILLARY_VOLTAGE 3.0 kV
AC$MASS_SPECTROMETRY: COLLISION_ENERGY Ramp 5-45 V
AC$MASS_SPECTROMETRY: FRAGMENTATION_MODE LOW-ENERGY CID
AC$MASS_SPECTROMETRY: SOURCE_TEMPERATURE 120 C
AC$CHROMATOGRAPHY: SOLVENT CH3CN/H2O
AC$CHROMATOGRAPHY: SAMPLING_CONE 35.0 V
MS$FOCUSED_ION: ION_TYPE [M-2H]-
MS$FOCUSED_ION: PRECURSOR_M/Z 623.16123
PK$SPLASH: splash10-01ot-0090401000-cf99b6c6de5cbbb30fbd
PK$NUM_PEAK: 9
PK$PEAK: m/z int. rel.int.
  147.0073 9.596 54
  283.0272 16.54 93
  284.0342 40.82 231
  297.0421 63.34 358
  298.0521 19.11 108
  299.0569 176.4 999
  460.1021 26.47 149
  461.1102 147 832
  623.1613 53.61 303
//
