ACCESSION: MSBNK-RIKEN_ReSpect-PT212120
RECORD_TITLE: Delphinidin; LC-ESI-QTOF; MS2; [M-2H]-
DATE: 2008.07.29
AUTHORS: Matsuda F, Suzuki M, Sawada Y, Plant Science Center, RIKEN.
LICENSE: CC BY-NC
COPYRIGHT: Copyright(C) 2009 Plant Science Center, RIKEN
COMMENT: Build 1 2009/06/24
COMMENT: Acquisition and generation of the data is financially supported in part by CREST/JST.
CH$NAME: Delphinidin
CH$NAME: Dp
CH$NAME: Delphinidine
CH$NAME: Delphinidol
CH$NAME: Delfinidol
CH$NAME: Ephdine
CH$NAME: 3,3',4',5,5',7-Hexahydroxy-2-phenylbenzopyrylium
CH$NAME: 3,3',4',5,5',7-Hexahydroxyflavylium
CH$NAME: 3,5,7-trihydroxy-2-(3,4,5-trihydroxyphenyl)benzopyrylium
CH$NAME: 2-(3,4,5-trihydroxyphenyl)chromenylium-3,5,7-triol
CH$COMPOUND_CLASS: CLASS1 Flavonoid; CLASS2 Anthocyanin; CLASS3 Delphinidin
CH$FORMULA: C15H11O7
CH$EXACT_MASS: 303.24
CH$SMILES: C1=C(C=C(C(=C1O)O)O)C2=C(C=C3C(=CC(=CC3=[O+]2)O)O)O
CH$IUPAC: InChI=1S/C15H10O7/c16-7-3-9(17)8-5-12(20)15(22-13(8)4-7)6-1-10(18)14(21)11(19)2-6/h1-5H,(H5-,16,17,18,19,20,21)/p+1/fC15H11O7/h16-21H/q+1
CH$LINK: CAS 528-53-0
AC$INSTRUMENT: Q-Tof Premier, Waters
AC$INSTRUMENT_TYPE: LC-ESI-QTOF
AC$MASS_SPECTROMETRY: MS_TYPE MS2
AC$MASS_SPECTROMETRY: ION_MODE NEGATIVE
AC$MASS_SPECTROMETRY: IONIZATION ESI
AC$MASS_SPECTROMETRY: CAPILLARY_VOLTAGE 3.0 kV
AC$MASS_SPECTROMETRY: COLLISION_ENERGY Ramp 5-45 V
AC$MASS_SPECTROMETRY: FRAGMENTATION_MODE LOW-ENERGY CID
AC$MASS_SPECTROMETRY: SOURCE_TEMPERATURE 120 C
AC$CHROMATOGRAPHY: SOLVENT CH3CN/H2O
AC$CHROMATOGRAPHY: SAMPLING_CONE 35.0 V
MS$FOCUSED_ION: ION_TYPE [M-2H]-
MS$FOCUSED_ION: PRECURSOR_M/Z 301.03485
PK$SPLASH: splash10-0ue9-0389000000-6ee390a09ee2867ae6d9
PK$NUM_PEAK: 9
PK$PEAK: m/z int. rel.int.
  156.8993 4.376 368
  160.894 3.655 307
  208.9769 2.47 207
  268.9517 2.457 206
  283.0015 7.964 670
  284.9957 4.419 371
  300.7894 4.007 337
  300.9888 2.452 206
  301.0349 11.87 999
//
