ACCESSION: MSBNK-RIKEN_ReSpect-PT112150
RECORD_TITLE: Peonidin-3-O-beta-galactopyranoside; LC-ESI-QTOF; MS2; [M]+
DATE: 2008.07.28
AUTHORS: Matsuda F, Suzuki M, Sawada Y, Plant Science Center, RIKEN.
LICENSE: CC BY-NC
COPYRIGHT: Copyright(C) 2009 Plant Science Center, RIKEN
COMMENT: Build 1 2009/06/24
COMMENT: Acquisition and generation of the data is financially supported in part by CREST/JST.
CH$NAME: Peonidin-3-O-beta-galactopyranoside
CH$NAME: Pn 3-Gal
CH$COMPOUND_CLASS: CLASS1 Flavonoid; CLASS2 Anthocyanin; CLASS3 Peonidin glycoside
CH$FORMULA: C22H23O11
CH$EXACT_MASS: 463.41
CH$SMILES: c
CH$IUPAC: 1/C4H9NO2/c5-3-1-2-4(6)7/h1-3,5H2,(H,6,7)/f/h6H
CH$LINK: CAS 28148-89-2
AC$INSTRUMENT: Q-Tof Premier, Waters
AC$INSTRUMENT_TYPE: LC-ESI-QTOF
AC$MASS_SPECTROMETRY: MS_TYPE MS2
AC$MASS_SPECTROMETRY: ION_MODE POSITIVE
AC$MASS_SPECTROMETRY: IONIZATION ESI
AC$MASS_SPECTROMETRY: CAPILLARY_VOLTAGE 3.0 kV
AC$MASS_SPECTROMETRY: COLLISION_ENERGY Ramp 5-45 V
AC$MASS_SPECTROMETRY: FRAGMENTATION_MODE LOW-ENERGY CID
AC$MASS_SPECTROMETRY: SOURCE_TEMPERATURE 120 C
AC$CHROMATOGRAPHY: SOLVENT CH3CN/H2O
AC$CHROMATOGRAPHY: SAMPLING_CONE 23.0 V
MS$FOCUSED_ION: ION_TYPE [M]+
MS$FOCUSED_ION: PRECURSOR_M/Z 463.12401
PK$SPLASH: splash10-0udi-0059100000-652213cfd6d65321c53f
PK$NUM_PEAK: 9
PK$PEAK: m/z int. rel.int.
  201.0575 440.8 68
  202.0659 315 49
  229.0534 329.8 51
  230.0606 339 53
  257.0478 217.1 33
  258.0557 689.7 107
  286.0499 1901 297
  301.0718 6384 999
  463.124 1216 190
//
