ACCESSION: MSBNK-RIKEN_ReSpect-PT212180
RECORD_TITLE: Petunidin-3-O-beta-glucopyranoside; LC-ESI-QTOF; MS2; [M-2H]-
DATE: 2008.07.29
AUTHORS: Matsuda F, Suzuki M, Sawada Y, Plant Science Center, RIKEN.
LICENSE: CC BY-NC
COPYRIGHT: Copyright(C) 2009 Plant Science Center, RIKEN
COMMENT: Build 1 2009/06/24
COMMENT: Acquisition and generation of the data is financially supported in part by CREST/JST.
CH$NAME: Petunidin-3-O-beta-glucopyranoside
CH$NAME: Pt 3-Glc
CH$NAME: Petunidin 3-glucoside
CH$NAME: (2S,3R,4S,5S,6R)-2-[2-(3,4-dihydroxy-5-methoxyphenyl)-5,7-dihydroxychromenylium-3-yl]oxy-6-(hydroxymethyl)oxane-3,4,5-triol
CH$COMPOUND_CLASS: CLASS1 Flavonoid; CLASS2 Anthocyanin; CLASS3 Petunidin glycoside
CH$FORMULA: C22H23O12
CH$EXACT_MASS: 479.41
CH$SMILES: COC1=CC(=CC(=C1O)O)C2=C(C=C3C(=CC(=CC3=[O+]2)O)O)OC4C(C(C(C(O4)CO)O)O)O
CH$IUPAC: InChI=1S/C22H22O12/c1-31-14-3-8(2-12(26)17(14)27)21-15(6-10-11(25)4-9(24)5-13(10)32-21)33-22-20(30)19(29)18(28)16(7-23)34-22/h2-6,16,18-20,22-23,28-30H,7H2,1H3,(H3-,24,25,26,27)/p+1/t16-,18-,19+,20-,22-/m1/s1/fC22H23O12/h24-27H/q+1
CH$LINK: CAS 6988-81-4
AC$INSTRUMENT: Q-Tof Premier, Waters
AC$INSTRUMENT_TYPE: LC-ESI-QTOF
AC$MASS_SPECTROMETRY: MS_TYPE MS2
AC$MASS_SPECTROMETRY: ION_MODE NEGATIVE
AC$MASS_SPECTROMETRY: IONIZATION ESI
AC$MASS_SPECTROMETRY: CAPILLARY_VOLTAGE 3.0 kV
AC$MASS_SPECTROMETRY: COLLISION_ENERGY Ramp 5-45 V
AC$MASS_SPECTROMETRY: FRAGMENTATION_MODE LOW-ENERGY CID
AC$MASS_SPECTROMETRY: SOURCE_TEMPERATURE 120 C
AC$CHROMATOGRAPHY: SOLVENT CH3CN/H2O
AC$CHROMATOGRAPHY: SAMPLING_CONE 35.0 V
MS$FOCUSED_ION: ION_TYPE [M-2H]-
MS$FOCUSED_ION: PRECURSOR_M/Z 477.10332
PK$SPLASH: splash10-02di-0179400000-8c080d5270ed5c16fe1d
PK$NUM_PEAK: 15
PK$PEAK: m/z int. rel.int.
  125.0244 77.1 223
  187.0401 33.08 95
  199.04 26.7 77
  215.034 43.3 125
  227.0363 39.66 115
  243.0302 80.31 232
  253.0157 22.1 64
  255.0291 38.78 112
  271.0265 111.9 324
  272.0314 22.28 64
  299.0209 216.5 628
  300.0279 84.22 244
  314.0438 344.4 999
  315.0522 280.6 813
  477.1033 343.7 996
//
