ACCESSION: MSBNK-RIKEN_ReSpect-PT205230
RECORD_TITLE: L-alpha-Phosphatidylinositol; LC-ESI-QTOF; MS2; [M-H]-
DATE: 2008.07.28
AUTHORS: Matsuda F, Suzuki M, Sawada Y, Plant Science Center, RIKEN.
LICENSE: CC BY-NC
COPYRIGHT: Copyright(C) 2009 Plant Science Center, RIKEN
COMMENT: Build 1 2009/06/24
COMMENT: Acquisition and generation of the data is financially supported in part by CREST/JST.
CH$NAME: L-alpha-Phosphatidylinositol
CH$NAME: PI
CH$COMPOUND_CLASS: CLASS1 Other; CLASS2 Phospholipid; CLASS3 Phosphatidylinositol
CH$FORMULA: -
CH$EXACT_MASS: -
CH$SMILES: c
CH$IUPAC: 1/C4H9NO2/c5-3-1-2-4(6)7/h1-3,5H2,(H,6,7)/f/h6H
CH$LINK: CAS 383907-36-6
AC$INSTRUMENT: Q-Tof Premier, Waters
AC$INSTRUMENT_TYPE: LC-ESI-QTOF
AC$MASS_SPECTROMETRY: MS_TYPE MS2
AC$MASS_SPECTROMETRY: ION_MODE NEGATIVE
AC$MASS_SPECTROMETRY: IONIZATION ESI
AC$MASS_SPECTROMETRY: CAPILLARY_VOLTAGE 3.0 kV
AC$MASS_SPECTROMETRY: COLLISION_ENERGY Ramp 5-45 V
AC$MASS_SPECTROMETRY: FRAGMENTATION_MODE LOW-ENERGY CID
AC$MASS_SPECTROMETRY: SOURCE_TEMPERATURE 120 C
AC$CHROMATOGRAPHY: SOLVENT CH3CN/H2O
AC$CHROMATOGRAPHY: SAMPLING_CONE 35.0 V
MS$FOCUSED_ION: ION_TYPE [M-H]-
MS$FOCUSED_ION: PRECURSOR_M/Z 861.5493
PK$SPLASH: splash10-03di-0000000090-09df2ecd61e880eb4b97
PK$NUM_PEAK: 2
PK$PEAK: m/z int. rel.int.
  861.4276 3.345 327
  861.5493 10.19 999
//
