ACCESSION: MSBNK-RIKEN_ReSpect-PT212110
RECORD_TITLE: Peonidin; LC-ESI-QTOF; MS2; [M-2H]-
DATE: 2008.07.29
AUTHORS: Matsuda F, Suzuki M, Sawada Y, Plant Science Center, RIKEN.
LICENSE: CC BY-NC
COPYRIGHT: Copyright(C) 2009 Plant Science Center, RIKEN
COMMENT: Build 1 2009/06/24
COMMENT: Acquisition and generation of the data is financially supported in part by CREST/JST.
CH$NAME: Peonidin
CH$NAME: Pn
CH$NAME: 3,4',5,7-tetrahydroxy-3'-methoxyflavylium
CH$NAME: 3,4',5,7-tetrahydroxy-3'-methoxy-2-phenylbenzopyrylium 
CH$NAME: 2-(4-hydroxy-3-methoxyphenyl)chromenylium-3,5,7-triol
CH$COMPOUND_CLASS: CLASS1 Flavonoid; CLASS2 Anthocyanin; CLASS3 Peonidin
CH$FORMULA: C16H13O6
CH$EXACT_MASS: 301.27
CH$SMILES: COC1=C(C=CC(=C1)C2=C(C=C3C(=CC(=CC3=[O+]2)O)O)O)O
CH$IUPAC: InChI=1S/C16H12O6/c1-21-15-4-8(2-3-11(15)18)16-13(20)7-10-12(19)5-9(17)6-14(10)22-16/h2-7H,1H3,(H3-,17,18,19,20)/p+1/fC16H13O6/h17-20H/q+1
CH$LINK: CAS 134-01-0
AC$INSTRUMENT: Q-Tof Premier, Waters
AC$INSTRUMENT_TYPE: LC-ESI-QTOF
AC$MASS_SPECTROMETRY: MS_TYPE MS2
AC$MASS_SPECTROMETRY: ION_MODE NEGATIVE
AC$MASS_SPECTROMETRY: IONIZATION ESI
AC$MASS_SPECTROMETRY: CAPILLARY_VOLTAGE 3.0 kV
AC$MASS_SPECTROMETRY: COLLISION_ENERGY Ramp 5-45 V
AC$MASS_SPECTROMETRY: FRAGMENTATION_MODE LOW-ENERGY CID
AC$MASS_SPECTROMETRY: SOURCE_TEMPERATURE 120 C
AC$CHROMATOGRAPHY: SOLVENT CH3CN/H2O
AC$CHROMATOGRAPHY: SAMPLING_CONE 35.0 V
MS$FOCUSED_ION: ION_TYPE [M-2H]-
MS$FOCUSED_ION: PRECURSOR_M/Z 299.05559
PK$SPLASH: splash10-000t-0190000000-05e35b32befe9c92bd80
PK$NUM_PEAK: 9
PK$PEAK: m/z int. rel.int.
  134.9682 7.234 196
  151.0029 10.13 275
  207.0281 9.907 269
  208.9967 4.52 123
  256.062 3.307 89
  266.9895 9.149 248
  283.0225 20.5 557
  284.0571 6.279 170
  299.0556 36.71 999
//
