ACCESSION: MSBNK-RIKEN_ReSpect-PT208443
RECORD_TITLE: 2',6'-Dihydroxy-4-Methoxychalcone-4'-O-Neohesperidoside; LC-ESI-QTOF; MS2; [M-H]-
DATE: 2008.07.28
AUTHORS: Matsuda F, Suzuki M, Sawada Y, Plant Science Center, RIKEN.
LICENSE: CC BY-NC
COPYRIGHT: Copyright(C) 2009 Plant Science Center, RIKEN
COMMENT: Build 1 2009/06/24
COMMENT: Acquisition and generation of the data is financially supported in part by CREST/JST.
CH$NAME: 2',6'-Dihydroxy-4-Methoxychalcone-4'-O-Neohesperidoside
CH$NAME: Dhmc-7-Glc-2pp-Man
CH$COMPOUND_CLASS: CLASS1 Flavonoid; CLASS2 Chalcone; CLASS3 Chalcone glycoside
CH$FORMULA: C28H34O14
CH$EXACT_MASS: 594.56
CH$SMILES: c
CH$IUPAC: 1/C4H9NO2/c5-3-1-2-4(6)7/h1-3,5H2,(H,6,7)/f/h6H
AC$INSTRUMENT: Q-Tof Premier, Waters
AC$INSTRUMENT_TYPE: LC-ESI-QTOF
AC$MASS_SPECTROMETRY: MS_TYPE MS2
AC$MASS_SPECTROMETRY: ION_MODE NEGATIVE
AC$MASS_SPECTROMETRY: IONIZATION ESI
AC$MASS_SPECTROMETRY: CAPILLARY_VOLTAGE 3.0 kV
AC$MASS_SPECTROMETRY: COLLISION_ENERGY 30 V
AC$MASS_SPECTROMETRY: FRAGMENTATION_MODE LOW-ENERGY CID
AC$MASS_SPECTROMETRY: SOURCE_TEMPERATURE 120 C
AC$CHROMATOGRAPHY: SOLVENT CH3CN/H2O
AC$CHROMATOGRAPHY: SAMPLING_CONE 35.0 V
MS$FOCUSED_ION: ION_TYPE [M-H]-
MS$FOCUSED_ION: PRECURSOR_M/Z 593.18705
PK$SPLASH: splash10-000i-0090000000-f4f696ef457e3239f4f8
PK$NUM_PEAK: 6
PK$PEAK: m/z int. rel.int.
  270.0543 389.5 31
  285.0755 12370 999
  285.4978 670.5 54
  327.0889 799.7 64
  473.1457 433.7 35
  593.1871 709.1 57
//
