ACCESSION: MSBNK-RIKEN_ReSpect-PT209340
RECORD_TITLE: Quercetin-3-(6-malonyl)-Glucoside; LC-ESI-QTOF; MS2; [M-H]-
DATE: 2008.09.29
AUTHORS: Matsuda F, Suzuki M, Sawada Y, Plant Science Center, RIKEN.
LICENSE: CC BY-NC
COPYRIGHT: Copyright(C) 2009 Plant Science Center, RIKEN
COMMENT: Build 1 2009/06/24
COMMENT: Acquisition and generation of the data is financially supported in part by CREST/JST.
CH$NAME: Quercetin-3-(6''-malonyl)-Glucoside
CH$NAME: Quer-3-Glc-6''-Mal
CH$NAME: Quercetin 3-(6''-malonylglucoside)
CH$COMPOUND_CLASS: CLASS1 Flavonoid; CLASS2 Flavonol; CLASS3 Quercetin glycoside
CH$FORMULA: C24H220O15
CH$EXACT_MASS: 550.43
CH$SMILES: c
CH$IUPAC: 1/C4H9NO2/c5-3-1-2-4(6)7/h1-3,5H2,(H,6,7)/f/h6H
CH$LINK: CAS 96862-01-0
AC$INSTRUMENT: Q-Tof Premier, Waters
AC$INSTRUMENT_TYPE: LC-ESI-QTOF
AC$MASS_SPECTROMETRY: MS_TYPE MS2
AC$MASS_SPECTROMETRY: ION_MODE NEGATIVE
AC$MASS_SPECTROMETRY: IONIZATION ESI
AC$MASS_SPECTROMETRY: CAPILLARY_VOLTAGE 3.0 kV
AC$MASS_SPECTROMETRY: COLLISION_ENERGY Ramp 5-45 V
AC$MASS_SPECTROMETRY: FRAGMENTATION_MODE LOW-ENERGY CID
AC$MASS_SPECTROMETRY: SOURCE_TEMPERATURE 120 C
AC$CHROMATOGRAPHY: SOLVENT CH3CN/H2O
AC$CHROMATOGRAPHY: SAMPLING_CONE 35.0 V
MS$FOCUSED_ION: ION_TYPE [M-H]-
MS$FOCUSED_ION: PRECURSOR_M/Z 549.08805
PK$SPLASH: splash10-0zfs-0149070000-4d71623ab560474415f6
PK$NUM_PEAK: 12
PK$PEAK: m/z int. rel.int.
  101.0141 2.522 177
  181.1069 2.841 199
  225.0899 3.375 237
  255.0084 4.404 309
  271.0041 7.803 548
  300.0042 14.22 999
  301.0112 7.608 534
  302.0136 2.401 168
  387.1231 4.36 306
  505.0595 13.94 979
  549.0881 3.73 262
  549.168 7.677 539
//
