ACCESSION: MSBNK-RIKEN_ReSpect-PT209190
RECORD_TITLE: Kaempferol-3-Glucoside-2-p-coumaroyl,-7-Glucoside; LC-ESI-QTOF; MS2; [M-H]-
DATE: 2008.09.26
AUTHORS: Matsuda F, Suzuki M, Sawada Y, Plant Science Center, RIKEN.
LICENSE: CC BY-NC
COPYRIGHT: Copyright(C) 2009 Plant Science Center, RIKEN
COMMENT: Build 1 2009/06/24
COMMENT: Acquisition and generation of the data is financially supported in part by CREST/JST.
CH$NAME: Kaempferol-3-(2''-p-coumaroyl)Glucoside--7-Glucoside
CH$NAME: Kaem-3-Glc-2''-p-Cou,-7-Glc
CH$NAME: Kaempferol-3-Glucoside-2-p-coumaroyl-7-Glucoside
CH$COMPOUND_CLASS: CLASS1 Flavonoid; CLASS2 Flavonol; CLASS3 Kaempferol glycoside
CH$FORMULA: C36H36O18
CH$EXACT_MASS: 756.68
CH$SMILES: c
CH$IUPAC: 1/C4H9NO2/c5-3-1-2-4(6)7/h1-3,5H2,(H,6,7)/f/h6H
CH$LINK: CAS 187410-79-3
AC$INSTRUMENT: Q-Tof Premier, Waters
AC$INSTRUMENT_TYPE: LC-ESI-QTOF
AC$MASS_SPECTROMETRY: MS_TYPE MS2
AC$MASS_SPECTROMETRY: ION_MODE NEGATIVE
AC$MASS_SPECTROMETRY: IONIZATION ESI
AC$MASS_SPECTROMETRY: CAPILLARY_VOLTAGE 3.0 kV
AC$MASS_SPECTROMETRY: COLLISION_ENERGY Ramp 5-45 V
AC$MASS_SPECTROMETRY: FRAGMENTATION_MODE LOW-ENERGY CID
AC$MASS_SPECTROMETRY: SOURCE_TEMPERATURE 120 C
AC$CHROMATOGRAPHY: SOLVENT CH3CN/H2O
AC$CHROMATOGRAPHY: SAMPLING_CONE 35.0 V
MS$FOCUSED_ION: ION_TYPE [M-H]-
MS$FOCUSED_ION: PRECURSOR_M/Z 755.18234
PK$SPLASH: splash10-000i-1090040200-53fcd93a32a4a502ac5f
PK$NUM_PEAK: 5
PK$PEAK: m/z int. rel.int.
  61.0671 3.704 155
  285.0381 23.73 999
  286.04 4.968 209
  593.12 13.37 562
  755.1823 9.346 393
//
