ACCESSION: MSBNK-RIKEN_ReSpect-PT202540
RECORD_TITLE: Indole-3-acetaldehyde sodium bisulfite; LC-ESI-QTOF; MS2; [M-H]-
DATE: 2008.07.28
AUTHORS: Matsuda F, Suzuki M, Sawada Y, Plant Science Center, RIKEN.
LICENSE: CC BY-NC
COPYRIGHT: Copyright(C) 2009 Plant Science Center, RIKEN
COMMENT: Build 1 2009/06/24
COMMENT: Acquisition and generation of the data is financially supported in part by CREST/JST.
CH$NAME: Indole-3-acetaldehyde sodium bisulfite
CH$NAME: 1-hydroxy-2-(1H-indol-3-yl)ethanesulfonic acid 
CH$NAME: 1-hydroxy-2-(1H-indol-3-yl)ethanesulfonic acid
CH$COMPOUND_CLASS: CLASS1 Alkaloid; CLASS2 Indole; CLASS3 Indole
CH$FORMULA: C10H11NO4S
CH$EXACT_MASS: 241.26
CH$SMILES: C1=CC=C2C(=C1)C(=CN2)CC(O)S(=O)(=O)O
CH$IUPAC: InChI=1S/C10H11NO4S/c12-10(16(13,14)15)5-7-6-11-9-4-2-1-3-8(7)9/h1-4,6,10-12H,5H2,(H,13,14,15)/f/h13H
AC$INSTRUMENT: Q-Tof Premier, Waters
AC$INSTRUMENT_TYPE: LC-ESI-QTOF
AC$MASS_SPECTROMETRY: MS_TYPE MS2
AC$MASS_SPECTROMETRY: ION_MODE NEGATIVE
AC$MASS_SPECTROMETRY: IONIZATION ESI
AC$MASS_SPECTROMETRY: CAPILLARY_VOLTAGE 3.0 kV
AC$MASS_SPECTROMETRY: COLLISION_ENERGY Ramp 5-45 V
AC$MASS_SPECTROMETRY: FRAGMENTATION_MODE LOW-ENERGY CID
AC$MASS_SPECTROMETRY: SOURCE_TEMPERATURE 120 C
AC$CHROMATOGRAPHY: SOLVENT CH3CN/H2O
AC$CHROMATOGRAPHY: SAMPLING_CONE 35.0 V
MS$FOCUSED_ION: ION_TYPE [M-H]-
MS$FOCUSED_ION: PRECURSOR_M/Z 158.06061
PK$SPLASH: splash10-0a7i-0900000000-3a12e240a01798e6d515
PK$NUM_PEAK: 3
PK$PEAK: m/z int. rel.int.
  128.05 118.4 519
  130.0656 130.3 571
  158.0606 227.9 999
//
