ACCESSION: MSBNK-RIKEN_ReSpect-PT109340
RECORD_TITLE: Quercetin-3-(6-malonyl)-Glucoside; LC-ESI-QTOF; MS2; [M+H]+
DATE: 2008.09.29
AUTHORS: Matsuda F, Suzuki M, Sawada Y, Plant Science Center, RIKEN.
LICENSE: CC BY-NC
COPYRIGHT: Copyright(C) 2009 Plant Science Center, RIKEN
COMMENT: Build 1 2009/06/24
COMMENT: Acquisition and generation of the data is financially supported in part by CREST/JST.
CH$NAME: Quercetin-3-(6''-malonyl)-Glucoside
CH$NAME: Quer-3-Glc-6''-Mal
CH$NAME: Quercetin 3-(6''-malonylglucoside)
CH$COMPOUND_CLASS: CLASS1 Flavonoid; CLASS2 Flavonol; CLASS3 Quercetin glycoside
CH$FORMULA: C24H220O15
CH$EXACT_MASS: 550.43
CH$SMILES: c
CH$IUPAC: 1/C4H9NO2/c5-3-1-2-4(6)7/h1-3,5H2,(H,6,7)/f/h6H
CH$LINK: CAS 96862-01-0
AC$INSTRUMENT: Q-Tof Premier, Waters
AC$INSTRUMENT_TYPE: LC-ESI-QTOF
AC$MASS_SPECTROMETRY: MS_TYPE MS2
AC$MASS_SPECTROMETRY: ION_MODE POSITIVE
AC$MASS_SPECTROMETRY: IONIZATION ESI
AC$MASS_SPECTROMETRY: CAPILLARY_VOLTAGE 3.0 kV
AC$MASS_SPECTROMETRY: COLLISION_ENERGY Ramp 5-45 V
AC$MASS_SPECTROMETRY: FRAGMENTATION_MODE LOW-ENERGY CID
AC$MASS_SPECTROMETRY: SOURCE_TEMPERATURE 120 C
AC$CHROMATOGRAPHY: SOLVENT CH3CN/H2O
AC$CHROMATOGRAPHY: SAMPLING_CONE 23.0 V
MS$FOCUSED_ION: ION_TYPE [M+H]+
MS$FOCUSED_ION: PRECURSOR_M/Z 551.10369
PK$SPLASH: splash10-0udi-1109020000-c49c3611546e36dfe348
PK$NUM_PEAK: 8
PK$PEAK: m/z int. rel.int.
  79.0186 1.755 60
  99.5099 5.007 172
  100.5104 1.868 64
  127.0364 1.705 58
  303.0502 29 999
  303.0952 1.78 61
  551.1037 4.719 162
  551.1516 2.661 91
//
