ACCESSION: MSBNK-RIKEN_ReSpect-PT209140
RECORD_TITLE: Isorhamnetin-3-Glucoside-4'-Glucoside; LC-ESI-QTOF; MS2; [M-H]-
DATE: 2008.09.26
AUTHORS: Matsuda F, Suzuki M, Sawada Y, Plant Science Center, RIKEN.
LICENSE: CC BY-NC
COPYRIGHT: Copyright(C) 2009 Plant Science Center, RIKEN
COMMENT: Build 1 2009/06/24
COMMENT: Acquisition and generation of the data is financially supported in part by CREST/JST.
CH$NAME: Isorhamnetin-3-Glucoside-4'-Glucoside
CH$NAME: Isor-3-Glc-4'-Glc
CH$NAME: Isorhamnetin 3,4'-diglucoside
CH$NAME: Dactylin
CH$NAME: Dactilin
CH$COMPOUND_CLASS: CLASS1 Flavonoid; CLASS2 Flavonol; CLASS3 Isorhamnetin glycoside
CH$FORMULA: C28H32O16
CH$EXACT_MASS: 640.54
CH$SMILES: c
CH$IUPAC: 1/C4H9NO2/c5-3-1-2-4(6)7/h1-3,5H2,(H,6,7)/f/h6H
CH$LINK: CAS 28288-98-4
AC$INSTRUMENT: Q-Tof Premier, Waters
AC$INSTRUMENT_TYPE: LC-ESI-QTOF
AC$MASS_SPECTROMETRY: MS_TYPE MS2
AC$MASS_SPECTROMETRY: ION_MODE NEGATIVE
AC$MASS_SPECTROMETRY: IONIZATION ESI
AC$MASS_SPECTROMETRY: CAPILLARY_VOLTAGE 3.0 kV
AC$MASS_SPECTROMETRY: COLLISION_ENERGY Ramp 5-45 V
AC$MASS_SPECTROMETRY: FRAGMENTATION_MODE LOW-ENERGY CID
AC$MASS_SPECTROMETRY: SOURCE_TEMPERATURE 120 C
AC$CHROMATOGRAPHY: SOLVENT CH3CN/H2O
AC$CHROMATOGRAPHY: SAMPLING_CONE 35.0 V
MS$FOCUSED_ION: ION_TYPE [M-H]-
MS$FOCUSED_ION: PRECURSOR_M/Z 623.16121
PK$SPLASH: splash10-00xr-0039007000-9a83e3d9109d10da7c44
PK$NUM_PEAK: 10
PK$PEAK: m/z int. rel.int.
  243.0271 21.49 85
  255.0282 18.36 73
  271.0252 42.92 171
  299.0206 68.73 274
  300.0261 66.5 265
  314.0442 79.12 316
  315.0506 193.7 774
  316.0539 25.87 103
  623.1612 249.9 999
  624.1628 61.51 245
//
