ACCESSION: MSBNK-RIKEN_ReSpect-PT107170
RECORD_TITLE: L-Carnitine; LC-ESI-QTOF; MS2; [M+H]+
DATE: 2008.07.28
AUTHORS: Matsuda F, Suzuki M, Sawada Y, Plant Science Center, RIKEN.
LICENSE: CC BY-NC
COPYRIGHT: Copyright(C) 2009 Plant Science Center, RIKEN
COMMENT: Build 1 2009/06/24
COMMENT: Acquisition and generation of the data is financially supported in part by CREST/JST.
CH$NAME: L-Carnitine
CH$NAME: Vitamin BT
CH$NAME: (-)-beta-Hydroxy-gamma-(trimethylammonio)butyrate
CH$NAME: Levocarnitine
CH$NAME: L-gamma-Trimethyl-beta-hydroxybutyrobetaine
CH$NAME: (3R)-3-hydroxy-4-trimethylazaniumylbutanoate
CH$COMPOUND_CLASS: CLASS1 Other; CLASS2 Vitamin
CH$FORMULA: C7H16NO3
CH$EXACT_MASS: 162.21
CH$SMILES: C[N+](C)(C)CC(CC(=O)[O-])O
CH$IUPAC: InChI=1S/C7H15NO3/c1-8(2,3)5-6(9)4-7(10)11/h6,9H,4-5H2,1-3H3/t6-/m1/s1
CH$LINK: CAS 541-15-1
AC$INSTRUMENT: Q-Tof Premier, Waters
AC$INSTRUMENT_TYPE: LC-ESI-QTOF
AC$MASS_SPECTROMETRY: MS_TYPE MS2
AC$MASS_SPECTROMETRY: ION_MODE POSITIVE
AC$MASS_SPECTROMETRY: IONIZATION ESI
AC$MASS_SPECTROMETRY: CAPILLARY_VOLTAGE 3.0 kV
AC$MASS_SPECTROMETRY: COLLISION_ENERGY Ramp 5-45 V
AC$MASS_SPECTROMETRY: FRAGMENTATION_MODE LOW-ENERGY CID
AC$MASS_SPECTROMETRY: SOURCE_TEMPERATURE 120 C
AC$CHROMATOGRAPHY: SOLVENT CH3CN/H2O
AC$CHROMATOGRAPHY: SAMPLING_CONE 23.0 V
MS$FOCUSED_ION: ION_TYPE [M+H]+
MS$FOCUSED_ION: PRECURSOR_M/Z 162.11299
PK$SPLASH: splash10-0ik9-2900000000-ee79f10dce9fc09246ec
PK$NUM_PEAK: 5
PK$PEAK: m/z int. rel.int.
  60.0829 354 132
  85.0306 693.7 260
  102.0938 526.1 197
  103.0412 1261 473
  162.113 2661 999
//
