ACCESSION: MSBNK-RIKEN_ReSpect-PT112260
RECORD_TITLE: Cyanidin-3-O-[6''-O-(E-p-coum)-2''-O-(beta-xylopyranosyl)-beta-glucopyranoside]-5-O-beta-glucopyranoside; LC-ESI-QTOF; MS2; [M]+
DATE: 2008.07.28
AUTHORS: Matsuda F, Suzuki M, Sawada Y, Plant Science Center, RIKEN.
LICENSE: CC BY-NC
COPYRIGHT: Copyright(C) 2009 Plant Science Center, RIKEN
COMMENT: Build 1 2009/06/24
COMMENT: Acquisition and generation of the data is financially supported in part by CREST/JST.
CH$NAME: Cyanidin-3-O-(6''-O-(E-p-coum)-2''-O-(beta-xylopyranosyl)-beta-glucopyranoside)-5-O-beta-glucopyranoside trifluoroacetate salt
CH$NAME: Cy 3-coumSamb-5-Glc
CH$NAME: CCXGG
CH$NAME: Cyanidin-3-(4-coumaroyl)sambubioside-5-glucoside
CH$NAME: Cy 3-O-beta-(6''-O-E-p-coum-sambubioside)-5-O-beta-glc
CH$NAME: Cyanidin 3-(6-(4-coumaroyl)-2-(xylosyl)-glucoside)-5-glucoside
CH$NAME: [(2R,3S,4S,5R,6S)-6-[2-(3,4-dihydroxyphenyl)-7-hydroxy-5-[(2S,3R,4S,5S,6R)-3,4,5-trihydroxy-6-(hydroxymethyl)oxan-2-yl]oxychromenylium-3-yl]oxy-3,4-dihydroxy-5-[(2S,3R,4S,5R)-3,4,5-trihydroxyoxan-2-yl]oxyoxan-2-yl]methyl (E)-3-(4-hydroxyphenyl)prop-2-enoate
CH$COMPOUND_CLASS: CLASS1 Flavonoid; CLASS2 Anthocyanin; CLASS3 Cyanidin glycoside
CH$FORMULA: C41H45O22
CH$EXACT_MASS: 889.78
CH$SMILES: C1C(C(C(C(O1)OC2C(C(C(OC2OC3=C([O+]=C4C=C(C=C(C4=C3)OC5C(C(C(C(O5)CO)O)O)O)O)C6=CC(=C(C=C6)O)O)COC(=O)C=CC7=CC=C(C=C7)O)O)O)O)O)O
CH$IUPAC: InChI=1S/C41H44O22/c42-13-27-31(50)33(52)36(55)40(61-27)59-25-11-19(44)10-24-20(25)12-26(37(58-24)17-4-7-21(45)22(46)9-17)60-41-38(63-39-35(54)30(49)23(47)14-57-39)34(53)32(51)28(62-41)15-56-29(48)8-3-16-1-5-18(43)6-2-16/h1-12,23,27-28,30-36,38-42,47,49-55H,13-15H2,(H3-,43,44,45,46,48)/p+1/t23-,27-,28-,30+,31-,32-,33+,34+,35-,36-,38-,39+,40-,41-/m1/s1/fC41H45O22/h43-46H/q+1/b8-3+
CH$LINK: CAS 139906-05-1
AC$INSTRUMENT: Q-Tof Premier, Waters
AC$INSTRUMENT_TYPE: LC-ESI-QTOF
AC$MASS_SPECTROMETRY: MS_TYPE MS2
AC$MASS_SPECTROMETRY: ION_MODE POSITIVE
AC$MASS_SPECTROMETRY: IONIZATION ESI
AC$MASS_SPECTROMETRY: CAPILLARY_VOLTAGE 3.0 kV
AC$MASS_SPECTROMETRY: COLLISION_ENERGY Ramp 5-45 V
AC$MASS_SPECTROMETRY: FRAGMENTATION_MODE LOW-ENERGY CID
AC$MASS_SPECTROMETRY: SOURCE_TEMPERATURE 120 C
AC$CHROMATOGRAPHY: SOLVENT CH3CN/H2O
AC$CHROMATOGRAPHY: SAMPLING_CONE 23.0 V
MS$FOCUSED_ION: ION_TYPE [M]+
MS$FOCUSED_ION: PRECURSOR_M/Z 889.24021
PK$SPLASH: splash10-000i-0090000140-a9d7ed1059e8829dd21d
PK$NUM_PEAK: 4
PK$PEAK: m/z int. rel.int.
  287.0553 3010 999
  449.1096 320.8 106
  727.1884 530.8 176
  889.2402 1563 518
//
