ACCESSION: MSBNK-MPI_for_Chemical_Ecology-CE000319
RECORD_TITLE: 8-Methylthiooctyl glucosinolate; LC-ESI-ITFT; MS2; HCD; CE 80.0 eV; [M-H]-
DATE: 2016.01.19 (Created 2012.04.12)
AUTHORS: Ales Svatos, Marco Kai, Ravi Kumar Maddula, MPI for Chemical Ecology, Jena, Germany
LICENSE: CC BY-NC-SA
COPYRIGHT: Copyright(C) 2011 MPI for Chemical Ecology, Jena, Germany
PUBLICATION: F. Rasche, K. Scheubert, F. Hufsky, T. Zichner, M. Kai, A. Svatos and S. Boecker. Identifying the unknowns by aligning fragmentation trees. Anal. Chem., 2012, 84, 3417-3426 doi:10.1021/ac300304u
COMMENT: Acquisition and generation of the data is financially supported by the Max-Planck-Society
CH$NAME: 8-Methylthiooctyl glucosinolate
CH$COMPOUND_CLASS: Natural Product; Glucosinolate
CH$FORMULA: C16H31NO9S3
CH$EXACT_MASS: 477.11609
CH$SMILES: [H]OC([H])([H])C([H])(O1)C([H])(O[H])C([H])(O[H])C([H])(O[H])C([H])(SC(=NOS(O)(=O)=O)C([H])([H])C([H])([H])C([H])([H])C([H])([H])C([H])([H])C([H])([H])C([H])([H])C([H])([H])SC([H])([H])[H])1
CH$IUPAC: InChI=1S/C16H31NO9S3/c1-27-9-7-5-3-2-4-6-8-12(17-26-29(22,23)24)28-16-15(21)14(20)13(19)11(10-18)25-16/h11,13-16,18-21H,2-10H2,1H3,(H,22,23,24)/b17-12+/t11-,13-,14+,15-,16+/m1/s1
CH$LINK: PUBCHEM CID:44237373
CH$LINK: INCHIKEY CWOJBEDMJKZKAB-STPBKMPXSA-N
AC$INSTRUMENT: LTQ Orbitrap XL, Thermo Scientfic; HP-1100 HPLC, Agilent
AC$INSTRUMENT_TYPE: LC-ESI-ITFT
AC$MASS_SPECTROMETRY: MS_TYPE MS2
AC$MASS_SPECTROMETRY: ION_MODE NEGATIVE
AC$MASS_SPECTROMETRY: IONIZATION ESI
AC$MASS_SPECTROMETRY: RESOLUTION_SETTING 7500
AC$MASS_SPECTROMETRY: SPRAY_VOLTAGE 4.5 kV
AC$MASS_SPECTROMETRY: TUBE_LENS_VOLTAGE 140 V
AC$MASS_SPECTROMETRY: AUTOMATIC_GAIN_CONTROL 3.0E5
AC$MASS_SPECTROMETRY: CAPILLARY_TEMPERATURE 275 C
AC$MASS_SPECTROMETRY: CAPILLARY_VOLTAGE 39 V
AC$MASS_SPECTROMETRY: FRAGMENTATION_METHOD HCD
AC$MASS_SPECTROMETRY: ACTIVATION_TIME 30 ms
AC$MASS_SPECTROMETRY: ACTIVATION_PARAMETER q=0.25
AC$MASS_SPECTROMETRY: COLLISION_ENERGY 80.0eV
AC$CHROMATOGRAPHY: COLUMN_NAME Symmetry C18 Column, Waters
AC$CHROMATOGRAPHY: SOLVENT A H2O(0.1%HCOOH)
AC$CHROMATOGRAPHY: SOLVENT B CH3CN(0.1%HCOOH)
AC$CHROMATOGRAPHY: FLOW_GRADIENT 0min:5%, 24min:95%, 28min:95%, 28.1:5% (acetonitrile)
AC$CHROMATOGRAPHY: FLOW_RATE 0.3 ml/min
AC$CHROMATOGRAPHY: RETENTION_TIME 1170.96 s
MS$FOCUSED_ION: PRECURSOR_M/Z 476
MS$FOCUSED_ION: PRECURSOR_TYPE [M-H]-
PK$SPLASH: splash10-0002-9000000000-5e0eb58e94b67bb13200
PK$NUM_PEAK: 27
PK$PEAK: m/z int. rel.int.
  71.014442 13924.764648 9
  74.761444 17566.615234 11
  74.991562 330096.25 202
  79.957924 172746.65625 106
  80.965996 21378.990234 13
  85.030128 20740.189453 13
  95.939072 9022.875 6
  95.945755 11751.913086 7
  95.952736 972381.0 595
  96.918617 8932.466797 5
  96.946701 17194.769531 11
  96.950882 13876.013672 8
  96.960457 1633795.5 999
  96.969421 11995.249023 7
  96.973938 13723.102539 8
  97.00174 10453.069336 6
  97.960197 8063.84668 5
  101.024857 12698.780273 8
  127.924591 20518.216797 13
  138.970749 18046.525391 11
  219.088043 15444.270508 9
  234.100006 34488.4375 21
  259.014191 60748.285156 37
  274.990509 39072.382812 24
  283.051849 16278.742188 10
  291.56662 11227.168945 7
  299.045776 24450.220703 15
//
