ACCESSION: MSBNK-MPI_for_Chemical_Ecology-CE000054
RECORD_TITLE: Sinapine; LC-ESI-ITFT; MS2; CE 70 eV; [M]+
DATE: 2016.01.19 (Created 2012.04.11, modified 2013.06.04)
AUTHORS: Ales Svatos, Ravi Kumar Maddula, MPI for Chemical Ecology, Jena, Germany
LICENSE: CC BY-NC-SA
COPYRIGHT: Copyright(C) 2011 MPI for Chemical Ecology, Jena, Germany
PUBLICATION: F. Rasche, A. Svatos, R.K. Maddula, C. Boettcher and S. Boecker. Computing fragmentation trees from tandem mass spectrometry data. Anal. Chem., 2011, 83, 1243-1251 doi:10.1021/ac101825k
COMMENT: Acquisition and generation of the data is financially supported by the Max-Planck-Society
CH$NAME: Sinapine
CH$COMPOUND_CLASS: Natural Product; Ethanolamine
CH$FORMULA: [C16H24NO5]+
CH$EXACT_MASS: 310.16545
CH$SMILES: C[N+](C)(C)CCOC(=O)/C=C/C1=CC(=C(C(=C1)OC)O)OC
CH$IUPAC: InChI=1S/C16H23NO5/c1-17(2,3)8-9-22-15(18)7-6-12-10-13(20-4)16(19)14(11-12)21-5/h6-7,10-11H,8-9H2,1-5H3/p+1
CH$LINK: PUBCHEM CID:5280385
CH$LINK: INCHIKEY HUJXHFRXWWGYQH-UHFFFAOYSA-O
CH$LINK: COMPTOX DTXSID10171957
AC$INSTRUMENT: LTQ Orbitrap XL, Thermo Scientfic; HP-1100 HPLC, Agilent
AC$INSTRUMENT_TYPE: LC-ESI-ITFT
AC$MASS_SPECTROMETRY: MS_TYPE MS2
AC$MASS_SPECTROMETRY: ION_MODE POSITIVE
AC$MASS_SPECTROMETRY: ACTIVATION_PARAMETER q=0.25
AC$MASS_SPECTROMETRY: ACTIVATION_TIME 30 ms
AC$MASS_SPECTROMETRY: AUTOMATIC_GAIN_CONTROL 3.0E5
AC$MASS_SPECTROMETRY: CAPILLARY_TEMPERATURE 275 C
AC$MASS_SPECTROMETRY: CAPILLARY_VOLTAGE 39 V
AC$MASS_SPECTROMETRY: COLLISION_ENERGY 70eV
AC$MASS_SPECTROMETRY: FRAGMENTATION_METHOD CID
AC$MASS_SPECTROMETRY: IONIZATION ESI
AC$MASS_SPECTROMETRY: RESOLUTION_SETTING 7500
AC$MASS_SPECTROMETRY: SPRAY_VOLTAGE 4.5 kV
AC$MASS_SPECTROMETRY: TUBE_LENS_VOLTAGE 140 V
AC$CHROMATOGRAPHY: COLUMN_NAME Symmetry C18 Column, Waters
AC$CHROMATOGRAPHY: FLOW_GRADIENT 0min:5%, 24min:95%, 28min:95%, 28.1:5% (acetonitrile)
AC$CHROMATOGRAPHY: FLOW_RATE 0.3 ml/min
AC$CHROMATOGRAPHY: RETENTION_TIME 389.834 s
AC$CHROMATOGRAPHY: SOLVENT A H2O(0.1%HCOOH)
AC$CHROMATOGRAPHY: SOLVENT B CH3CN(0.1%HCOOH)
MS$FOCUSED_ION: PRECURSOR_M/Z 310.165453
MS$FOCUSED_ION: PRECURSOR_TYPE [M]+
PK$SPLASH: splash10-0udi-0090000000-4b0ecc4ed11995be1006
PK$NUM_PEAK: 14
PK$PEAK: m/z int. rel.int.
  86.114182 1087.896362 1
  94.024208 1122.422852 1
  101.097107 1098.963989 1
  123.931984 1192.583374 1
  146.457458 1336.956543 1
  154.216476 3569.59668 2
  184.073914 1034.479492 1
  250.034256 1571.518677 1
  250.331787 1967.354126 1
  251.091492 2160071.75 999
  251.546066 4131.892578 2
  251.854309 1641.571289 1
  252.094101 7459.404297 3
  280.056213 1302.58313 1
//
