ACCESSION: MSBNK-MPI_for_Chemical_Ecology-CE000131
RECORD_TITLE: Indole-3-carboxylic_acid; LC-ESI-ITFT; MS2; CE 70 eV; [M+H]+
DATE: 2016.01.19 (Created 2012.04.11)
AUTHORS: Ales Svatos, Ravi Kumar Maddula, MPI for Chemical Ecology, Jena, Germany
LICENSE: CC BY-NC-SA
COPYRIGHT: Copyright(C) 2011 MPI for Chemical Ecology, Jena, Germany
PUBLICATION: F. Rasche, A. Svatos, R.K. Maddula, C. Boettcher and S. Boecker. Computing fragmentation trees from tandem mass spectrometry data. Anal. Chem., 2011, 83, 1243-1251 doi:10.1021/ac101825k
COMMENT: Acquisition and generation of the data is financially supported by the Max-Planck-Society
CH$NAME: Indole-3-carboxylic_acid
CH$COMPOUND_CLASS: Natural Product; Carboxylic acid
CH$FORMULA: C9H7NO2
CH$EXACT_MASS: 161.04768
CH$SMILES: C1=CC=C2C(=C1)C(=CN2)C(=O)O
CH$IUPAC: InChI=1S/C9H7NO2/c11-9(12)7-5-10-8-4-2-1-3-6(7)8/h1-5,10H,(H,11,12)
CH$LINK: PUBCHEM CID:69867
CH$LINK: INCHIKEY KMAKOBLIOCQGJP-UHFFFAOYSA-N
CH$LINK: COMPTOX DTXSID50227886
AC$INSTRUMENT: LTQ Orbitrap XL, Thermo Scientfic; HP-1100 HPLC, Agilent
AC$INSTRUMENT_TYPE: LC-ESI-ITFT
AC$MASS_SPECTROMETRY: MS_TYPE MS2
AC$MASS_SPECTROMETRY: ION_MODE POSITIVE
AC$MASS_SPECTROMETRY: ACTIVATION_PARAMETER q=0.25
AC$MASS_SPECTROMETRY: ACTIVATION_TIME 30 ms
AC$MASS_SPECTROMETRY: AUTOMATIC_GAIN_CONTROL 3.0E5
AC$MASS_SPECTROMETRY: CAPILLARY_TEMPERATURE 275 C
AC$MASS_SPECTROMETRY: CAPILLARY_VOLTAGE 39 V
AC$MASS_SPECTROMETRY: COLLISION_ENERGY 70eV
AC$MASS_SPECTROMETRY: FRAGMENTATION_METHOD CID
AC$MASS_SPECTROMETRY: IONIZATION ESI
AC$MASS_SPECTROMETRY: RESOLUTION_SETTING 7500
AC$MASS_SPECTROMETRY: SPRAY_VOLTAGE 4.5 kV
AC$MASS_SPECTROMETRY: TUBE_LENS_VOLTAGE 140 V
AC$CHROMATOGRAPHY: COLUMN_NAME Symmetry C18 Column, Waters
AC$CHROMATOGRAPHY: FLOW_GRADIENT 0min:5%, 24min:95%, 28min:95%, 28.1:5% (acetonitrile)
AC$CHROMATOGRAPHY: FLOW_RATE 0.3 ml/min
AC$CHROMATOGRAPHY: RETENTION_TIME 631.313 s
AC$CHROMATOGRAPHY: SOLVENT A H2O(0.1%HCOOH)
AC$CHROMATOGRAPHY: SOLVENT B CH3CN(0.1%HCOOH)
MS$FOCUSED_ION: PRECURSOR_M/Z 162.05496
MS$FOCUSED_ION: PRECURSOR_TYPE [M+H]+
PK$SPLASH: splash10-014i-0900000000-ff43090393a4f119b73a
PK$NUM_PEAK: 27
PK$PEAK: m/z int. rel.int.
  53.44939 1197.583984 1
  57.928574 1127.065063 1
  60.392044 1623.868286 1
  66.044518 1059.836426 1
  66.205902 1164.524902 1
  69.480431 3042.796387 2
  76.439644 1261.912231 1
  82.886108 1055.984985 1
  84.306694 1039.165649 1
  89.389099 1085.268921 1
  91.053337 1298.356323 1
  93.939621 1121.005005 1
  101.776947 1387.518311 1
  109.181747 1199.762817 1
  114.27626 1030.408936 1
  115.011414 1281.253784 1
  116.049728 2825.076904 2
  118.064873 1377995.125 999
  120.437141 1135.447998 1
  132.462708 1178.12854 1
  143.84726 1520.901611 1
  144.044235 319095.84375 231
  162.054855 22010.009766 16
  169.651611 1126.808105 1
  178.46077 1493.592407 1
  187.799789 1174.637329 1
  188.447586 1609.547119 1
//
