ACCESSION: MSBNK-MPI_for_Chemical_Ecology-CE000206
RECORD_TITLE: Glucoibarin; LC-ESI-ITFT; MS2; HCD; CE 60.0 eV; [M-H]-
DATE: 2016.01.19 (Created 2012.04.12)
AUTHORS: Ales Svatos, Marco Kai, Ravi Kumar Maddula, MPI for Chemical Ecology, Jena, Germany
LICENSE: CC BY-NC-SA
COPYRIGHT: Copyright(C) 2011 MPI for Chemical Ecology, Jena, Germany
PUBLICATION: F. Rasche, K. Scheubert, F. Hufsky, T. Zichner, M. Kai, A. Svatos and S. Boecker. Identifying the unknowns by aligning fragmentation trees. Anal. Chem., 2012, 84, 3417-3426 doi:10.1021/ac300304u
COMMENT: Acquisition and generation of the data is financially supported by the Max-Planck-Society
CH$NAME: Glucoibarin
CH$COMPOUND_CLASS: Natural Product; Glucosinolate
CH$FORMULA: C15H29NO10S3
CH$EXACT_MASS: 479.09536
CH$SMILES: [H]OC([H])([H])C([H])(O1)C([H])(O[H])C([H])(O[H])C([H])(O[H])C([H])(SC(=NOS(O)(=O)=O)C([H])([H])C([H])([H])C([H])([H])C([H])([H])C([H])([H])C([H])([H])C([H])([H])S(=O)C([H])([H])[H])1
CH$IUPAC: InChI=1S/C15H29NO10S3/c1-28(21)8-6-4-2-3-5-7-11(16-26-29(22,23)24)27-15-14(20)13(19)12(18)10(9-17)25-15/h10,12-15,17-20H,2-9H2,1H3,(H,22,23,24)/b16-11+/t10-,12-,13+,14-,15+,28?/m1/s1
CH$LINK: PUBCHEM CID:44237203
CH$LINK: INCHIKEY LQZALQLZOQQFGM-CMMZSJJMSA-N
AC$INSTRUMENT: LTQ Orbitrap XL, Thermo Scientfic; HP-1100 HPLC, Agilent
AC$INSTRUMENT_TYPE: LC-ESI-ITFT
AC$MASS_SPECTROMETRY: MS_TYPE MS2
AC$MASS_SPECTROMETRY: ION_MODE NEGATIVE
AC$MASS_SPECTROMETRY: IONIZATION ESI
AC$MASS_SPECTROMETRY: RESOLUTION_SETTING 7500
AC$MASS_SPECTROMETRY: SPRAY_VOLTAGE 4.5 kV
AC$MASS_SPECTROMETRY: TUBE_LENS_VOLTAGE 140 V
AC$MASS_SPECTROMETRY: AUTOMATIC_GAIN_CONTROL 3.0E5
AC$MASS_SPECTROMETRY: CAPILLARY_TEMPERATURE 275 C
AC$MASS_SPECTROMETRY: CAPILLARY_VOLTAGE 39 V
AC$MASS_SPECTROMETRY: FRAGMENTATION_METHOD HCD
AC$MASS_SPECTROMETRY: ACTIVATION_TIME 30 ms
AC$MASS_SPECTROMETRY: ACTIVATION_PARAMETER q=0.25
AC$MASS_SPECTROMETRY: COLLISION_ENERGY 60.0eV
AC$CHROMATOGRAPHY: COLUMN_NAME Symmetry C18 Column, Waters
AC$CHROMATOGRAPHY: SOLVENT A H2O(0.1%HCOOH)
AC$CHROMATOGRAPHY: SOLVENT B CH3CN(0.1%HCOOH)
AC$CHROMATOGRAPHY: FLOW_GRADIENT 0min:5%, 24min:95%, 28min:95%, 28.1:5% (acetonitrile)
AC$CHROMATOGRAPHY: FLOW_RATE 0.3 ml/min
AC$CHROMATOGRAPHY: RETENTION_TIME 462.801 s
MS$FOCUSED_ION: PRECURSOR_M/Z 478
MS$FOCUSED_ION: PRECURSOR_TYPE [M-H]-
PK$SPLASH: splash10-0002-9010300000-a6faae1570793f90f119
PK$NUM_PEAK: 13
PK$PEAK: m/z int. rel.int.
  74.991417 6376.354004 90
  79.957733 3552.14624 50
  95.95253 29538.164062 415
  96.960312 71051.226562 999
  128.932205 1697.221436 24
  220.065399 4141.064941 58
  252.03804 3709.981689 52
  259.014038 2467.437988 35
  274.990234 2417.710693 34
  299.008789 2988.425781 42
  414.090088 26924.556641 379
  463.065704 2438.396973 34
  478.088623 11310.287109 159
//
