ACCESSION: MSBNK-MPI_for_Chemical_Ecology-CE000002
RECORD_TITLE: Erythromycin; LC-ESI-ITFT; MS2; CE 45 eV; [M+H]+
DATE: 2016.01.19 (Created 2012.04.11)
AUTHORS: Ales Svatos, Ravi Kumar Maddula, MPI for Chemical Ecology, Jena, Germany
LICENSE: CC BY-NC-SA
COPYRIGHT: Copyright(C) 2011 MPI for Chemical Ecology, Jena, Germany
PUBLICATION: F. Rasche, A. Svatos, R.K. Maddula, C. Boettcher and S. Boecker. Computing fragmentation trees from tandem mass spectrometry data. Anal. Chem., 2011, 83, 1243-1251 doi:10.1021/ac101825k
COMMENT: Acquisition and generation of the data is financially supported by the Max-Planck-Society
CH$NAME: Erythromycin
CH$COMPOUND_CLASS: Natural Product; Antibiotic
CH$FORMULA: C37H67NO13
CH$EXACT_MASS: 733.46124
CH$SMILES: CC[C@@H]1[C@@]([C@@H]([C@H](C(=O)[C@@H](C[C@@]([C@@H]([C@H]([C@@H]([C@H](C(=O)O1)C)O[C@H]2C[C@@]([C@H]([C@@H](O2)C)O)(C)OC)C)O[C@H]3[C@@H]([C@H](C[C@H](O3)C)N(C)C)O)(C)O)C)C)O)(C)O
CH$IUPAC: InChI=1S/C37H67NO13/c1-14-25-37(10,45)30(41)20(4)27(39)18(2)16-35(8,44)32(51-34-28(40)24(38(11)12)15-19(3)47-34)21(5)29(22(6)33(43)49-25)50-26-17-36(9,46-13)31(42)23(7)48-26/h18-26,28-32,34,40-42,44-45H,14-17H2,1-13H3/t18-,19-,20+,21+,22-,23+,24+,25-,26+,28-,29+,30-,31+,32-,34+,35-,36-,37-/m1/s1
CH$LINK: PUBCHEM CID:12560
CH$LINK: INCHIKEY ULGZDMOVFRHVEP-RWJQBGPGSA-N
CH$LINK: COMPTOX DTXSID4022991
AC$INSTRUMENT: LTQ Orbitrap XL, Thermo Scientfic; HP-1100 HPLC, Agilent
AC$INSTRUMENT_TYPE: LC-ESI-ITFT
AC$MASS_SPECTROMETRY: MS_TYPE MS2
AC$MASS_SPECTROMETRY: ION_MODE POSITIVE
AC$MASS_SPECTROMETRY: ACTIVATION_PARAMETER q=0.25
AC$MASS_SPECTROMETRY: ACTIVATION_TIME 30 ms
AC$MASS_SPECTROMETRY: AUTOMATIC_GAIN_CONTROL 3.0E5
AC$MASS_SPECTROMETRY: CAPILLARY_TEMPERATURE 275 C
AC$MASS_SPECTROMETRY: CAPILLARY_VOLTAGE 39 V
AC$MASS_SPECTROMETRY: COLLISION_ENERGY 45eV
AC$MASS_SPECTROMETRY: FRAGMENTATION_METHOD CID
AC$MASS_SPECTROMETRY: IONIZATION ESI
AC$MASS_SPECTROMETRY: RESOLUTION_SETTING 7500
AC$MASS_SPECTROMETRY: SPRAY_VOLTAGE 4.5 kV
AC$MASS_SPECTROMETRY: TUBE_LENS_VOLTAGE 140 V
AC$CHROMATOGRAPHY: COLUMN_NAME Symmetry C18 Column, Waters
AC$CHROMATOGRAPHY: FLOW_GRADIENT 0min:5%, 24min:95%, 28min:95%, 28.1:5% (acetonitrile)
AC$CHROMATOGRAPHY: FLOW_RATE 0.3 ml/min
AC$CHROMATOGRAPHY: RETENTION_TIME 674.082 s
AC$CHROMATOGRAPHY: SOLVENT A H2O(0.1%HCOOH)
AC$CHROMATOGRAPHY: SOLVENT B CH3CN(0.1%HCOOH)
MS$FOCUSED_ION: PRECURSOR_M/Z 734.46852
MS$FOCUSED_ION: PRECURSOR_TYPE [M+H]+
PK$SPLASH: splash10-004i-0020092000-6a2a3f6a74deed47dd72
PK$NUM_PEAK: 9
PK$PEAK: m/z int. rel.int.
  261.672516 1297.783203 166
  288.520966 1156.283447 148
  339.204498 1132.00354 145
  447.466187 1157.105469 148
  545.029053 1401.104736 179
  554.673706 1242.177002 159
  576.373718 7824.660645 999
  621.173889 1315.847534 168
  623.103516 1173.915649 150
//
