ACCESSION: MSBNK-MPI_for_Chemical_Ecology-CE000547
RECORD_TITLE: 3-Methylthiopropyl-Glucosinolate; LC-ESI-ITFT; MS2; HCD; CE 80.0 eV; [M-H]-
DATE: 2016.01.19 (Created 2012.04.12)
AUTHORS: Ales Svatos, Marco Kai, Ravi Kumar Maddula, MPI for Chemical Ecology, Jena, Germany
LICENSE: CC BY-NC-SA
COPYRIGHT: Copyright(C) 2011 MPI for Chemical Ecology, Jena, Germany
PUBLICATION: F. Rasche, K. Scheubert, F. Hufsky, T. Zichner, M. Kai, A. Svatos and S. Boecker. Identifying the unknowns by aligning fragmentation trees. Anal. Chem., 2012, 84, 3417-3426 doi:10.1021/ac300304u
COMMENT: Acquisition and generation of the data is financially supported by the Max-Planck-Society
CH$NAME: 3-Methylthiopropyl-Glucosinolate
CH$COMPOUND_CLASS: Natural Product; Glucosinolate
CH$FORMULA: C11H21NO9S3
CH$EXACT_MASS: 407.03784
CH$SMILES: [H]OC([H])(C([H])(CO)1)C([H])(O[H])C([H])(O)C([H])(SC(=NOS(O)(=O)=O)C([H])([H])C([H])([H])C([H])([H])SC([H])([H])[H])O1
CH$IUPAC: InChI=1S/C11H21NO9S3/c1-22-4-2-3-7(12-21-24(17,18)19)23-11-10(16)9(15)8(14)6(5-13)20-11/h6,8-11,13-16H,2-5H2,1H3,(H,17,18,19)/b12-7+
CH$LINK: INCHIKEY ZCZCVJVUJGULMO-KPKJPENVSA-N
AC$INSTRUMENT: LTQ Orbitrap XL, Thermo Scientfic; HP-1100 HPLC, Agilent
AC$INSTRUMENT_TYPE: LC-ESI-ITFT
AC$MASS_SPECTROMETRY: MS_TYPE MS2
AC$MASS_SPECTROMETRY: ION_MODE NEGATIVE
AC$MASS_SPECTROMETRY: IONIZATION ESI
AC$MASS_SPECTROMETRY: RESOLUTION_SETTING 7500
AC$MASS_SPECTROMETRY: SPRAY_VOLTAGE 4.5 kV
AC$MASS_SPECTROMETRY: TUBE_LENS_VOLTAGE 140 V
AC$MASS_SPECTROMETRY: AUTOMATIC_GAIN_CONTROL 3.0E5
AC$MASS_SPECTROMETRY: CAPILLARY_TEMPERATURE 275 C
AC$MASS_SPECTROMETRY: CAPILLARY_VOLTAGE 39 V
AC$MASS_SPECTROMETRY: FRAGMENTATION_METHOD HCD
AC$MASS_SPECTROMETRY: ACTIVATION_TIME 30 ms
AC$MASS_SPECTROMETRY: ACTIVATION_PARAMETER q=0.25
AC$MASS_SPECTROMETRY: COLLISION_ENERGY 80.0eV
AC$CHROMATOGRAPHY: COLUMN_NAME Symmetry C18 Column, Waters
AC$CHROMATOGRAPHY: SOLVENT A H2O(0.1%HCOOH)
AC$CHROMATOGRAPHY: SOLVENT B CH3CN(0.1%HCOOH)
AC$CHROMATOGRAPHY: FLOW_GRADIENT 0min:5%, 24min:95%, 28min:95%, 28.1:5% (acetonitrile)
AC$CHROMATOGRAPHY: FLOW_RATE 0.3 ml/min
AC$CHROMATOGRAPHY: RETENTION_TIME 397.512 s
MS$FOCUSED_ION: PRECURSOR_M/Z 406
MS$FOCUSED_ION: PRECURSOR_TYPE [M-H]-
PK$SPLASH: splash10-0002-9000000000-d80f7ea07dba9a1719bb
PK$NUM_PEAK: 18
PK$PEAK: m/z int. rel.int.
  71.014366 10929.826172 10
  74.991425 376604.71875 354
  79.957726 105023.929688 99
  80.965599 15313.472656 14
  85.029808 13058.950195 12
  95.952568 660310.9375 620
  96.946182 12517.657227 12
  96.96019 1063883.25 999
  96.974159 11827.963867 11
  101.024567 11162.326172 10
  127.92485 10836.943359 10
  138.970901 11226.806641 11
  164.021118 39587.085938 37
  212.97197 13749.350586 13
  259.013092 45343.042969 43
  274.98999 27646.953125 26
  299.073212 10458.464844 10
  406.030823 14807.025391 14
//
