ACCESSION: MSBNK-MPI_for_Chemical_Ecology-CE000586
RECORD_TITLE: Indolylmethyl glucosinolate; LC-ESI-ITFT; MS2; HCD; CE 55.0 eV; [M-H]-
DATE: 2016.01.19 (Created 2012.04.12)
AUTHORS: Ales Svatos, Marco Kai, Ravi Kumar Maddula, MPI for Chemical Ecology, Jena, Germany
LICENSE: CC BY-NC-SA
COPYRIGHT: Copyright(C) 2011 MPI for Chemical Ecology, Jena, Germany
PUBLICATION: F. Rasche, K. Scheubert, F. Hufsky, T. Zichner, M. Kai, A. Svatos and S. Boecker. Identifying the unknowns by aligning fragmentation trees. Anal. Chem., 2012, 84, 3417-3426 doi:10.1021/ac300304u
COMMENT: Acquisition and generation of the data is financially supported by the Max-Planck-Society
CH$NAME: Indolylmethyl glucosinolate
CH$COMPOUND_CLASS: Natural Product; Glucosinolate
CH$FORMULA: C16H20N2O9S2
CH$EXACT_MASS: 448.06102
CH$SMILES: OCC([H])(O1)C([H])(O[H])C([H])(O[H])C([H])(O)C([H])(SC(=NOS(O)(=O)=O)C([H])([H])c(c([H])2)c(c([H])3)c(c([H])c([H])c([H])3)n([H])2)1
CH$IUPAC: InChI=1S/C16H20N2O9S2/c19-7-11-13(20)14(21)15(22)16(26-11)28-12(18-27-29(23,24)25)5-8-6-17-10-4-2-1-3-9(8)10/h1-4,6,11,13-17,19-22H,5,7H2,(H,23,24,25)/b18-12+
CH$LINK: PUBCHEM CID:9601101
CH$LINK: INCHIKEY DNDNWOWHUWNBCK-LDADJPATSA-N
AC$INSTRUMENT: LTQ Orbitrap XL, Thermo Scientfic; HP-1100 HPLC, Agilent
AC$INSTRUMENT_TYPE: LC-ESI-ITFT
AC$MASS_SPECTROMETRY: MS_TYPE MS2
AC$MASS_SPECTROMETRY: ION_MODE NEGATIVE
AC$MASS_SPECTROMETRY: IONIZATION ESI
AC$MASS_SPECTROMETRY: RESOLUTION_SETTING 7500
AC$MASS_SPECTROMETRY: SPRAY_VOLTAGE 4.5 kV
AC$MASS_SPECTROMETRY: TUBE_LENS_VOLTAGE 140 V
AC$MASS_SPECTROMETRY: AUTOMATIC_GAIN_CONTROL 3.0E5
AC$MASS_SPECTROMETRY: CAPILLARY_TEMPERATURE 275 C
AC$MASS_SPECTROMETRY: CAPILLARY_VOLTAGE 39 V
AC$MASS_SPECTROMETRY: FRAGMENTATION_METHOD HCD
AC$MASS_SPECTROMETRY: ACTIVATION_TIME 30 ms
AC$MASS_SPECTROMETRY: ACTIVATION_PARAMETER q=0.25
AC$MASS_SPECTROMETRY: COLLISION_ENERGY 55.0eV
AC$CHROMATOGRAPHY: COLUMN_NAME Symmetry C18 Column, Waters
AC$CHROMATOGRAPHY: SOLVENT A H2O(0.1%HCOOH)
AC$CHROMATOGRAPHY: SOLVENT B CH3CN(0.1%HCOOH)
AC$CHROMATOGRAPHY: FLOW_GRADIENT 0min:5%, 24min:95%, 28min:95%, 28.1:5% (acetonitrile)
AC$CHROMATOGRAPHY: FLOW_RATE 0.3 ml/min
AC$CHROMATOGRAPHY: RETENTION_TIME 583.806 s
MS$FOCUSED_ION: PRECURSOR_M/Z 447
MS$FOCUSED_ION: PRECURSOR_TYPE [M-H]-
PK$SPLASH: splash10-0002-9010100000-9e24bf87eacf9fab447d
PK$NUM_PEAK: 36
PK$PEAK: m/z int. rel.int.
  70.162994 6775.614746 4
  74.991516 181941.65625 110
  79.957787 89558.429688 54
  80.965446 8659.017578 5
  85.029816 21192.017578 13
  95.952637 608453.875 368
  96.918732 10742.233398 7
  96.946274 18458.580078 11
  96.9515 11106.791992 7
  96.960342 1649681.25 999
  96.973206 12861.211914 8
  97.001328 9936.893555 6
  97.95929 8205.766602 5
  101.024582 10260.34375 6
  121.955231 19387.972656 12
  127.925636 8527.378906 5
  128.933319 11078.494141 7
  145.050064 10158.548828 6
  172.022827 11427.632812 7
  195.034821 8499.067383 5
  205.043991 78613.851562 48
  227.02565 15117.324219 9
  241.003021 7795.722168 5
  253.995499 15008.699219 9
  259.013458 88859.195312 54
  274.990356 66467.679688 40
  290.986816 19089.150391 12
  291.614624 18107.849609 11
  299.057129 31150.798828 19
  369.140045 7032.380859 4
  389.372772 6712.234863 4
  401.267181 6849.605469 4
  401.932037 7217.331543 4
  447.054321 469207.21875 284
  448.058289 61377.265625 37
  585.843689 7338.253418 4
//
