ACCESSION: MSBNK-MPI_for_Chemical_Ecology-CE000313
RECORD_TITLE: Glucoiberin; LC-ESI-ITFT; MS2; HCD; CE 55.0 eV; [M-H]-
DATE: 2016.01.19 (Created 2012.04.12)
AUTHORS: Ales Svatos, Marco Kai, Ravi Kumar Maddula, MPI for Chemical Ecology, Jena, Germany
LICENSE: CC BY-NC-SA
COPYRIGHT: Copyright(C) 2011 MPI for Chemical Ecology, Jena, Germany
PUBLICATION: F. Rasche, K. Scheubert, F. Hufsky, T. Zichner, M. Kai, A. Svatos and S. Boecker. Identifying the unknowns by aligning fragmentation trees. Anal. Chem., 2012, 84, 3417-3426 doi:10.1021/ac300304u
COMMENT: Acquisition and generation of the data is financially supported by the Max-Planck-Society
CH$NAME: Glucoiberin
CH$COMPOUND_CLASS: Natural Product; Glucosinolate
CH$FORMULA: C11H21NO10S3
CH$EXACT_MASS: 423.03276
CH$SMILES: [H]OC([H])([H])C([H])(O1)C([H])(O[H])C([H])(O[H])C([H])(O[H])C([H])(SC(=NOS(O)(=O)=O)C([H])([H])C([H])([H])C([H])([H])S(=O)C([H])([H])[H])1
CH$IUPAC: InChI=1S/C11H21NO10S3/c1-24(17)4-2-3-7(12-22-25(18,19)20)23-11-10(16)9(15)8(14)6(5-13)21-11/h6,8-11,13-16H,2-5H2,1H3,(H,18,19,20)/b12-7+/t6-,8-,9+,10-,11+,24?/m1/s1
CH$LINK: PUBCHEM CID:9548621
CH$LINK: INCHIKEY PHYYADMVYQURSX-WWFIZPDBSA-N
AC$INSTRUMENT: LTQ Orbitrap XL, Thermo Scientfic; HP-1100 HPLC, Agilent
AC$INSTRUMENT_TYPE: LC-ESI-ITFT
AC$MASS_SPECTROMETRY: MS_TYPE MS2
AC$MASS_SPECTROMETRY: ION_MODE NEGATIVE
AC$MASS_SPECTROMETRY: IONIZATION ESI
AC$MASS_SPECTROMETRY: RESOLUTION_SETTING 7500
AC$MASS_SPECTROMETRY: SPRAY_VOLTAGE 4.5 kV
AC$MASS_SPECTROMETRY: TUBE_LENS_VOLTAGE 140 V
AC$MASS_SPECTROMETRY: AUTOMATIC_GAIN_CONTROL 3.0E5
AC$MASS_SPECTROMETRY: CAPILLARY_TEMPERATURE 275 C
AC$MASS_SPECTROMETRY: CAPILLARY_VOLTAGE 39 V
AC$MASS_SPECTROMETRY: FRAGMENTATION_METHOD HCD
AC$MASS_SPECTROMETRY: ACTIVATION_TIME 30 ms
AC$MASS_SPECTROMETRY: ACTIVATION_PARAMETER q=0.25
AC$MASS_SPECTROMETRY: COLLISION_ENERGY 55.0eV
AC$CHROMATOGRAPHY: COLUMN_NAME Symmetry C18 Column, Waters
AC$CHROMATOGRAPHY: SOLVENT A H2O(0.1%HCOOH)
AC$CHROMATOGRAPHY: SOLVENT B CH3CN(0.1%HCOOH)
AC$CHROMATOGRAPHY: FLOW_GRADIENT 0min:5%, 24min:95%, 28min:95%, 28.1:5% (acetonitrile)
AC$CHROMATOGRAPHY: FLOW_RATE 0.3 ml/min
AC$CHROMATOGRAPHY: RETENTION_TIME 170.012 s
MS$FOCUSED_ION: PRECURSOR_M/Z 422
MS$FOCUSED_ION: PRECURSOR_TYPE [M-H]-
PK$SPLASH: splash10-0002-9102300000-763ae9d0ceacadbad1ea
PK$NUM_PEAK: 25
PK$PEAK: m/z int. rel.int.
  74.9916 24113.392578 99
  79.958015 7591.304688 31
  95.952766 89007.304688 365
  96.960457 243880.625 999
  96.968422 2248.111084 9
  96.974297 2728.487305 11
  128.932678 6235.273926 26
  161.987122 2929.658936 12
  164.002747 4305.189941 18
  180.016312 10037.755859 41
  195.0336 2513.040039 10
  195.974838 24386.619141 100
  227.023224 3081.147217 13
  228.968063 3882.173584 16
  259.013611 15312.06543 63
  274.990601 7185.692871 29
  290.984772 2797.408203 11
  299.076416 2712.794189 11
  342.069519 2176.11499 9
  358.027924 89287.796875 366
  359.030731 11238.478516 46
  407.003204 10246.539062 42
  422.026489 109598.054688 449
  423.029175 16973.0 70
  424.022827 4074.234131 17
//
