ACCESSION: MSBNK-MPI_for_Chemical_Ecology-CE000397
RECORD_TITLE: Glucomalcomiin; LC-ESI-ITFT; MS2; HCD; CE 90.0 eV; [M-H]-
DATE: 2016.01.19 (Created 2012.04.12)
AUTHORS: Ales Svatos, Marco Kai, Ravi Kumar Maddula, MPI for Chemical Ecology, Jena, Germany
LICENSE: CC BY-NC-SA
COPYRIGHT: Copyright(C) 2011 MPI for Chemical Ecology, Jena, Germany
PUBLICATION: F. Rasche, K. Scheubert, F. Hufsky, T. Zichner, M. Kai, A. Svatos and S. Boecker. Identifying the unknowns by aligning fragmentation trees. Anal. Chem., 2012, 84, 3417-3426 doi:10.1021/ac300304u
COMMENT: Acquisition and generation of the data is financially supported by the Max-Planck-Society
CH$NAME: Glucomalcomiin
CH$NAME: Glucomalcommin
CH$COMPOUND_CLASS: Natural Product; Glucosinolate
CH$FORMULA: C17H23NO11S2
CH$EXACT_MASS: 481.07125
CH$SMILES: OCC([H])(O1)C([H])(O[H])C([H])(O[H])C([H])(O)C([H])(SC(=NOS(O)(=O)=O)C([H])([H])C([H])([H])C([H])([H])OC(=O)c(c([H])2)c([H])c([H])c([H])c([H])2)1
CH$IUPAC: InChI=1S/C17H23NO11S2/c19-9-11-13(20)14(21)15(22)17(28-11)30-12(18-29-31(24,25)26)7-4-8-27-16(23)10-5-2-1-3-6-10/h1-3,5-6,11,13-15,17,19-22H,4,7-9H2,(H,24,25,26)/b18-12+
CH$LINK: PUBCHEM CID:25244201
CH$LINK: INCHIKEY CGAALQATDWOQFD-LDADJPATSA-N
AC$INSTRUMENT: LTQ Orbitrap XL, Thermo Scientfic; HP-1100 HPLC, Agilent
AC$INSTRUMENT_TYPE: LC-ESI-ITFT
AC$MASS_SPECTROMETRY: MS_TYPE MS2
AC$MASS_SPECTROMETRY: ION_MODE NEGATIVE
AC$MASS_SPECTROMETRY: IONIZATION ESI
AC$MASS_SPECTROMETRY: RESOLUTION_SETTING 7500
AC$MASS_SPECTROMETRY: SPRAY_VOLTAGE 4.5 kV
AC$MASS_SPECTROMETRY: TUBE_LENS_VOLTAGE 140 V
AC$MASS_SPECTROMETRY: AUTOMATIC_GAIN_CONTROL 3.0E5
AC$MASS_SPECTROMETRY: CAPILLARY_TEMPERATURE 275 C
AC$MASS_SPECTROMETRY: CAPILLARY_VOLTAGE 39 V
AC$MASS_SPECTROMETRY: FRAGMENTATION_METHOD HCD
AC$MASS_SPECTROMETRY: ACTIVATION_TIME 30 ms
AC$MASS_SPECTROMETRY: ACTIVATION_PARAMETER q=0.25
AC$MASS_SPECTROMETRY: COLLISION_ENERGY 90.0eV
AC$CHROMATOGRAPHY: COLUMN_NAME Symmetry C18 Column, Waters
AC$CHROMATOGRAPHY: SOLVENT A H2O(0.1%HCOOH)
AC$CHROMATOGRAPHY: SOLVENT B CH3CN(0.1%HCOOH)
AC$CHROMATOGRAPHY: FLOW_GRADIENT 0min:5%, 24min:95%, 28min:95%, 28.1:5% (acetonitrile)
AC$CHROMATOGRAPHY: FLOW_RATE 0.3 ml/min
AC$CHROMATOGRAPHY: RETENTION_TIME 820.991 s
MS$FOCUSED_ION: PRECURSOR_M/Z 480
MS$FOCUSED_ION: PRECURSOR_TYPE [M-H]-
PK$SPLASH: splash10-0002-9300000000-d28db3feebf0d60ec65c
PK$NUM_PEAK: 24
PK$PEAK: m/z int. rel.int.
  71.014236 12058.640625 9
  74.765106 19828.830078 14
  74.991577 276292.09375 196
  79.957916 181520.875 128
  80.965973 20997.34375 15
  85.030121 15737.338867 11
  93.03537 16897.355469 12
  95.952721 897149.125 635
  96.918648 13618.884766 10
  96.946281 11364.173828 8
  96.960419 1411253.75 999
  96.973145 9559.333984 7
  116.017937 91570.4375 65
  121.0299 773191.875 547
  122.03334 46459.207031 33
  138.971725 30475.896484 22
  164.969879 23121.144531 16
  179.998703 14614.617188 10
  195.974945 168452.84375 119
  241.001602 9378.805664 7
  259.01358 45062.066406 32
  274.988739 14802.540039 10
  291.588684 13154.724609 9
  299.060089 27328.410156 19
//
