ACCESSION: MSBNK-MPI_for_Chemical_Ecology-CE000182
RECORD_TITLE: Rifampicin; LC-ESI-ITFT; MS2; CE 45 eV; [M+H]+
DATE: 2016.01.19 (Created 2012.04.11)
AUTHORS: Ales Svatos, Ravi Kumar Maddula, MPI for Chemical Ecology, Jena, Germany
LICENSE: CC BY-NC-SA
COPYRIGHT: Copyright(C) 2011 MPI for Chemical Ecology, Jena, Germany
PUBLICATION: F. Rasche, A. Svatos, R.K. Maddula, C. Boettcher and S. Boecker. Computing fragmentation trees from tandem mass spectrometry data. Anal. Chem., 2011, 83, 1243-1251 doi:10.1021/ac101825k
COMMENT: Acquisition and generation of the data is financially supported by the Max-Planck-Society
CH$NAME: Rifampicin
CH$COMPOUND_CLASS: Natural Product; Antibiotics
CH$FORMULA: C43H58N4O12
CH$EXACT_MASS: 822.40513
CH$SMILES: C[C@H]1/C=C/C=C(C(=O)NC2=C(C(=C3C(=C2O)C(=C(C4=C3C(=O)[C@](O4)(O/C=C/[C@@H]([C@H]([C@H]([C@@H]([C@@H]([C@@H]([C@H]1O)C)O)C)OC(=O)C)C)OC)C)C)O)O)/C=N/N5CCN(CC5)C)/C
CH$IUPAC: InChI=1S/C43H58N4O12/c1-21-12-11-13-22(2)42(55)45-33-28(20-44-47-17-15-46(9)16-18-47)37(52)30-31(38(33)53)36(51)26(6)40-32(30)41(54)43(8,59-40)57-19-14-29(56-10)23(3)39(58-27(7)48)25(5)35(50)24(4)34(21)49/h11-14,19-21,23-25,29,34-35,39,49-53H,15-18H2,1-10H3,(H,45,55)/b12-11+,19-14+,22-13-,44-20+/t21-,23+,24+,25+,29-,34-,35+,39+,43-/m0/s1
CH$LINK: PUBCHEM CID:135398735
CH$LINK: INCHIKEY JQXXHWHPUNPDRT-WLSIYKJHSA-N
AC$INSTRUMENT: LTQ Orbitrap XL, Thermo Scientfic; HP-1100 HPLC, Agilent
AC$INSTRUMENT_TYPE: LC-ESI-ITFT
AC$MASS_SPECTROMETRY: MS_TYPE MS2
AC$MASS_SPECTROMETRY: ION_MODE POSITIVE
AC$MASS_SPECTROMETRY: ACTIVATION_PARAMETER q=0.25
AC$MASS_SPECTROMETRY: ACTIVATION_TIME 30 ms
AC$MASS_SPECTROMETRY: AUTOMATIC_GAIN_CONTROL 3.0E5
AC$MASS_SPECTROMETRY: CAPILLARY_TEMPERATURE 275 C
AC$MASS_SPECTROMETRY: CAPILLARY_VOLTAGE 39 V
AC$MASS_SPECTROMETRY: COLLISION_ENERGY 45eV
AC$MASS_SPECTROMETRY: FRAGMENTATION_METHOD CID
AC$MASS_SPECTROMETRY: IONIZATION ESI
AC$MASS_SPECTROMETRY: RESOLUTION_SETTING 7500
AC$MASS_SPECTROMETRY: SPRAY_VOLTAGE 4.5 kV
AC$MASS_SPECTROMETRY: TUBE_LENS_VOLTAGE 140 V
AC$CHROMATOGRAPHY: COLUMN_NAME Symmetry C18 Column, Waters
AC$CHROMATOGRAPHY: FLOW_GRADIENT 0min:5%, 24min:95%, 28min:95%, 28.1:5% (acetonitrile)
AC$CHROMATOGRAPHY: FLOW_RATE 0.3 ml/min
AC$CHROMATOGRAPHY: RETENTION_TIME 909.046 s
AC$CHROMATOGRAPHY: SOLVENT A H2O(0.1%HCOOH)
AC$CHROMATOGRAPHY: SOLVENT B CH3CN(0.1%HCOOH)
MS$FOCUSED_ION: PRECURSOR_M/Z 823.41241
MS$FOCUSED_ION: PRECURSOR_TYPE [M+H]+
PK$SPLASH: splash10-000i-0000090000-d24ee34576db61e707a9
PK$NUM_PEAK: 9
PK$PEAK: m/z int. rel.int.
  246.998001 1229.803345 5
  247.500244 1377.259155 6
  325.044006 2353.47998 9
  384.16098 1622.51416 6
  439.111816 2399.244629 10
  505.557648 1182.381104 5
  507.194489 1776.058838 7
  539.213867 249848.859375 999
  839.10907 1178.216797 5
//
