ACCESSION: MSBNK-MPI_for_Chemical_Ecology-CE000007
RECORD_TITLE: Laudanosine; LC-ESI-ITFT; MS2; CE 45 eV; [M+H]+
DATE: 2016.01.19 (Created 2012.04.11, modified 2012.05.21)
AUTHORS: Ales Svatos, Ravi Kumar Maddula, MPI for Chemical Ecology, Jena, Germany
LICENSE: CC BY-NC-SA
COPYRIGHT: Copyright(C) 2011 MPI for Chemical Ecology, Jena, Germany
PUBLICATION: F. Rasche, A. Svatos, R.K. Maddula, C. Boettcher and S. Boecker. Computing fragmentation trees from tandem mass spectrometry data. Anal. Chem., 2011, 83, 1243-1251 doi:10.1021/ac101825k
COMMENT: Acquisition and generation of the data is financially supported by the Max-Planck-Society
CH$NAME: Laudanosine
CH$COMPOUND_CLASS: Natural Product; Alkaloid
CH$FORMULA: C21H27NO4
CH$EXACT_MASS: 357.19401
CH$SMILES: CN1CCC2=CC(=C(C=C2C1CC3=CC(=C(C=C3)OC)OC)OC)OC
CH$IUPAC: InChI=1S/C21H27NO4/c1-22-9-8-15-12-20(25-4)21(26-5)13-16(15)17(22)10-14-6-7-18(23-2)19(11-14)24-3/h6-7,11-13,17H,8-10H2,1-5H3
CH$LINK: PUBCHEM CID:15548
CH$LINK: INCHIKEY KGPAYJZAMGEDIQ-UHFFFAOYSA-N
AC$INSTRUMENT: LTQ Orbitrap XL, Thermo Scientfic; HP-1100 HPLC, Agilent
AC$INSTRUMENT_TYPE: LC-ESI-ITFT
AC$MASS_SPECTROMETRY: MS_TYPE MS2
AC$MASS_SPECTROMETRY: ION_MODE POSITIVE
AC$MASS_SPECTROMETRY: ACTIVATION_PARAMETER q=0.25
AC$MASS_SPECTROMETRY: ACTIVATION_TIME 30 ms
AC$MASS_SPECTROMETRY: AUTOMATIC_GAIN_CONTROL 3.0E5
AC$MASS_SPECTROMETRY: CAPILLARY_TEMPERATURE 275 C
AC$MASS_SPECTROMETRY: CAPILLARY_VOLTAGE 39 V
AC$MASS_SPECTROMETRY: COLLISION_ENERGY 45eV
AC$MASS_SPECTROMETRY: FRAGMENTATION_METHOD CID
AC$MASS_SPECTROMETRY: IONIZATION ESI
AC$MASS_SPECTROMETRY: RESOLUTION_SETTING 7500
AC$MASS_SPECTROMETRY: SPRAY_VOLTAGE 4.5 kV
AC$MASS_SPECTROMETRY: TUBE_LENS_VOLTAGE 140 V
AC$CHROMATOGRAPHY: COLUMN_NAME Symmetry C18 Column, Waters
AC$CHROMATOGRAPHY: FLOW_GRADIENT 0min:5%, 24min:95%, 28min:95%, 28.1:5% (acetonitrile)
AC$CHROMATOGRAPHY: FLOW_RATE 0.3 ml/min
AC$CHROMATOGRAPHY: RETENTION_TIME 504.168 s
AC$CHROMATOGRAPHY: SOLVENT A H2O(0.1%HCOOH)
AC$CHROMATOGRAPHY: SOLVENT B CH3CN(0.1%HCOOH)
MS$FOCUSED_ION: PRECURSOR_M/Z 358.20129
MS$FOCUSED_ION: PRECURSOR_TYPE [M+H]+
PK$SPLASH: splash10-0a4i-0091000000-21c0ac76154ee8a5b6e0
PK$NUM_PEAK: 35
PK$PEAK: m/z int. rel.int.
  95.275635 1310.256958 1
  109.230049 1067.238647 1
  112.897484 1147.478516 1
  118.76619 1305.01001 1
  121.199219 1216.836792 1
  127.285881 1064.987915 1
  136.120056 1076.143799 1
  139.846436 1136.486328 1
  141.827332 1243.461792 1
  145.362396 1109.204468 1
  151.075409 8273.264648 9
  165.090881 7571.004395 8
  174.067368 3437.477539 4
  188.104156 1526.804077 2
  188.464264 1271.777832 1
  189.090881 29797.792969 31
  190.087479 5177.114746 5
  191.094193 6884.887207 7
  192.101593 1264.24585 1
  205.782944 4618.094238 5
  206.117538 949932.8125 999
  206.452042 2824.111328 3
  215.909912 1188.214478 1
  218.095947 1138.362915 1
  220.543503 1408.5448 1
  295.133057 6372.566895 7
  296.141113 5829.337402 6
  302.474792 1254.596436 1
  312.142822 1366.261841 1
  315.158875 4388.835449 5
  326.177246 1536.527954 2
  327.159088 129054.742188 136
  341.170868 2290.45166 2
  343.183411 1942.242554 2
  380.929535 1172.123901 1
//
