ACCESSION: MSBNK-MPI_for_Chemical_Ecology-CE000583
RECORD_TITLE: Indolylmethyl glucosinolate; LC-ESI-ITFT; MS2; HCD; CE 60.0 eV; [M-H]-
DATE: 2016.01.19 (Created 2012.04.12)
AUTHORS: Ales Svatos, Marco Kai, Ravi Kumar Maddula, MPI for Chemical Ecology, Jena, Germany
LICENSE: CC BY-NC-SA
COPYRIGHT: Copyright(C) 2011 MPI for Chemical Ecology, Jena, Germany
PUBLICATION: F. Rasche, K. Scheubert, F. Hufsky, T. Zichner, M. Kai, A. Svatos and S. Boecker. Identifying the unknowns by aligning fragmentation trees. Anal. Chem., 2012, 84, 3417-3426 doi:10.1021/ac300304u
COMMENT: Acquisition and generation of the data is financially supported by the Max-Planck-Society
CH$NAME: Indolylmethyl glucosinolate
CH$COMPOUND_CLASS: Natural Product; Glucosinolate
CH$FORMULA: C16H20N2O9S2
CH$EXACT_MASS: 448.06102
CH$SMILES: OCC([H])(O1)C([H])(O[H])C([H])(O[H])C([H])(O)C([H])(SC(=NOS(O)(=O)=O)C([H])([H])c(c([H])2)c(c([H])3)c(c([H])c([H])c([H])3)n([H])2)1
CH$IUPAC: InChI=1S/C16H20N2O9S2/c19-7-11-13(20)14(21)15(22)16(26-11)28-12(18-27-29(23,24)25)5-8-6-17-10-4-2-1-3-9(8)10/h1-4,6,11,13-17,19-22H,5,7H2,(H,23,24,25)/b18-12+
CH$LINK: PUBCHEM CID:9601101
CH$LINK: INCHIKEY DNDNWOWHUWNBCK-LDADJPATSA-N
AC$INSTRUMENT: LTQ Orbitrap XL, Thermo Scientfic; HP-1100 HPLC, Agilent
AC$INSTRUMENT_TYPE: LC-ESI-ITFT
AC$MASS_SPECTROMETRY: MS_TYPE MS2
AC$MASS_SPECTROMETRY: ION_MODE NEGATIVE
AC$MASS_SPECTROMETRY: IONIZATION ESI
AC$MASS_SPECTROMETRY: RESOLUTION_SETTING 7500
AC$MASS_SPECTROMETRY: SPRAY_VOLTAGE 4.5 kV
AC$MASS_SPECTROMETRY: TUBE_LENS_VOLTAGE 140 V
AC$MASS_SPECTROMETRY: AUTOMATIC_GAIN_CONTROL 3.0E5
AC$MASS_SPECTROMETRY: CAPILLARY_TEMPERATURE 275 C
AC$MASS_SPECTROMETRY: CAPILLARY_VOLTAGE 39 V
AC$MASS_SPECTROMETRY: FRAGMENTATION_METHOD HCD
AC$MASS_SPECTROMETRY: ACTIVATION_TIME 30 ms
AC$MASS_SPECTROMETRY: ACTIVATION_PARAMETER q=0.25
AC$MASS_SPECTROMETRY: COLLISION_ENERGY 60.0eV
AC$CHROMATOGRAPHY: COLUMN_NAME Symmetry C18 Column, Waters
AC$CHROMATOGRAPHY: SOLVENT A H2O(0.1%HCOOH)
AC$CHROMATOGRAPHY: SOLVENT B CH3CN(0.1%HCOOH)
AC$CHROMATOGRAPHY: FLOW_GRADIENT 0min:5%, 24min:95%, 28min:95%, 28.1:5% (acetonitrile)
AC$CHROMATOGRAPHY: FLOW_RATE 0.3 ml/min
AC$CHROMATOGRAPHY: RETENTION_TIME 584.151 s
MS$FOCUSED_ION: PRECURSOR_M/Z 447
MS$FOCUSED_ION: PRECURSOR_TYPE [M-H]-
PK$SPLASH: splash10-0002-9000000000-18a45c4a14ab1623b4c9
PK$NUM_PEAK: 36
PK$PEAK: m/z int. rel.int.
  74.991539 220150.859375 131
  79.957855 105792.890625 63
  80.965714 10861.978516 6
  85.029984 18766.107422 11
  95.939186 10164.125977 6
  95.952721 725203.875 432
  95.964554 6954.384766 4
  96.919167 11882.508789 7
  96.94664 18275.912109 11
  96.951157 12182.342773 7
  96.960335 1676904.375 999
  96.97242 20293.457031 12
  97.002106 14681.703125 9
  97.948105 7142.959473 4
  97.959862 9631.875977 6
  98.95591 15315.291016 9
  121.955727 15773.058594 9
  127.924622 8643.501953 5
  128.932358 8834.202148 5
  138.971191 9727.037109 6
  163.061234 8906.720703 5
  172.022949 9656.496094 6
  195.033417 12563.162109 7
  205.044342 83723.4375 50
  206.048584 8988.661133 5
  227.024139 10106.038086 6
  241.00383 8686.396484 5
  251.012726 7057.45752 4
  253.996155 12607.069336 8
  259.01358 83278.914062 50
  260.01767 7567.19873 5
  274.990204 69784.375 42
  290.984528 8822.62793 5
  299.071442 14339.227539 9
  447.054688 188251.8125 112
  448.056976 39284.441406 23
//
