ACCESSION: MSBNK-MPI_for_Chemical_Ecology-CE000544
RECORD_TITLE: 3-Methylthiopropyl-Glucosinolate; LC-ESI-ITFT; MS2; HCD; CE 65.0 eV; [M-H]-
DATE: 2016.01.19 (Created 2012.04.12)
AUTHORS: Ales Svatos, Marco Kai, Ravi Kumar Maddula, MPI for Chemical Ecology, Jena, Germany
LICENSE: CC BY-NC-SA
COPYRIGHT: Copyright(C) 2011 MPI for Chemical Ecology, Jena, Germany
PUBLICATION: F. Rasche, K. Scheubert, F. Hufsky, T. Zichner, M. Kai, A. Svatos and S. Boecker. Identifying the unknowns by aligning fragmentation trees. Anal. Chem., 2012, 84, 3417-3426 doi:10.1021/ac300304u
COMMENT: Acquisition and generation of the data is financially supported by the Max-Planck-Society
CH$NAME: 3-Methylthiopropyl-Glucosinolate
CH$COMPOUND_CLASS: Natural Product; Glucosinolate
CH$FORMULA: C11H21NO9S3
CH$EXACT_MASS: 407.03784
CH$SMILES: [H]OC([H])(C([H])(CO)1)C([H])(O[H])C([H])(O)C([H])(SC(=NOS(O)(=O)=O)C([H])([H])C([H])([H])C([H])([H])SC([H])([H])[H])O1
CH$IUPAC: InChI=1S/C11H21NO9S3/c1-22-4-2-3-7(12-21-24(17,18)19)23-11-10(16)9(15)8(14)6(5-13)20-11/h6,8-11,13-16H,2-5H2,1H3,(H,17,18,19)/b12-7+
CH$LINK: INCHIKEY ZCZCVJVUJGULMO-KPKJPENVSA-N
AC$INSTRUMENT: LTQ Orbitrap XL, Thermo Scientfic; HP-1100 HPLC, Agilent
AC$INSTRUMENT_TYPE: LC-ESI-ITFT
AC$MASS_SPECTROMETRY: MS_TYPE MS2
AC$MASS_SPECTROMETRY: ION_MODE NEGATIVE
AC$MASS_SPECTROMETRY: IONIZATION ESI
AC$MASS_SPECTROMETRY: RESOLUTION_SETTING 7500
AC$MASS_SPECTROMETRY: SPRAY_VOLTAGE 4.5 kV
AC$MASS_SPECTROMETRY: TUBE_LENS_VOLTAGE 140 V
AC$MASS_SPECTROMETRY: AUTOMATIC_GAIN_CONTROL 3.0E5
AC$MASS_SPECTROMETRY: CAPILLARY_TEMPERATURE 275 C
AC$MASS_SPECTROMETRY: CAPILLARY_VOLTAGE 39 V
AC$MASS_SPECTROMETRY: FRAGMENTATION_METHOD HCD
AC$MASS_SPECTROMETRY: ACTIVATION_TIME 30 ms
AC$MASS_SPECTROMETRY: ACTIVATION_PARAMETER q=0.25
AC$MASS_SPECTROMETRY: COLLISION_ENERGY 65.0eV
AC$CHROMATOGRAPHY: COLUMN_NAME Symmetry C18 Column, Waters
AC$CHROMATOGRAPHY: SOLVENT A H2O(0.1%HCOOH)
AC$CHROMATOGRAPHY: SOLVENT B CH3CN(0.1%HCOOH)
AC$CHROMATOGRAPHY: FLOW_GRADIENT 0min:5%, 24min:95%, 28min:95%, 28.1:5% (acetonitrile)
AC$CHROMATOGRAPHY: FLOW_RATE 0.3 ml/min
AC$CHROMATOGRAPHY: RETENTION_TIME 396.18 s
MS$FOCUSED_ION: PRECURSOR_M/Z 406
MS$FOCUSED_ION: PRECURSOR_TYPE [M-H]-
PK$SPLASH: splash10-0002-9000000000-c837a17b518b02425b81
PK$NUM_PEAK: 16
PK$PEAK: m/z int. rel.int.
  74.991463 216124.03125 190
  79.957787 71081.742188 62
  80.965645 14963.917969 13
  85.029907 13718.449219 12
  95.952652 415359.1875 364
  96.945717 12058.251953 11
  96.960297 1138969.125 999
  96.974777 10888.053711 10
  98.956032 11137.017578 10
  164.021103 42938.824219 38
  195.033051 9434.303711 8
  212.972122 19257.304688 17
  259.013184 50726.511719 44
  274.990173 42437.515625 37
  406.030914 155488.53125 136
  407.033173 20741.419922 18
//
