ACCESSION: MSBNK-MPI_for_Chemical_Ecology-CE000359
RECORD_TITLE: Glucoraphanin; LC-ESI-ITFT; MS2; HCD; CE 65.0 eV; [M-H]-
DATE: 2016.01.19 (Created 2012.04.12)
AUTHORS: Ales Svatos, Marco Kai, Ravi Kumar Maddula, MPI for Chemical Ecology, Jena, Germany
LICENSE: CC BY-NC-SA
COPYRIGHT: Copyright(C) 2011 MPI for Chemical Ecology, Jena, Germany
PUBLICATION: F. Rasche, K. Scheubert, F. Hufsky, T. Zichner, M. Kai, A. Svatos and S. Boecker. Identifying the unknowns by aligning fragmentation trees. Anal. Chem., 2012, 84, 3417-3426 doi:10.1021/ac300304u
COMMENT: Acquisition and generation of the data is financially supported by the Max-Planck-Society
CH$NAME: Glucoraphanin
CH$COMPOUND_CLASS: Natural Product; Glucosinolate
CH$FORMULA: C12H23NO10S3
CH$EXACT_MASS: 437.04841
CH$SMILES: [H]OC([H])([H])C([H])(O1)C([H])(O[H])C([H])(O[H])C([H])(O[H])C([H])(SC(=NOS(O)(=O)=O)C([H])([H])C([H])([H])C([H])([H])C([H])([H])S(=O)C([H])([H])[H])1
CH$IUPAC: InChI=1S/C12H23NO10S3/c1-25(18)5-3-2-4-8(13-23-26(19,20)21)24-12-11(17)10(16)9(15)7(6-14)22-12/h7,9-12,14-17H,2-6H2,1H3,(H,19,20,21)/b13-8+/t7-,9-,10+,11-,12+,25?/m1/s1
CH$LINK: PUBCHEM CID:9548633
CH$LINK: INCHIKEY GMMLNKINDDUDCF-RFOBZYEESA-N
CH$LINK: COMPTOX DTXSID90894071
AC$INSTRUMENT: LTQ Orbitrap XL, Thermo Scientfic; HP-1100 HPLC, Agilent
AC$INSTRUMENT_TYPE: LC-ESI-ITFT
AC$MASS_SPECTROMETRY: MS_TYPE MS2
AC$MASS_SPECTROMETRY: ION_MODE NEGATIVE
AC$MASS_SPECTROMETRY: IONIZATION ESI
AC$MASS_SPECTROMETRY: RESOLUTION_SETTING 7500
AC$MASS_SPECTROMETRY: SPRAY_VOLTAGE 4.5 kV
AC$MASS_SPECTROMETRY: TUBE_LENS_VOLTAGE 140 V
AC$MASS_SPECTROMETRY: AUTOMATIC_GAIN_CONTROL 3.0E5
AC$MASS_SPECTROMETRY: CAPILLARY_TEMPERATURE 275 C
AC$MASS_SPECTROMETRY: CAPILLARY_VOLTAGE 39 V
AC$MASS_SPECTROMETRY: FRAGMENTATION_METHOD HCD
AC$MASS_SPECTROMETRY: ACTIVATION_TIME 30 ms
AC$MASS_SPECTROMETRY: ACTIVATION_PARAMETER q=0.25
AC$MASS_SPECTROMETRY: COLLISION_ENERGY 65.0eV
AC$CHROMATOGRAPHY: COLUMN_NAME Symmetry C18 Column, Waters
AC$CHROMATOGRAPHY: SOLVENT A H2O(0.1%HCOOH)
AC$CHROMATOGRAPHY: SOLVENT B CH3CN(0.1%HCOOH)
AC$CHROMATOGRAPHY: FLOW_GRADIENT 0min:5%, 24min:95%, 28min:95%, 28.1:5% (acetonitrile)
AC$CHROMATOGRAPHY: FLOW_RATE 0.3 ml/min
AC$CHROMATOGRAPHY: RETENTION_TIME 211.13 s
MS$FOCUSED_ION: PRECURSOR_M/Z 436
MS$FOCUSED_ION: PRECURSOR_TYPE [M-H]-
PK$SPLASH: splash10-00g0-0519800000-aecdf6b8b252611b2bea
PK$NUM_PEAK: 9
PK$PEAK: m/z int. rel.int.
  178.017883 4126922.25 671
  194.031403 268093.34375 44
  259.012817 702077.0625 114
  274.989532 503885.09375 82
  372.042633 6140879.0 999
  373.045776 473891.3125 77
  421.017548 1582236.125 257
  436.040955 4605828.0 749
  437.042969 402658.84375 66
//
