ACCESSION: MSBNK-MPI_for_Chemical_Ecology-CE000015
RECORD_TITLE: Tyramine; LC-ESI-ITFT; MS2; CE 35 eV; [M+H]+
DATE: 2016.01.19 (Created 2012.04.11)
AUTHORS: Ales Svatos, Ravi Kumar Maddula, MPI for Chemical Ecology, Jena, Germany
LICENSE: CC BY-NC-SA
COPYRIGHT: Copyright(C) 2011 MPI for Chemical Ecology, Jena, Germany
PUBLICATION: F. Rasche, A. Svatos, R.K. Maddula, C. Boettcher and S. Boecker. Computing fragmentation trees from tandem mass spectrometry data. Anal. Chem., 2011, 83, 1243-1251 doi:10.1021/ac101825k
COMMENT: Acquisition and generation of the data is financially supported by the Max-Planck-Society
CH$NAME: Tyramine
CH$COMPOUND_CLASS: Natural Product; Amine
CH$FORMULA: C8H11NO
CH$EXACT_MASS: 137.08406
CH$SMILES: C1=CC(=CC=C1CCN)O
CH$IUPAC: InChI=1S/C8H11NO/c9-6-5-7-1-3-8(10)4-2-7/h1-4,10H,5-6,9H2
CH$LINK: PUBCHEM CID:5610
CH$LINK: INCHIKEY DZGWFCGJZKJUFP-UHFFFAOYSA-N
CH$LINK: COMPTOX DTXSID2043874
AC$INSTRUMENT: LTQ Orbitrap XL, Thermo Scientfic; HP-1100 HPLC, Agilent
AC$INSTRUMENT_TYPE: LC-ESI-ITFT
AC$MASS_SPECTROMETRY: MS_TYPE MS2
AC$MASS_SPECTROMETRY: ION_MODE POSITIVE
AC$MASS_SPECTROMETRY: ACTIVATION_PARAMETER q=0.25
AC$MASS_SPECTROMETRY: ACTIVATION_TIME 30 ms
AC$MASS_SPECTROMETRY: AUTOMATIC_GAIN_CONTROL 3.0E5
AC$MASS_SPECTROMETRY: CAPILLARY_TEMPERATURE 275 C
AC$MASS_SPECTROMETRY: CAPILLARY_VOLTAGE 39 V
AC$MASS_SPECTROMETRY: COLLISION_ENERGY 35eV
AC$MASS_SPECTROMETRY: FRAGMENTATION_METHOD CID
AC$MASS_SPECTROMETRY: IONIZATION ESI
AC$MASS_SPECTROMETRY: RESOLUTION_SETTING 7500
AC$MASS_SPECTROMETRY: SPRAY_VOLTAGE 4.5 kV
AC$MASS_SPECTROMETRY: TUBE_LENS_VOLTAGE 140 V
AC$CHROMATOGRAPHY: COLUMN_NAME Symmetry C18 Column, Waters
AC$CHROMATOGRAPHY: FLOW_GRADIENT 0min:5%, 24min:95%, 28min:95%, 28.1:5% (acetonitrile)
AC$CHROMATOGRAPHY: FLOW_RATE 0.3 ml/min
AC$CHROMATOGRAPHY: RETENTION_TIME 506.793 s
AC$CHROMATOGRAPHY: SOLVENT A H2O(0.1%HCOOH)
AC$CHROMATOGRAPHY: SOLVENT B CH3CN(0.1%HCOOH)
MS$FOCUSED_ION: PRECURSOR_M/Z 138.09134
MS$FOCUSED_ION: PRECURSOR_TYPE [M+H]+
PK$SPLASH: splash10-00di-1900000000-ba59a2d5cb4492894c7d
PK$NUM_PEAK: 25
PK$PEAK: m/z int. rel.int.
  50.518665 1090.294434 8
  50.701893 1028.903687 7
  52.910809 1328.398315 10
  54.207413 1533.193604 11
  63.042004 1137.082275 8
  65.256874 1107.396362 8
  78.648445 1195.921997 9
  83.580536 1338.873535 10
  86.779594 1286.569092 9
  90.991165 1146.812988 8
  93.002205 1317.173828 9
  96.41893 1172.45166 8
  96.960663 3178.200684 23
  100.724876 1061.081421 8
  114.727509 1156.674316 8
  120.044235 139191.6875 999
  123.265991 1010.132202 7
  124.966591 2124.511719 15
  139.568161 1154.664429 8
  144.080475 1153.440796 8
  152.449646 1222.57666 9
  154.387085 1201.848633 9
  168.427841 1168.628296 8
  172.450455 1161.608521 8
  188.437393 1509.969482 11
//
