ACCESSION: MSBNK-MPI_for_Chemical_Ecology-CE000393
RECORD_TITLE: Delphinidin-3-rutinoside; LC-ESI-ITFT; MS2; HCD; CE 45.0 eV; [M]+
DATE: 2016.01.19 (Created 2012.04.12)
AUTHORS: Ales Svatos, Marco Kai, Ravi Kumar Maddula, MPI for Chemical Ecology, Jena, Germany
LICENSE: CC BY-NC-SA
COPYRIGHT: Copyright(C) 2011 MPI for Chemical Ecology, Jena, Germany
PUBLICATION: F. Rasche, K. Scheubert, F. Hufsky, T. Zichner, M. Kai, A. Svatos and S. Boecker. Identifying the unknowns by aligning fragmentation trees. Anal. Chem., 2012, 84, 3417-3426 doi:10.1021/ac300304u
COMMENT: Acquisition and generation of the data is financially supported by the Max-Planck-Society
CH$NAME: Delphinidin-3-rutinoside
CH$COMPOUND_CLASS: Natural Product; Anthocyanin
CH$FORMULA: [C27H31O16]+
CH$EXACT_MASS: 611.16121
CH$SMILES: C[C@H]1[C@@H]([C@H]([C@H]([C@@H](O1)OC[C@@H]2[C@H]([C@@H]([C@H]([C@@H](O2)OC3=C([O+]=C4C=C(C=C(C4=C3)O)O)C5=CC(=C(C(=C5)O)O)O)O)O)O)O)O)O
CH$IUPAC: InChI=1S/C27H30O16/c1-8-18(32)21(35)23(37)26(40-8)39-7-17-20(34)22(36)24(38)27(43-17)42-16-6-11-12(29)4-10(28)5-15(11)41-25(16)9-2-13(30)19(33)14(31)3-9/h2-6,8,17-18,20-24,26-27,32,34-38H,7H2,1H3,(H4-,28,29,30,31,33)/p+1/t8-,17+,18-,20+,21+,22-,23+,24+,26+,27+/m0/s1
CH$LINK: PUBCHEM CID:5492231
CH$LINK: INCHIKEY PLKUTZNSKRWCCA-LTSKFBHWSA-O
AC$INSTRUMENT: LTQ Orbitrap XL, Thermo Scientfic; HP-1100 HPLC, Agilent
AC$INSTRUMENT_TYPE: LC-ESI-ITFT
AC$MASS_SPECTROMETRY: MS_TYPE MS2
AC$MASS_SPECTROMETRY: ION_MODE POSITIVE
AC$MASS_SPECTROMETRY: IONIZATION ESI
AC$MASS_SPECTROMETRY: RESOLUTION_SETTING 7500
AC$MASS_SPECTROMETRY: SPRAY_VOLTAGE 4.5 kV
AC$MASS_SPECTROMETRY: TUBE_LENS_VOLTAGE 140 V
AC$MASS_SPECTROMETRY: AUTOMATIC_GAIN_CONTROL 3.0E5
AC$MASS_SPECTROMETRY: CAPILLARY_TEMPERATURE 275 C
AC$MASS_SPECTROMETRY: CAPILLARY_VOLTAGE 39 V
AC$MASS_SPECTROMETRY: FRAGMENTATION_METHOD HCD
AC$MASS_SPECTROMETRY: ACTIVATION_TIME 30 ms
AC$MASS_SPECTROMETRY: ACTIVATION_PARAMETER q=0.25
AC$MASS_SPECTROMETRY: COLLISION_ENERGY 45.0eV
AC$CHROMATOGRAPHY: COLUMN_NAME Symmetry C18 Column, Waters
AC$CHROMATOGRAPHY: SOLVENT A H2O(0.1%HCOOH)
AC$CHROMATOGRAPHY: SOLVENT B CH3CN(0.1%HCOOH)
AC$CHROMATOGRAPHY: FLOW_GRADIENT 0min:5%, 24min:95%, 28min:95%, 28.1:5% (acetonitrile)
AC$CHROMATOGRAPHY: FLOW_RATE 0.3 ml/min
AC$CHROMATOGRAPHY: RETENTION_TIME 649.916 s
MS$FOCUSED_ION: PRECURSOR_M/Z 611
MS$FOCUSED_ION: PRECURSOR_TYPE [M]+
PK$SPLASH: splash10-0udi-0009000000-48d926ac2b7178822087
PK$NUM_PEAK: 26
PK$PEAK: m/z int. rel.int.
  69.033524 6936.585449 3
  74.78653 7022.138672 3
  81.033432 11617.841797 5
  85.028549 68250.6875 28
  87.044647 4361.280273 2
  97.028419 65358.191406 27
  99.043915 10331.824219 4
  109.028427 25654.224609 10
  127.039024 26800.234375 11
  137.023621 9707.287109 4
  153.018295 7951.615234 3
  165.0186 10103.212891 4
  229.050049 8895.813477 4
  257.044373 9616.208984 4
  285.039185 7870.861328 3
  291.615753 6305.42041 3
  299.146088 14138.757812 6
  302.827637 4221.194336 2
  302.962585 6936.410156 3
  302.984711 12296.928711 5
  303.050323 2461747.0 999
  303.103088 9896.691406 4
  303.126984 13949.30957 6
  303.238678 3786.669434 2
  303.282837 9353.694336 4
  304.053619 340205.6875 138
//
