ACCESSION: MSBNK-MPI_for_Chemical_Ecology-CE000081
RECORD_TITLE: o-Anisic acid; LC-ESI-ITFT; MS2; CE 55 eV; [M+H]+
DATE: 2016.01.19 (Created 2012.04.11, modified 2012.10.22)
AUTHORS: Ales Svatos, Ravi Kumar Maddula, MPI for Chemical Ecology, Jena, Germany
LICENSE: CC BY-NC-SA
COPYRIGHT: Copyright(C) 2011 MPI for Chemical Ecology, Jena, Germany
PUBLICATION: F. Rasche, A. Svatos, R.K. Maddula, C. Boettcher and S. Boecker. Computing fragmentation trees from tandem mass spectrometry data. Anal. Chem., 2011, 83, 1243-1251 doi:10.1021/ac101825k
COMMENT: Acquisition and generation of the data is financially supported by the Max-Planck-Society
CH$NAME: o-Anisic acid
CH$COMPOUND_CLASS: Natural Product; Carboxylic acid
CH$FORMULA: C8H8O3
CH$EXACT_MASS: 152.04734
CH$SMILES: COC1=CC=CC=C1C(=O)O
CH$IUPAC: InChI=1S/C8H8O3/c1-11-7-5-3-2-4-6(7)8(9)10/h2-5H,1H3,(H,9,10)
CH$LINK: PUBCHEM CID:11370
CH$LINK: INCHIKEY ILUJQPXNXACGAN-UHFFFAOYSA-N
CH$LINK: COMPTOX DTXSID3060376
AC$INSTRUMENT: LTQ Orbitrap XL, Thermo Scientfic; HP-1100 HPLC, Agilent
AC$INSTRUMENT_TYPE: LC-ESI-ITFT
AC$MASS_SPECTROMETRY: MS_TYPE MS2
AC$MASS_SPECTROMETRY: ION_MODE POSITIVE
AC$MASS_SPECTROMETRY: ACTIVATION_PARAMETER q=0.25
AC$MASS_SPECTROMETRY: ACTIVATION_TIME 30 ms
AC$MASS_SPECTROMETRY: AUTOMATIC_GAIN_CONTROL 3.0E5
AC$MASS_SPECTROMETRY: CAPILLARY_TEMPERATURE 275 C
AC$MASS_SPECTROMETRY: CAPILLARY_VOLTAGE 39 V
AC$MASS_SPECTROMETRY: COLLISION_ENERGY 55eV
AC$MASS_SPECTROMETRY: FRAGMENTATION_METHOD CID
AC$MASS_SPECTROMETRY: IONIZATION ESI
AC$MASS_SPECTROMETRY: RESOLUTION_SETTING 7500
AC$MASS_SPECTROMETRY: SPRAY_VOLTAGE 4.5 kV
AC$MASS_SPECTROMETRY: TUBE_LENS_VOLTAGE 140 V
AC$CHROMATOGRAPHY: COLUMN_NAME Symmetry C18 Column, Waters
AC$CHROMATOGRAPHY: FLOW_GRADIENT 0min:5%, 24min:95%, 28min:95%, 28.1:5% (acetonitrile)
AC$CHROMATOGRAPHY: FLOW_RATE 0.3 ml/min
AC$CHROMATOGRAPHY: RETENTION_TIME 610.123 s
AC$CHROMATOGRAPHY: SOLVENT A H2O(0.1%HCOOH)
AC$CHROMATOGRAPHY: SOLVENT B CH3CN(0.1%HCOOH)
MS$FOCUSED_ION: PRECURSOR_M/Z 153.05462
MS$FOCUSED_ION: PRECURSOR_TYPE [M+H]+
PK$SPLASH: splash10-000i-0900000000-b29a23c8ebbae598f143
PK$NUM_PEAK: 17
PK$PEAK: m/z int. rel.int.
  62.255871 1170.908691 5
  63.57415 1038.084351 4
  67.483078 1038.859375 4
  67.990082 1156.995728 4
  73.701683 1231.280884 5
  77.111847 1078.429077 4
  78.358887 1205.296875 5
  82.120293 1329.740967 5
  83.994507 1388.869751 5
  130.571716 1355.27771 5
  134.868637 1758.399536 7
  135.043808 258466.65625 999
  156.922623 1513.608154 6
  160.406815 1118.310669 4
  169.060547 1079.578247 4
  188.433472 1184.594604 5
  192.659882 1070.73584 4
//
