ACCESSION: MSBNK-MPI_for_Chemical_Ecology-CE000436
RECORD_TITLE: Cyanidin 3-O-[2''-O-(xylosyl)-6''-O-(p-O-(glucosyl)-p-coumaroyl) glucoside] 5-O-glucoside; LC-ESI-ITFT; MS2; CE 45.0 eV; [M]+
DATE: 2016.01.19 (Created 2012.04.12)
AUTHORS: Ales Svatos, Marco Kai, Ravi Kumar Maddula, MPI for Chemical Ecology, Jena, Germany
LICENSE: CC BY-NC-SA
COPYRIGHT: Copyright(C) 2011 MPI for Chemical Ecology, Jena, Germany
PUBLICATION: F. Rasche, K. Scheubert, F. Hufsky, T. Zichner, M. Kai, A. Svatos and S. Boecker. Identifying the unknowns by aligning fragmentation trees. Anal. Chem., 2012, 84, 3417-3426 doi:10.1021/ac300304u
COMMENT: Acquisition and generation of the data is financially supported by the Max-Planck-Society
CH$NAME: Cyanidin 3-O-[2''-O-(xylosyl)-6''-O-(p-O-(glucosyl)-p-coumaroyl) glucoside] 5-O-glucoside
CH$COMPOUND_CLASS: Natural Product; Anthocyanin
CH$FORMULA: [C47H55O27]+
CH$EXACT_MASS: 1051.29307
CH$SMILES: C1[C@H]([C@H](C([C@@H](O1)O[C@@H]2[C@@H](OC([C@H](C2O)O)COC(=O)/C=C/C3=CC=C(C=C3)O[C@H]4[C@H](C([C@@H](C(O4)CO)O)O)O)OC5=C([O+]=C6C=C(C=C(C6=C5)O[C@H]7[C@H](C([C@@H](C(O7)CO)O)O)O)O)C8=CC(=C(C=C8)O)O)O)O)O
CH$IUPAC: InChI=1S/C47H54O27/c48-13-28-33(56)36(59)40(63)45(71-28)67-20-5-1-17(2-6-20)3-8-31(54)65-16-30-35(58)38(61)43(74-44-39(62)32(55)24(53)15-66-44)47(73-30)70-27-12-21-25(68-42(27)18-4-7-22(51)23(52)9-18)10-19(50)11-26(21)69-46-41(64)37(60)34(57)29(14-49)72-46/h1-12,24,28-30,32-41,43-49,53,55-64H,13-16H2,(H2-,50,51,52)/p+1/b8-3+/t24-,28?,29?,30?,32-,33-,34-,35-,36?,37?,38?,39?,40+,41+,43+,44+,45-,46-,47-/m1/s1
CH$LINK: PUBCHEM CID:44256802
CH$LINK: INCHIKEY OPWPCWHMCUWCGG-XKYKWVHPSA-O
AC$INSTRUMENT: LTQ Orbitrap XL, Thermo Scientfic; HP-1100 HPLC, Agilent
AC$INSTRUMENT_TYPE: LC-ESI-ITFT
AC$MASS_SPECTROMETRY: MS_TYPE MS2
AC$MASS_SPECTROMETRY: ION_MODE POSITIVE
AC$MASS_SPECTROMETRY: IONIZATION ESI
AC$MASS_SPECTROMETRY: RESOLUTION_SETTING 7500
AC$MASS_SPECTROMETRY: SPRAY_VOLTAGE 4.5 kV
AC$MASS_SPECTROMETRY: TUBE_LENS_VOLTAGE 140 V
AC$MASS_SPECTROMETRY: AUTOMATIC_GAIN_CONTROL 3.0E5
AC$MASS_SPECTROMETRY: CAPILLARY_TEMPERATURE 275 C
AC$MASS_SPECTROMETRY: CAPILLARY_VOLTAGE 39 V
AC$MASS_SPECTROMETRY: FRAGMENTATION_METHOD CID
AC$MASS_SPECTROMETRY: ACTIVATION_TIME 30 ms
AC$MASS_SPECTROMETRY: ACTIVATION_PARAMETER q=0.25
AC$MASS_SPECTROMETRY: COLLISION_ENERGY 45.0eV
AC$CHROMATOGRAPHY: COLUMN_NAME Symmetry C18 Column, Waters
AC$CHROMATOGRAPHY: SOLVENT A H2O(0.1%HCOOH)
AC$CHROMATOGRAPHY: SOLVENT B CH3CN(0.1%HCOOH)
AC$CHROMATOGRAPHY: FLOW_GRADIENT 0min:5%, 24min:95%, 28min:95%, 28.1:5% (acetonitrile)
AC$CHROMATOGRAPHY: FLOW_RATE 0.3 ml/min
AC$CHROMATOGRAPHY: RETENTION_TIME 570.393 s
MS$FOCUSED_ION: PRECURSOR_M/Z 1051
MS$FOCUSED_ION: PRECURSOR_TYPE [M]+
PK$SPLASH: splash10-000i-0090000000-e6c3d497fdacb8552719
PK$NUM_PEAK: 20
PK$PEAK: m/z int. rel.int.
  74.793869 12503.984375 2
  119.049606 9281.941406 1
  137.023605 16038.536133 2
  147.044312 188780.578125 27
  148.046783 15488.133789 2
  213.054626 10287.74707 1
  286.842773 21716.943359 3
  286.941193 8801.669922 1
  286.984741 34961.648438 5
  287.055847 7008125.0 999
  287.102386 32193.792969 5
  287.124908 32239.748047 5
  287.167145 8441.450195 1
  287.227509 9577.438477 1
  287.262909 18654.382812 3
  288.059021 1048374.3125 149
  289.061218 90337.429688 13
  291.087219 11290.254883 2
  291.597626 9400.152344 1
  299.175018 23233.886719 3
//
