ACCESSION: MSBNK-MPI_for_Chemical_Ecology-CE000659
RECORD_TITLE: Glutamate; LC-ESI-ITFT; MS2; CE 30.0 eV; [M+H]+
DATE: 2016.01.19 (Created 2012.04.12)
AUTHORS: Ales Svatos, Marco Kai, Ravi Kumar Maddula, MPI for Chemical Ecology, Jena, Germany
LICENSE: CC BY-NC-SA
COPYRIGHT: Copyright(C) 2011 MPI for Chemical Ecology, Jena, Germany
PUBLICATION: F. Rasche, K. Scheubert, F. Hufsky, T. Zichner, M. Kai, A. Svatos and S. Boecker. Identifying the unknowns by aligning fragmentation trees. Anal. Chem., 2012, 84, 3417-3426 doi:10.1021/ac300304u
COMMENT: Acquisition and generation of the data is financially supported by the Max-Planck-Society
CH$NAME: Glutamate
CH$COMPOUND_CLASS: Natural Product; Amino acid
CH$FORMULA: C5H9NO4
CH$EXACT_MASS: 147.05316
CH$SMILES: C(CC(=O)O)C(C(=O)O)N
CH$IUPAC: InChI=1S/C5H9NO4/c6-3(5(9)10)1-2-4(7)8/h3H,1-2,6H2,(H,7,8)(H,9,10)
CH$LINK: PUBCHEM CID:611
CH$LINK: INCHIKEY WHUUTDBJXJRKMK-UHFFFAOYSA-N
CH$LINK: COMPTOX DTXSID0046987
AC$INSTRUMENT: LTQ Orbitrap XL, Thermo Scientfic; HP-1100 HPLC, Agilent
AC$INSTRUMENT_TYPE: LC-ESI-ITFT
AC$MASS_SPECTROMETRY: MS_TYPE MS2
AC$MASS_SPECTROMETRY: ION_MODE POSITIVE
AC$MASS_SPECTROMETRY: IONIZATION ESI
AC$MASS_SPECTROMETRY: RESOLUTION_SETTING 7500
AC$MASS_SPECTROMETRY: SPRAY_VOLTAGE 4.5 kV
AC$MASS_SPECTROMETRY: TUBE_LENS_VOLTAGE 140 V
AC$MASS_SPECTROMETRY: AUTOMATIC_GAIN_CONTROL 3.0E5
AC$MASS_SPECTROMETRY: CAPILLARY_TEMPERATURE 275 C
AC$MASS_SPECTROMETRY: CAPILLARY_VOLTAGE 39 V
AC$MASS_SPECTROMETRY: FRAGMENTATION_METHOD CID
AC$MASS_SPECTROMETRY: ACTIVATION_TIME 30 ms
AC$MASS_SPECTROMETRY: ACTIVATION_PARAMETER q=0.25
AC$MASS_SPECTROMETRY: COLLISION_ENERGY 30.0eV
AC$CHROMATOGRAPHY: COLUMN_NAME Symmetry C18 Column, Waters
AC$CHROMATOGRAPHY: SOLVENT A H2O(0.1%HCOOH)
AC$CHROMATOGRAPHY: SOLVENT B CH3CN(0.1%HCOOH)
AC$CHROMATOGRAPHY: FLOW_GRADIENT 0min:5%, 24min:95%, 28min:95%, 28.1:5% (acetonitrile)
AC$CHROMATOGRAPHY: FLOW_RATE 0.3 ml/min
AC$CHROMATOGRAPHY: RETENTION_TIME 3515.35 s
MS$FOCUSED_ION: PRECURSOR_M/Z 148.06044
MS$FOCUSED_ION: PRECURSOR_TYPE [M+H]+
PK$SPLASH: splash10-001i-1900000000-c619c9c0aa5fa4776a9a
PK$NUM_PEAK: 17
PK$PEAK: m/z int. rel.int.
  84.044365 30500.910156 345
  84.080658 1900.147827 22
  99.789856 1555.376587 18
  102.054855 18274.105469 207
  106.046661 1570.052124 18
  130.04982 88227.820312 999
  130.086182 22442.162109 254
  131.089462 12617.422852 143
  147.11261 8793.365234 100
  148.042389 14732.125 167
  148.060303 46559.089844 527
  148.116089 4735.489258 54
  192.05925 1552.747925 18
  291.585663 2152.449463 24
  299.237946 2593.873291 29
  299.252319 2190.663818 25
  299.258606 3170.033447 36
//
