ACCESSION: MSBNK-MPI_for_Chemical_Ecology-CE000472
RECORD_TITLE: Glucoerucin; LC-ESI-ITFT; MS2; HCD; CE 65.0 eV; [M-H]-
DATE: 2016.01.19 (Created 2012.04.12)
AUTHORS: Ales Svatos, Marco Kai, Ravi Kumar Maddula, MPI for Chemical Ecology, Jena, Germany
LICENSE: CC BY-NC-SA
COPYRIGHT: Copyright(C) 2011 MPI for Chemical Ecology, Jena, Germany
PUBLICATION: F. Rasche, K. Scheubert, F. Hufsky, T. Zichner, M. Kai, A. Svatos and S. Boecker. Identifying the unknowns by aligning fragmentation trees. Anal. Chem., 2012, 84, 3417-3426 doi:10.1021/ac300304u
COMMENT: Acquisition and generation of the data is financially supported by the Max-Planck-Society
CH$NAME: Glucoerucin
CH$COMPOUND_CLASS: Natural Product; Glucosinolate
CH$FORMULA: C12H23NO9S3
CH$EXACT_MASS: 421.05349
CH$SMILES: [H]OC([H])([H])C([H])(O1)C([H])(O[H])C([H])(O[H])C([H])(O[H])C([H])(SC(=NOS(O)(=O)=O)C([H])([H])C([H])([H])C([H])([H])C([H])([H])SC([H])([H])[H])1
CH$IUPAC: InChI=1S/C12H23NO9S3/c1-23-5-3-2-4-8(13-22-25(18,19)20)24-12-11(17)10(16)9(15)7(6-14)21-12/h7,9-12,14-17H,2-6H2,1H3,(H,18,19,20)/t7-,9-,10+,11-,12+/m1/s1
CH$LINK: PUBCHEM CID:656538
CH$LINK: INCHIKEY GKUMMDFLKGFCKH-URYVQPGZSA-N
CH$LINK: COMPTOX DTXSID50944561
AC$INSTRUMENT: LTQ Orbitrap XL, Thermo Scientfic; HP-1100 HPLC, Agilent
AC$INSTRUMENT_TYPE: LC-ESI-ITFT
AC$MASS_SPECTROMETRY: MS_TYPE MS2
AC$MASS_SPECTROMETRY: ION_MODE NEGATIVE
AC$MASS_SPECTROMETRY: IONIZATION ESI
AC$MASS_SPECTROMETRY: RESOLUTION_SETTING 7500
AC$MASS_SPECTROMETRY: SPRAY_VOLTAGE 4.5 kV
AC$MASS_SPECTROMETRY: TUBE_LENS_VOLTAGE 140 V
AC$MASS_SPECTROMETRY: AUTOMATIC_GAIN_CONTROL 3.0E5
AC$MASS_SPECTROMETRY: CAPILLARY_TEMPERATURE 275 C
AC$MASS_SPECTROMETRY: CAPILLARY_VOLTAGE 39 V
AC$MASS_SPECTROMETRY: FRAGMENTATION_METHOD HCD
AC$MASS_SPECTROMETRY: ACTIVATION_TIME 30 ms
AC$MASS_SPECTROMETRY: ACTIVATION_PARAMETER q=0.25
AC$MASS_SPECTROMETRY: COLLISION_ENERGY 65.0eV
AC$CHROMATOGRAPHY: COLUMN_NAME Symmetry C18 Column, Waters
AC$CHROMATOGRAPHY: SOLVENT A H2O(0.1%HCOOH)
AC$CHROMATOGRAPHY: SOLVENT B CH3CN(0.1%HCOOH)
AC$CHROMATOGRAPHY: FLOW_GRADIENT 0min:5%, 24min:95%, 28min:95%, 28.1:5% (acetonitrile)
AC$CHROMATOGRAPHY: FLOW_RATE 0.3 ml/min
AC$CHROMATOGRAPHY: RETENTION_TIME 512.796 s
MS$FOCUSED_ION: PRECURSOR_M/Z 420
MS$FOCUSED_ION: PRECURSOR_TYPE [M-H]-
PK$SPLASH: splash10-0002-9000000000-17a7edf4a3667fbdcc33
PK$NUM_PEAK: 31
PK$PEAK: m/z int. rel.int.
  71.014351 1707.646729 5
  74.991409 60887.078125 172
  79.957687 24179.34375 68
  80.965607 2707.255615 8
  85.0299 4079.713135 12
  95.952576 134340.421875 379
  96.918579 2631.099365 7
  96.946404 3813.364502 11
  96.951637 3119.014648 9
  96.960213 354286.0625 999
  96.967567 3776.02417 11
  96.972641 3070.852051 9
  97.00206 2421.960205 7
  97.947983 2020.077515 6
  97.959435 2167.960693 6
  98.956009 4247.102051 12
  101.02446 2405.540527 7
  127.924515 2415.748047 7
  128.932816 1944.31189 5
  145.051208 1690.262695 5
  178.036636 14759.553711 42
  195.032928 2521.777588 7
  196.994232 2084.940674 6
  224.005524 2714.481445 8
  226.987427 5497.901367 16
  227.022476 1803.963989 5
  259.012726 15753.104492 44
  274.990021 12660.136719 36
  299.079956 2731.101074 8
  420.046112 39512.90625 111
  421.049438 6597.338379 19
//
