ACCESSION: MSBNK-MPI_for_Chemical_Ecology-CE000323
RECORD_TITLE: 8-Methylthiooctyl glucosinolate; LC-ESI-ITFT; MS2; HCD; CE 70.0 eV; [M-H]-
DATE: 2016.01.19 (Created 2012.04.12)
AUTHORS: Ales Svatos, Marco Kai, Ravi Kumar Maddula, MPI for Chemical Ecology, Jena, Germany
LICENSE: CC BY-NC-SA
COPYRIGHT: Copyright(C) 2011 MPI for Chemical Ecology, Jena, Germany
PUBLICATION: F. Rasche, K. Scheubert, F. Hufsky, T. Zichner, M. Kai, A. Svatos and S. Boecker. Identifying the unknowns by aligning fragmentation trees. Anal. Chem., 2012, 84, 3417-3426 doi:10.1021/ac300304u
COMMENT: Acquisition and generation of the data is financially supported by the Max-Planck-Society
CH$NAME: 8-Methylthiooctyl glucosinolate
CH$COMPOUND_CLASS: Natural Product; Glucosinolate
CH$FORMULA: C16H31NO9S3
CH$EXACT_MASS: 477.11609
CH$SMILES: [H]OC([H])([H])C([H])(O1)C([H])(O[H])C([H])(O[H])C([H])(O[H])C([H])(SC(=NOS(O)(=O)=O)C([H])([H])C([H])([H])C([H])([H])C([H])([H])C([H])([H])C([H])([H])C([H])([H])C([H])([H])SC([H])([H])[H])1
CH$IUPAC: InChI=1S/C16H31NO9S3/c1-27-9-7-5-3-2-4-6-8-12(17-26-29(22,23)24)28-16-15(21)14(20)13(19)11(10-18)25-16/h11,13-16,18-21H,2-10H2,1H3,(H,22,23,24)/b17-12+/t11-,13-,14+,15-,16+/m1/s1
CH$LINK: PUBCHEM CID:44237373
CH$LINK: INCHIKEY CWOJBEDMJKZKAB-STPBKMPXSA-N
AC$INSTRUMENT: LTQ Orbitrap XL, Thermo Scientfic; HP-1100 HPLC, Agilent
AC$INSTRUMENT_TYPE: LC-ESI-ITFT
AC$MASS_SPECTROMETRY: MS_TYPE MS2
AC$MASS_SPECTROMETRY: ION_MODE NEGATIVE
AC$MASS_SPECTROMETRY: IONIZATION ESI
AC$MASS_SPECTROMETRY: RESOLUTION_SETTING 7500
AC$MASS_SPECTROMETRY: SPRAY_VOLTAGE 4.5 kV
AC$MASS_SPECTROMETRY: TUBE_LENS_VOLTAGE 140 V
AC$MASS_SPECTROMETRY: AUTOMATIC_GAIN_CONTROL 3.0E5
AC$MASS_SPECTROMETRY: CAPILLARY_TEMPERATURE 275 C
AC$MASS_SPECTROMETRY: CAPILLARY_VOLTAGE 39 V
AC$MASS_SPECTROMETRY: FRAGMENTATION_METHOD HCD
AC$MASS_SPECTROMETRY: ACTIVATION_TIME 30 ms
AC$MASS_SPECTROMETRY: ACTIVATION_PARAMETER q=0.25
AC$MASS_SPECTROMETRY: COLLISION_ENERGY 70.0eV
AC$CHROMATOGRAPHY: COLUMN_NAME Symmetry C18 Column, Waters
AC$CHROMATOGRAPHY: SOLVENT A H2O(0.1%HCOOH)
AC$CHROMATOGRAPHY: SOLVENT B CH3CN(0.1%HCOOH)
AC$CHROMATOGRAPHY: FLOW_GRADIENT 0min:5%, 24min:95%, 28min:95%, 28.1:5% (acetonitrile)
AC$CHROMATOGRAPHY: FLOW_RATE 0.3 ml/min
AC$CHROMATOGRAPHY: RETENTION_TIME 1170.25 s
MS$FOCUSED_ION: PRECURSOR_M/Z 476
MS$FOCUSED_ION: PRECURSOR_TYPE [M-H]-
PK$SPLASH: splash10-0002-9000000000-1b4f6c422bf89500770b
PK$NUM_PEAK: 26
PK$PEAK: m/z int. rel.int.
  71.014488 10595.363281 6
  74.768105 13225.647461 7
  74.991531 329398.25 172
  79.95787 163537.875 85
  80.965797 15118.064453 8
  85.029816 25683.871094 13
  95.939964 8742.029297 5
  95.952713 882364.25 461
  95.966423 11591.327148 6
  96.918633 13720.727539 7
  96.94754 23062.638672 12
  96.960373 1914128.125 999
  96.968681 10212.351562 5
  96.974403 25943.609375 14
  97.001396 11434.548828 6
  101.024918 12188.727539 6
  127.924469 13595.020508 7
  128.933365 10520.852539 5
  234.099777 55426.332031 29
  259.01355 75564.625 39
  274.990631 79386.117188 41
  280.074036 7807.90625 4
  283.050293 23807.167969 12
  291.571686 13799.06543 7
  299.070465 23124.789062 12
  476.110718 52689.425781 27
//
