ACCESSION: MSBNK-MPI_for_Chemical_Ecology-CE000278
RECORD_TITLE: Phenylalanine; LC-ESI-ITFT; MS2; CE 25.0 eV; [M+H]+
DATE: 2016.01.19 (Created 2012.04.12)
AUTHORS: Ales Svatos, Marco Kai, Ravi Kumar Maddula, MPI for Chemical Ecology, Jena, Germany
LICENSE: CC BY-NC-SA
COPYRIGHT: Copyright(C) 2011 MPI for Chemical Ecology, Jena, Germany
PUBLICATION: F. Rasche, K. Scheubert, F. Hufsky, T. Zichner, M. Kai, A. Svatos and S. Boecker. Identifying the unknowns by aligning fragmentation trees. Anal. Chem., 2012, 84, 3417-3426 doi:10.1021/ac300304u
COMMENT: Acquisition and generation of the data is financially supported by the Max-Planck-Society
CH$NAME: Phenylalanine
CH$COMPOUND_CLASS: Natural Product; Amino acid
CH$FORMULA: C9H11NO2
CH$EXACT_MASS: 165.07898
CH$SMILES: C1=CC=C(C=C1)CC(C(=O)O)N
CH$IUPAC: InChI=1S/C9H11NO2/c10-8(9(11)12)6-7-4-2-1-3-5-7/h1-5,8H,6,10H2,(H,11,12)
CH$LINK: PUBCHEM CID:994
CH$LINK: INCHIKEY COLNVLDHVKWLRT-UHFFFAOYSA-N
CH$LINK: COMPTOX DTXSID9023463
AC$INSTRUMENT: LTQ Orbitrap XL, Thermo Scientfic; HP-1100 HPLC, Agilent
AC$INSTRUMENT_TYPE: LC-ESI-ITFT
AC$MASS_SPECTROMETRY: MS_TYPE MS2
AC$MASS_SPECTROMETRY: ION_MODE POSITIVE
AC$MASS_SPECTROMETRY: IONIZATION ESI
AC$MASS_SPECTROMETRY: RESOLUTION_SETTING 7500
AC$MASS_SPECTROMETRY: SPRAY_VOLTAGE 4.5 kV
AC$MASS_SPECTROMETRY: TUBE_LENS_VOLTAGE 140 V
AC$MASS_SPECTROMETRY: AUTOMATIC_GAIN_CONTROL 3.0E5
AC$MASS_SPECTROMETRY: CAPILLARY_TEMPERATURE 275 C
AC$MASS_SPECTROMETRY: CAPILLARY_VOLTAGE 39 V
AC$MASS_SPECTROMETRY: FRAGMENTATION_METHOD CID
AC$MASS_SPECTROMETRY: ACTIVATION_TIME 30 ms
AC$MASS_SPECTROMETRY: ACTIVATION_PARAMETER q=0.25
AC$MASS_SPECTROMETRY: COLLISION_ENERGY 25.0eV
AC$CHROMATOGRAPHY: COLUMN_NAME Symmetry C18 Column, Waters
AC$CHROMATOGRAPHY: SOLVENT A H2O(0.1%HCOOH)
AC$CHROMATOGRAPHY: SOLVENT B CH3CN(0.1%HCOOH)
AC$CHROMATOGRAPHY: FLOW_GRADIENT 0min:5%, 24min:95%, 28min:95%, 28.1:5% (acetonitrile)
AC$CHROMATOGRAPHY: FLOW_RATE 0.3 ml/min
AC$CHROMATOGRAPHY: RETENTION_TIME 4900.08 s
MS$FOCUSED_ION: PRECURSOR_M/Z 166.08626
MS$FOCUSED_ION: PRECURSOR_TYPE [M+H]+
PK$SPLASH: splash10-00di-0900000000-a9717ab3b2fe9823fec7
PK$NUM_PEAK: 22
PK$PEAK: m/z int. rel.int.
  120.070244 6476.628906 4
  120.07122 6922.536133 4
  120.072182 6386.234375 4
  120.073219 8532.496094 6
  120.074188 8440.911133 5
  120.075218 11537.933594 7
  120.076157 7648.486816 5
  120.077209 14440.222656 9
  120.080688 1544720.375 999
  120.083084 6604.736328 4
  120.084068 6245.648438 4
  120.085152 13662.798828 9
  120.086082 9232.294922 6
  120.087105 8538.016602 6
  120.088135 8616.389648 6
  120.089104 8449.112305 5
  120.090088 6372.558594 4
  131.049164 27276.746094 18
  147.043961 11067.519531 7
  148.047394 8358.776367 5
  149.05954 29484.232422 19
  166.086395 10860.4375 7
//
