ACCESSION: MSBNK-MPI_for_Chemical_Ecology-CE000396
RECORD_TITLE: Glucomalcomiin; LC-ESI-ITFT; MS2; HCD; CE 65.0 eV; [M-H]-
DATE: 2016.01.19 (Created 2012.04.12)
AUTHORS: Ales Svatos, Marco Kai, Ravi Kumar Maddula, MPI for Chemical Ecology, Jena, Germany
LICENSE: CC BY-NC-SA
COPYRIGHT: Copyright(C) 2011 MPI for Chemical Ecology, Jena, Germany
PUBLICATION: F. Rasche, K. Scheubert, F. Hufsky, T. Zichner, M. Kai, A. Svatos and S. Boecker. Identifying the unknowns by aligning fragmentation trees. Anal. Chem., 2012, 84, 3417-3426 doi:10.1021/ac300304u
COMMENT: Acquisition and generation of the data is financially supported by the Max-Planck-Society
CH$NAME: Glucomalcomiin
CH$NAME: Glucomalcommin
CH$COMPOUND_CLASS: Natural Product; Glucosinolate
CH$FORMULA: C17H23NO11S2
CH$EXACT_MASS: 481.07125
CH$SMILES: OCC([H])(O1)C([H])(O[H])C([H])(O[H])C([H])(O)C([H])(SC(=NOS(O)(=O)=O)C([H])([H])C([H])([H])C([H])([H])OC(=O)c(c([H])2)c([H])c([H])c([H])c([H])2)1
CH$IUPAC: InChI=1S/C17H23NO11S2/c19-9-11-13(20)14(21)15(22)17(28-11)30-12(18-29-31(24,25)26)7-4-8-27-16(23)10-5-2-1-3-6-10/h1-3,5-6,11,13-15,17,19-22H,4,7-9H2,(H,24,25,26)/b18-12+
CH$LINK: PUBCHEM CID:25244201
CH$LINK: INCHIKEY CGAALQATDWOQFD-LDADJPATSA-N
AC$INSTRUMENT: LTQ Orbitrap XL, Thermo Scientfic; HP-1100 HPLC, Agilent
AC$INSTRUMENT_TYPE: LC-ESI-ITFT
AC$MASS_SPECTROMETRY: MS_TYPE MS2
AC$MASS_SPECTROMETRY: ION_MODE NEGATIVE
AC$MASS_SPECTROMETRY: IONIZATION ESI
AC$MASS_SPECTROMETRY: RESOLUTION_SETTING 7500
AC$MASS_SPECTROMETRY: SPRAY_VOLTAGE 4.5 kV
AC$MASS_SPECTROMETRY: TUBE_LENS_VOLTAGE 140 V
AC$MASS_SPECTROMETRY: AUTOMATIC_GAIN_CONTROL 3.0E5
AC$MASS_SPECTROMETRY: CAPILLARY_TEMPERATURE 275 C
AC$MASS_SPECTROMETRY: CAPILLARY_VOLTAGE 39 V
AC$MASS_SPECTROMETRY: FRAGMENTATION_METHOD HCD
AC$MASS_SPECTROMETRY: ACTIVATION_TIME 30 ms
AC$MASS_SPECTROMETRY: ACTIVATION_PARAMETER q=0.25
AC$MASS_SPECTROMETRY: COLLISION_ENERGY 65.0eV
AC$CHROMATOGRAPHY: COLUMN_NAME Symmetry C18 Column, Waters
AC$CHROMATOGRAPHY: SOLVENT A H2O(0.1%HCOOH)
AC$CHROMATOGRAPHY: SOLVENT B CH3CN(0.1%HCOOH)
AC$CHROMATOGRAPHY: FLOW_GRADIENT 0min:5%, 24min:95%, 28min:95%, 28.1:5% (acetonitrile)
AC$CHROMATOGRAPHY: FLOW_RATE 0.3 ml/min
AC$CHROMATOGRAPHY: RETENTION_TIME 819.139 s
MS$FOCUSED_ION: PRECURSOR_M/Z 480
MS$FOCUSED_ION: PRECURSOR_TYPE [M-H]-
PK$SPLASH: splash10-0002-9400000000-8da533cc926850049986
PK$NUM_PEAK: 33
PK$PEAK: m/z int. rel.int.
  74.991623 206654.59375 115
  79.957939 144395.046875 80
  80.965775 15924.526367 9
  84.046066 17825.949219 10
  85.030174 19075.361328 11
  95.952812 603906.5 336
  96.918579 14589.115234 8
  96.948288 18500.488281 10
  96.960472 1795262.375 999
  96.97039 9929.466797 6
  96.974342 20453.078125 11
  97.002022 11794.426758 7
  97.959892 9556.525391 5
  98.956238 22752.849609 13
  116.017937 53392.503906 30
  121.029953 756002.125 421
  122.033363 57098.226562 32
  127.925133 9928.895508 6
  128.933121 10364.161133 6
  138.971436 10682.425781 6
  164.968552 11809.551758 7
  179.997681 68399.117188 38
  195.974792 532180.8125 296
  196.978561 16022.355469 9
  197.97049 13418.091797 7
  200.98671 19114.042969 11
  241.002777 17720.853516 10
  259.013641 101002.460938 56
  274.990753 54271.59375 30
  287.00589 17298.789062 10
  299.072876 16763.003906 9
  358.029236 30280.548828 17
  480.065399 29115.371094 16
//
