ACCESSION: MSBNK-MPI_for_Chemical_Ecology-CE000464
RECORD_TITLE: Aspartate; LC-ESI-ITFT; MS2; CE 5.0 eV; [M-H]-
DATE: 2016.01.19 (Created 2012.04.12)
AUTHORS: Ales Svatos, Marco Kai, Ravi Kumar Maddula, MPI for Chemical Ecology, Jena, Germany
LICENSE: CC BY-NC-SA
COPYRIGHT: Copyright(C) 2011 MPI for Chemical Ecology, Jena, Germany
PUBLICATION: F. Rasche, K. Scheubert, F. Hufsky, T. Zichner, M. Kai, A. Svatos and S. Boecker. Identifying the unknowns by aligning fragmentation trees. Anal. Chem., 2012, 84, 3417-3426 doi:10.1021/ac300304u
COMMENT: Acquisition and generation of the data is financially supported by the Max-Planck-Society
CH$NAME: Aspartate
CH$COMPOUND_CLASS: Natural Product; Amino acid
CH$FORMULA: C4H7NO4
CH$EXACT_MASS: 133.03751
CH$SMILES: C(C(C(=O)O)N)C(=O)O
CH$IUPAC: InChI=1S/C4H7NO4/c5-2(4(8)9)1-3(6)7/h2H,1,5H2,(H,6,7)(H,8,9)
CH$LINK: PUBCHEM CID:424
CH$LINK: INCHIKEY CKLJMWTZIZZHCS-UHFFFAOYSA-N
CH$LINK: COMPTOX DTXSID30859003
AC$INSTRUMENT: LTQ Orbitrap XL, Thermo Scientfic; HP-1100 HPLC, Agilent
AC$INSTRUMENT_TYPE: LC-ESI-ITFT
AC$MASS_SPECTROMETRY: MS_TYPE MS2
AC$MASS_SPECTROMETRY: ION_MODE NEGATIVE
AC$MASS_SPECTROMETRY: IONIZATION ESI
AC$MASS_SPECTROMETRY: RESOLUTION_SETTING 7500
AC$MASS_SPECTROMETRY: SPRAY_VOLTAGE 4.5 kV
AC$MASS_SPECTROMETRY: TUBE_LENS_VOLTAGE 140 V
AC$MASS_SPECTROMETRY: AUTOMATIC_GAIN_CONTROL 3.0E5
AC$MASS_SPECTROMETRY: CAPILLARY_TEMPERATURE 275 C
AC$MASS_SPECTROMETRY: CAPILLARY_VOLTAGE 39 V
AC$MASS_SPECTROMETRY: FRAGMENTATION_METHOD CID
AC$MASS_SPECTROMETRY: ACTIVATION_TIME 30 ms
AC$MASS_SPECTROMETRY: ACTIVATION_PARAMETER q=0.25
AC$MASS_SPECTROMETRY: COLLISION_ENERGY 5.0eV
AC$CHROMATOGRAPHY: COLUMN_NAME Symmetry C18 Column, Waters
AC$CHROMATOGRAPHY: SOLVENT A H2O(0.1%HCOOH)
AC$CHROMATOGRAPHY: SOLVENT B CH3CN(0.1%HCOOH)
AC$CHROMATOGRAPHY: FLOW_GRADIENT 0min:5%, 24min:95%, 28min:95%, 28.1:5% (acetonitrile)
AC$CHROMATOGRAPHY: FLOW_RATE 0.3 ml/min
AC$CHROMATOGRAPHY: RETENTION_TIME 13.7011 s
MS$FOCUSED_ION: PRECURSOR_M/Z 132.03023
MS$FOCUSED_ION: PRECURSOR_TYPE [M-H]-
PK$SPLASH: splash10-001i-0900000000-6bc15e4640b3bc1feb67
PK$NUM_PEAK: 14
PK$PEAK: m/z int. rel.int.
  88.040909 26642.958984 23
  115.004158 23737.695312 21
  132.019989 5569.520508 5
  132.023392 11000.998047 10
  132.024582 6100.307617 5
  132.026993 12306.307617 11
  132.028046 18526.613281 16
  132.030777 1139099.125 999
  132.033691 16906.369141 15
  132.035995 9477.710938 8
  132.037262 7955.541016 7
  132.039444 5620.358887 5
  132.040634 6021.99707 5
  299.164886 11623.863281 10
//
