ACCESSION: MSBNK-MPI_for_Chemical_Ecology-CE000383
RECORD_TITLE: 7-Methylthioheptyl glucosinolate; LC-ESI-ITFT; MS2; HCD; CE 50.0 eV; [M-H]-
DATE: 2016.01.19 (Created 2012.04.12)
AUTHORS: Ales Svatos, Marco Kai, Ravi Kumar Maddula, MPI for Chemical Ecology, Jena, Germany
LICENSE: CC BY-NC-SA
COPYRIGHT: Copyright(C) 2011 MPI for Chemical Ecology, Jena, Germany
PUBLICATION: F. Rasche, K. Scheubert, F. Hufsky, T. Zichner, M. Kai, A. Svatos and S. Boecker. Identifying the unknowns by aligning fragmentation trees. Anal. Chem., 2012, 84, 3417-3426 doi:10.1021/ac300304u
COMMENT: Acquisition and generation of the data is financially supported by the Max-Planck-Society
CH$NAME: 7-Methylthioheptyl glucosinolate
CH$COMPOUND_CLASS: Natural Product; Glucosinolate
CH$FORMULA: C15H29NO9S3
CH$EXACT_MASS: 463.10044
CH$SMILES: [H]OC([H])([H])C([H])(O1)C([H])(O[H])C([H])(O[H])C([H])(O[H])C([H])(SC(=NOS(O)(=O)=O)C([H])([H])C([H])([H])C([H])([H])C([H])([H])C([H])([H])C([H])([H])C([H])([H])SC([H])([H])[H])1
CH$IUPAC: InChI=1S/C15H29NO9S3/c1-26-8-6-4-2-3-5-7-11(16-25-28(21,22)23)27-15-14(20)13(19)12(18)10(9-17)24-15/h10,12-15,17-20H,2-9H2,1H3,(H,21,22,23)/b16-11+/t10-,12-,13+,14-,15+/m1/s1
CH$LINK: PUBCHEM CID:44237368
CH$LINK: INCHIKEY SJHVRBSHKTUXLG-MFIRQCQASA-N
AC$INSTRUMENT: LTQ Orbitrap XL, Thermo Scientfic; HP-1100 HPLC, Agilent
AC$INSTRUMENT_TYPE: LC-ESI-ITFT
AC$MASS_SPECTROMETRY: MS_TYPE MS2
AC$MASS_SPECTROMETRY: ION_MODE NEGATIVE
AC$MASS_SPECTROMETRY: IONIZATION ESI
AC$MASS_SPECTROMETRY: RESOLUTION_SETTING 7500
AC$MASS_SPECTROMETRY: SPRAY_VOLTAGE 4.5 kV
AC$MASS_SPECTROMETRY: TUBE_LENS_VOLTAGE 140 V
AC$MASS_SPECTROMETRY: AUTOMATIC_GAIN_CONTROL 3.0E5
AC$MASS_SPECTROMETRY: CAPILLARY_TEMPERATURE 275 C
AC$MASS_SPECTROMETRY: CAPILLARY_VOLTAGE 39 V
AC$MASS_SPECTROMETRY: FRAGMENTATION_METHOD HCD
AC$MASS_SPECTROMETRY: ACTIVATION_TIME 30 ms
AC$MASS_SPECTROMETRY: ACTIVATION_PARAMETER q=0.25
AC$MASS_SPECTROMETRY: COLLISION_ENERGY 50.0eV
AC$CHROMATOGRAPHY: COLUMN_NAME Symmetry C18 Column, Waters
AC$CHROMATOGRAPHY: SOLVENT A H2O(0.1%HCOOH)
AC$CHROMATOGRAPHY: SOLVENT B CH3CN(0.1%HCOOH)
AC$CHROMATOGRAPHY: FLOW_GRADIENT 0min:5%, 24min:95%, 28min:95%, 28.1:5% (acetonitrile)
AC$CHROMATOGRAPHY: FLOW_RATE 0.3 ml/min
AC$CHROMATOGRAPHY: RETENTION_TIME 1007.33 s
MS$FOCUSED_ION: PRECURSOR_M/Z 462
MS$FOCUSED_ION: PRECURSOR_TYPE [M-H]-
PK$SPLASH: splash10-01ot-9010400000-dc52bc851ee3b7f69e8d
PK$NUM_PEAK: 27
PK$PEAK: m/z int. rel.int.
  74.767952 1765.225708 7
  74.991516 23154.683594 87
  79.957901 11255.799805 42
  85.0299 2712.091064 10
  95.952698 49862.820312 187
  96.947403 2355.266357 9
  96.960411 266662.3125 999
  96.974472 3119.834473 12
  97.002045 1866.768188 7
  97.95993 1725.436768 6
  98.956444 1838.432617 7
  128.932297 2197.253662 8
  145.051331 1721.470459 6
  163.061066 1976.689575 7
  195.033981 1859.954956 7
  220.084137 7384.686035 28
  227.022858 3941.325928 15
  259.013397 10369.804688 39
  266.051208 1946.964844 7
  269.035583 3682.037598 14
  274.990295 10072.512695 38
  290.985168 2847.794922 11
  291.617767 1825.808716 7
  299.071655 3090.405273 12
  462.093903 160499.703125 601
  463.096436 31149.046875 117
  464.089417 5169.296875 19
//
