ACCESSION: MSBNK-MPI_for_Chemical_Ecology-CE000443
RECORD_TITLE: Methionine; LC-ESI-ITFT; MS2; CE 25.0 eV; [M+H]+
DATE: 2016.01.19 (Created 2012.04.12)
AUTHORS: Ales Svatos, Marco Kai, Ravi Kumar Maddula, MPI for Chemical Ecology, Jena, Germany
LICENSE: CC BY-NC-SA
COPYRIGHT: Copyright(C) 2011 MPI for Chemical Ecology, Jena, Germany
PUBLICATION: F. Rasche, K. Scheubert, F. Hufsky, T. Zichner, M. Kai, A. Svatos and S. Boecker. Identifying the unknowns by aligning fragmentation trees. Anal. Chem., 2012, 84, 3417-3426 doi:10.1021/ac300304u
COMMENT: Acquisition and generation of the data is financially supported by the Max-Planck-Society
CH$NAME: Methionine
CH$COMPOUND_CLASS: Natural Product; Amino acid
CH$FORMULA: C5H11NO2S
CH$EXACT_MASS: 149.05105
CH$SMILES: CSCCC(C(=O)O)N
CH$IUPAC: InChI=1S/C5H11NO2S/c1-9-3-2-4(6)5(7)8/h4H,2-3,6H2,1H3,(H,7,8)
CH$LINK: PUBCHEM CID:876
CH$LINK: INCHIKEY FFEARJCKVFRZRR-UHFFFAOYSA-N
CH$LINK: COMPTOX DTXSID9020821
AC$INSTRUMENT: LTQ Orbitrap XL, Thermo Scientfic; HP-1100 HPLC, Agilent
AC$INSTRUMENT_TYPE: LC-ESI-ITFT
AC$MASS_SPECTROMETRY: MS_TYPE MS2
AC$MASS_SPECTROMETRY: ION_MODE POSITIVE
AC$MASS_SPECTROMETRY: IONIZATION ESI
AC$MASS_SPECTROMETRY: RESOLUTION_SETTING 7500
AC$MASS_SPECTROMETRY: SPRAY_VOLTAGE 4.5 kV
AC$MASS_SPECTROMETRY: TUBE_LENS_VOLTAGE 140 V
AC$MASS_SPECTROMETRY: AUTOMATIC_GAIN_CONTROL 3.0E5
AC$MASS_SPECTROMETRY: CAPILLARY_TEMPERATURE 275 C
AC$MASS_SPECTROMETRY: CAPILLARY_VOLTAGE 39 V
AC$MASS_SPECTROMETRY: FRAGMENTATION_METHOD CID
AC$MASS_SPECTROMETRY: ACTIVATION_TIME 30 ms
AC$MASS_SPECTROMETRY: ACTIVATION_PARAMETER q=0.25
AC$MASS_SPECTROMETRY: COLLISION_ENERGY 25.0eV
AC$CHROMATOGRAPHY: COLUMN_NAME Symmetry C18 Column, Waters
AC$CHROMATOGRAPHY: SOLVENT A H2O(0.1%HCOOH)
AC$CHROMATOGRAPHY: SOLVENT B CH3CN(0.1%HCOOH)
AC$CHROMATOGRAPHY: FLOW_GRADIENT 0min:5%, 24min:95%, 28min:95%, 28.1:5% (acetonitrile)
AC$CHROMATOGRAPHY: FLOW_RATE 0.3 ml/min
AC$CHROMATOGRAPHY: RETENTION_TIME 3841.5 s
MS$FOCUSED_ION: PRECURSOR_M/Z 150.05833
MS$FOCUSED_ION: PRECURSOR_TYPE [M+H]+
PK$SPLASH: splash10-001i-0900000000-cfa6fd6d4117ae7059c3
PK$NUM_PEAK: 15
PK$PEAK: m/z int. rel.int.
  56.049545 2923.359863 4
  102.054665 4269.93457 6
  104.052803 162156.40625 244
  133.02301 2967.274658 4
  133.024124 3268.713623 5
  133.025391 4607.703613 7
  133.026474 3832.63916 6
  133.031799 663836.1875 999
  133.035782 4060.121582 6
  133.036972 5075.323242 8
  133.037781 3095.157471 5
  133.040405 3422.813721 5
  133.042755 3074.325439 5
  299.255219 3432.151611 5
  299.26239 3173.90918 5
//
