ACCESSION: MSBNK-MPI_for_Chemical_Ecology-CE000645
RECORD_TITLE: Glucoalyssin; LC-ESI-ITFT; MS2; HCD; CE 20.0 eV; [M-H]-
DATE: 2016.01.19 (Created 2012.04.12)
AUTHORS: Ales Svatos, Marco Kai, Ravi Kumar Maddula, MPI for Chemical Ecology, Jena, Germany
LICENSE: CC BY-NC-SA
COPYRIGHT: Copyright(C) 2011 MPI for Chemical Ecology, Jena, Germany
PUBLICATION: F. Rasche, K. Scheubert, F. Hufsky, T. Zichner, M. Kai, A. Svatos and S. Boecker. Identifying the unknowns by aligning fragmentation trees. Anal. Chem., 2012, 84, 3417-3426 doi:10.1021/ac300304u
COMMENT: Acquisition and generation of the data is financially supported by the Max-Planck-Society
CH$NAME: Glucoalyssin
CH$COMPOUND_CLASS: Natural Product; Glucosinolate
CH$FORMULA: C13H25NO10S3
CH$EXACT_MASS: 451.06406
CH$SMILES: CS(=O)CCCCCC(=NOS(=O)(=O)O)S[C@H]1[C@@H]([C@H]([C@@H]([C@H](O1)CO)O)O)O
CH$IUPAC: InChI=1S/C13H25NO10S3/c1-26(19)6-4-2-3-5-9(14-24-27(20,21)22)25-13-12(18)11(17)10(16)8(7-15)23-13/h8,10-13,15-18H,2-7H2,1H3,(H,20,21,22)/t8-,10-,11+,12-,13+,26?/m1/s1
CH$LINK: PUBCHEM CID:656523
CH$LINK: INCHIKEY HUCGRJSHMZWRQQ-LJBAHSCYSA-N
CH$LINK: COMPTOX DTXSID40964470
AC$INSTRUMENT: LTQ Orbitrap XL, Thermo Scientfic; HP-1100 HPLC, Agilent
AC$INSTRUMENT_TYPE: LC-ESI-ITFT
AC$MASS_SPECTROMETRY: MS_TYPE MS2
AC$MASS_SPECTROMETRY: ION_MODE NEGATIVE
AC$MASS_SPECTROMETRY: IONIZATION ESI
AC$MASS_SPECTROMETRY: RESOLUTION_SETTING 7500
AC$MASS_SPECTROMETRY: SPRAY_VOLTAGE 4.5 kV
AC$MASS_SPECTROMETRY: TUBE_LENS_VOLTAGE 140 V
AC$MASS_SPECTROMETRY: AUTOMATIC_GAIN_CONTROL 3.0E5
AC$MASS_SPECTROMETRY: CAPILLARY_TEMPERATURE 275 C
AC$MASS_SPECTROMETRY: CAPILLARY_VOLTAGE 39 V
AC$MASS_SPECTROMETRY: FRAGMENTATION_METHOD HCD
AC$MASS_SPECTROMETRY: ACTIVATION_TIME 30 ms
AC$MASS_SPECTROMETRY: ACTIVATION_PARAMETER q=0.25
AC$MASS_SPECTROMETRY: COLLISION_ENERGY 20.0eV
AC$CHROMATOGRAPHY: COLUMN_NAME Symmetry C18 Column, Waters
AC$CHROMATOGRAPHY: SOLVENT A H2O(0.1%HCOOH)
AC$CHROMATOGRAPHY: SOLVENT B CH3CN(0.1%HCOOH)
AC$CHROMATOGRAPHY: FLOW_GRADIENT 0min:5%, 24min:95%, 28min:95%, 28.1:5% (acetonitrile)
AC$CHROMATOGRAPHY: FLOW_RATE 0.3 ml/min
AC$CHROMATOGRAPHY: RETENTION_TIME 262.799 s
MS$FOCUSED_ION: PRECURSOR_M/Z 450.05678
MS$FOCUSED_ION: PRECURSOR_TYPE [M-H]-
PK$SPLASH: splash10-0udi-0000900000-e185414ff0fcdf2f587e
PK$NUM_PEAK: 4
PK$PEAK: m/z int. rel.int.
  386.059662 35614.234375 19
  450.057678 1858065.375 999
  451.059662 412178.15625 222
  452.053986 181720.640625 98
//
