ACCESSION: MSBNK-MPI_for_Chemical_Ecology-CE000228
RECORD_TITLE: Tyrosine; LC-ESI-ITFT; MS2; CE 20.0 eV; [M+H]+
DATE: 2016.01.19 (Created 2012.04.12)
AUTHORS: Ales Svatos, Marco Kai, Ravi Kumar Maddula, MPI for Chemical Ecology, Jena, Germany
LICENSE: CC BY-NC-SA
COPYRIGHT: Copyright(C) 2011 MPI for Chemical Ecology, Jena, Germany
PUBLICATION: F. Rasche, K. Scheubert, F. Hufsky, T. Zichner, M. Kai, A. Svatos and S. Boecker. Identifying the unknowns by aligning fragmentation trees. Anal. Chem., 2012, 84, 3417-3426 doi:10.1021/ac300304u
COMMENT: Acquisition and generation of the data is financially supported by the Max-Planck-Society
CH$NAME: Tyrosine
CH$COMPOUND_CLASS: Natural Product; Amino acid
CH$FORMULA: C9H11NO3
CH$EXACT_MASS: 181.07389
CH$SMILES: C1=CC(=CC=C1CC(C(=O)O)N)O
CH$IUPAC: InChI=1S/C9H11NO3/c10-8(9(12)13)5-6-1-3-7(11)4-2-6/h1-4,8,11H,5,10H2,(H,12,13)
CH$LINK: PUBCHEM CID:1153
CH$LINK: INCHIKEY OUYCCCASQSFEME-UHFFFAOYSA-N
CH$LINK: COMPTOX DTXSID50859040
AC$INSTRUMENT: LTQ Orbitrap XL, Thermo Scientfic; HP-1100 HPLC, Agilent
AC$INSTRUMENT_TYPE: LC-ESI-ITFT
AC$MASS_SPECTROMETRY: MS_TYPE MS2
AC$MASS_SPECTROMETRY: ION_MODE POSITIVE
AC$MASS_SPECTROMETRY: IONIZATION ESI
AC$MASS_SPECTROMETRY: RESOLUTION_SETTING 7500
AC$MASS_SPECTROMETRY: SPRAY_VOLTAGE 4.5 kV
AC$MASS_SPECTROMETRY: TUBE_LENS_VOLTAGE 140 V
AC$MASS_SPECTROMETRY: AUTOMATIC_GAIN_CONTROL 3.0E5
AC$MASS_SPECTROMETRY: CAPILLARY_TEMPERATURE 275 C
AC$MASS_SPECTROMETRY: CAPILLARY_VOLTAGE 39 V
AC$MASS_SPECTROMETRY: FRAGMENTATION_METHOD CID
AC$MASS_SPECTROMETRY: ACTIVATION_TIME 30 ms
AC$MASS_SPECTROMETRY: ACTIVATION_PARAMETER q=0.25
AC$MASS_SPECTROMETRY: COLLISION_ENERGY 20.0eV
AC$CHROMATOGRAPHY: COLUMN_NAME Symmetry C18 Column, Waters
AC$CHROMATOGRAPHY: SOLVENT A H2O(0.1%HCOOH)
AC$CHROMATOGRAPHY: SOLVENT B CH3CN(0.1%HCOOH)
AC$CHROMATOGRAPHY: FLOW_GRADIENT 0min:5%, 24min:95%, 28min:95%, 28.1:5% (acetonitrile)
AC$CHROMATOGRAPHY: FLOW_RATE 0.3 ml/min
AC$CHROMATOGRAPHY: RETENTION_TIME 6776.23 s
MS$FOCUSED_ION: PRECURSOR_M/Z 182.08117
MS$FOCUSED_ION: PRECURSOR_TYPE [M+H]+
PK$SPLASH: splash10-014i-0900000000-4b4a87c0acf3a05e7152
PK$NUM_PEAK: 14
PK$PEAK: m/z int. rel.int.
  123.04409 3332.521973 6
  136.075745 131032.609375 235
  147.044037 9737.211914 17
  165.04451 3160.428955 6
  165.046143 3103.241211 6
  165.049103 3253.64209 6
  165.054703 557361.625 999
  165.06076 2890.55127 5
  165.062256 2683.463135 5
  165.063736 3178.699219 6
  165.065262 2964.402588 5
  165.06839 2694.675293 5
  299.241547 5292.808105 9
  299.251556 3628.727051 7
//
