ACCESSION: MSBNK-MPI_for_Chemical_Ecology-CE000676
RECORD_TITLE: Glucohirsutin; LC-ESI-ITFT; MS2; HCD; CE 80.0 eV; [M-H]-
DATE: 2016.01.19 (Created 2012.04.12)
AUTHORS: Ales Svatos, Marco Kai, Ravi Kumar Maddula, MPI for Chemical Ecology, Jena, Germany
LICENSE: CC BY-NC-SA
COPYRIGHT: Copyright(C) 2011 MPI for Chemical Ecology, Jena, Germany
PUBLICATION: F. Rasche, K. Scheubert, F. Hufsky, T. Zichner, M. Kai, A. Svatos and S. Boecker. Identifying the unknowns by aligning fragmentation trees. Anal. Chem., 2012, 84, 3417-3426 doi:10.1021/ac300304u
COMMENT: Acquisition and generation of the data is financially supported by the Max-Planck-Society
CH$NAME: Glucohirsutin
CH$COMPOUND_CLASS: Natural Product; Glucosinolate
CH$FORMULA: C16H31NO10S3
CH$EXACT_MASS: 493.11101
CH$SMILES: [H]OC([H])([H])C([H])(O1)C([H])(O[H])C([H])(O[H])C([H])(O[H])C([H])(SC(=NOS(O)(=O)=O)C([H])([H])C([H])([H])C([H])([H])C([H])([H])C([H])([H])C([H])([H])C([H])([H])C([H])([H])S(=O)C([H])([H])[H])1
CH$IUPAC: InChI=1S/C16H31NO10S3/c1-29(22)9-7-5-3-2-4-6-8-12(17-27-30(23,24)25)28-16-15(21)14(20)13(19)11(10-18)26-16/h11,13-16,18-21H,2-10H2,1H3,(H,23,24,25)/b17-12+/t11-,13-,14+,15-,16+,29?/m1/s1
CH$LINK: PUBCHEM CID:44237257
CH$LINK: INCHIKEY GPMDJOOLATZDQL-SGBLMZTFSA-N
AC$INSTRUMENT: LTQ Orbitrap XL, Thermo Scientfic; HP-1100 HPLC, Agilent
AC$INSTRUMENT_TYPE: LC-ESI-ITFT
AC$MASS_SPECTROMETRY: MS_TYPE MS2
AC$MASS_SPECTROMETRY: ION_MODE NEGATIVE
AC$MASS_SPECTROMETRY: IONIZATION ESI
AC$MASS_SPECTROMETRY: RESOLUTION_SETTING 7500
AC$MASS_SPECTROMETRY: SPRAY_VOLTAGE 4.5 kV
AC$MASS_SPECTROMETRY: TUBE_LENS_VOLTAGE 140 V
AC$MASS_SPECTROMETRY: AUTOMATIC_GAIN_CONTROL 3.0E5
AC$MASS_SPECTROMETRY: CAPILLARY_TEMPERATURE 275 C
AC$MASS_SPECTROMETRY: CAPILLARY_VOLTAGE 39 V
AC$MASS_SPECTROMETRY: FRAGMENTATION_METHOD HCD
AC$MASS_SPECTROMETRY: ACTIVATION_TIME 30 ms
AC$MASS_SPECTROMETRY: ACTIVATION_PARAMETER q=0.25
AC$MASS_SPECTROMETRY: COLLISION_ENERGY 80.0eV
AC$CHROMATOGRAPHY: COLUMN_NAME Symmetry C18 Column, Waters
AC$CHROMATOGRAPHY: SOLVENT A H2O(0.1%HCOOH)
AC$CHROMATOGRAPHY: SOLVENT B CH3CN(0.1%HCOOH)
AC$CHROMATOGRAPHY: FLOW_GRADIENT 0min:5%, 24min:95%, 28min:95%, 28.1:5% (acetonitrile)
AC$CHROMATOGRAPHY: FLOW_RATE 0.3 ml/min
AC$CHROMATOGRAPHY: RETENTION_TIME 574.321 s
MS$FOCUSED_ION: PRECURSOR_M/Z 492
MS$FOCUSED_ION: PRECURSOR_TYPE [M-H]-
PK$SPLASH: splash10-003r-0090400000-0eed47b73616f87cf573
PK$NUM_PEAK: 32
PK$PEAK: m/z int. rel.int.
  135.971222 7655.70752 17
  138.970245 9413.665039 21
  146.12558 4305.601074 10
  151.357849 5688.611816 13
  186.095505 21171.138672 47
  188.404861 6882.540527 15
  206.050278 8710.705078 19
  234.080582 450859.0625 999
  235.083176 19350.890625 43
  238.021484 6768.643555 15
  239.726654 4161.249512 9
  241.002533 7098.729492 16
  250.093094 16847.640625 37
  251.144592 5230.460938 12
  259.012695 77271.007812 171
  266.052429 27480.015625 61
  274.989563 64724.460938 143
  280.959961 4497.879883 10
  290.904053 4209.463867 9
  291.558228 6458.348633 14
  291.579498 9115.887695 20
  299.029236 14672.348633 33
  386.060303 13597.443359 30
  406.663605 5200.328613 12
  428.105225 206813.421875 458
  429.109863 15279.198242 34
  477.079865 138037.4375 306
  478.080414 10250.458984 23
  492.10672 20825.064453 46
  521.504089 5288.708496 12
  551.129761 5590.814941 12
  552.965332 4317.242676 10
//
