ACCESSION: MSBNK-MPI_for_Chemical_Ecology-CE000257
RECORD_TITLE: beta-D-Glucopyranose,1-thio-,1-(5-(methylsulfinyl)-N-(sulfooxy)-4-pentenimidate; LC-ESI-ITFT; MS2; HCD; CE 70.0 eV; [M-H]-
DATE: 2016.01.19 (Created 2012.04.12)
AUTHORS: Ales Svatos, Marco Kai, Ravi Kumar Maddula, MPI for Chemical Ecology, Jena, Germany
LICENSE: CC BY-NC-SA
COPYRIGHT: Copyright(C) 2011 MPI for Chemical Ecology, Jena, Germany
PUBLICATION: F. Rasche, K. Scheubert, F. Hufsky, T. Zichner, M. Kai, A. Svatos and S. Boecker. Identifying the unknowns by aligning fragmentation trees. Anal. Chem., 2012, 84, 3417-3426 doi:10.1021/ac300304u
COMMENT: Acquisition and generation of the data is financially supported by the Max-Planck-Society
CH$NAME: beta-D-Glucopyranose,1-thio-,1-(5-(methylsulfinyl)-N-(sulfooxy)-4-pentenimidate
CH$COMPOUND_CLASS: Natural Product; Glucosinolate
CH$FORMULA: C12H21NO11S3
CH$EXACT_MASS: 451.02767
CH$SMILES: OCC(C(O)1)OC(S)(C(O)C(O)1)C(CC=CS(C)=O)C(=O)NOS(O)(=O)=O
CH$IUPAC: InChI=1S/C12H21NO11S3/c1-26(19)4-2-3-6(11(18)13-24-27(20,21)22)12(25)10(17)9(16)8(15)7(5-14)23-12/h2,4,6-10,14-17,25H,3,5H2,1H3,(H,13,18)(H,20,21,22)/b4-2+/t6?,7-,8-,9+,10-,12+,26?/m1/s1
CH$LINK: PUBCHEM CID:6443008
CH$LINK: INCHIKEY URMYQRGDHJRORU-IPQUCONDSA-N
AC$INSTRUMENT: LTQ Orbitrap XL, Thermo Scientfic; HP-1100 HPLC, Agilent
AC$INSTRUMENT_TYPE: LC-ESI-ITFT
AC$MASS_SPECTROMETRY: MS_TYPE MS2
AC$MASS_SPECTROMETRY: ION_MODE NEGATIVE
AC$MASS_SPECTROMETRY: IONIZATION ESI
AC$MASS_SPECTROMETRY: RESOLUTION_SETTING 7500
AC$MASS_SPECTROMETRY: SPRAY_VOLTAGE 4.5 kV
AC$MASS_SPECTROMETRY: TUBE_LENS_VOLTAGE 140 V
AC$MASS_SPECTROMETRY: AUTOMATIC_GAIN_CONTROL 3.0E5
AC$MASS_SPECTROMETRY: CAPILLARY_TEMPERATURE 275 C
AC$MASS_SPECTROMETRY: CAPILLARY_VOLTAGE 39 V
AC$MASS_SPECTROMETRY: FRAGMENTATION_METHOD HCD
AC$MASS_SPECTROMETRY: ACTIVATION_TIME 30 ms
AC$MASS_SPECTROMETRY: ACTIVATION_PARAMETER q=0.25
AC$MASS_SPECTROMETRY: COLLISION_ENERGY 70.0eV
AC$CHROMATOGRAPHY: COLUMN_NAME Symmetry C18 Column, Waters
AC$CHROMATOGRAPHY: SOLVENT A H2O(0.1%HCOOH)
AC$CHROMATOGRAPHY: SOLVENT B CH3CN(0.1%HCOOH)
AC$CHROMATOGRAPHY: FLOW_GRADIENT 0min:5%, 24min:95%, 28min:95%, 28.1:5% (acetonitrile)
AC$CHROMATOGRAPHY: FLOW_RATE 0.3 ml/min
AC$CHROMATOGRAPHY: RETENTION_TIME 271.417 s
MS$FOCUSED_ION: PRECURSOR_M/Z 450.02040
MS$FOCUSED_ION: PRECURSOR_TYPE [M-H]-
PK$SPLASH: splash10-000i-0539700000-37e4db7da02a6e4c987c
PK$NUM_PEAK: 24
PK$PEAK: m/z int. rel.int.
  128.932434 3205.574707 14
  144.048889 4890.280273 21
  165.022949 3901.202393 16
  176.038651 3931.683838 17
  192.033157 152976.1875 646
  193.037125 9349.704102 39
  195.033218 3093.915771 13
  208.047058 13011.978516 55
  227.023315 4070.318848 17
  256.998383 10172.472656 43
  259.013062 36368.726562 154
  274.98996 27745.138672 117
  290.984833 3399.272461 14
  299.021942 3144.68042 13
  344.010986 3534.556641 15
  386.058716 236569.796875 999
  387.06189 34838.777344 147
  388.054901 5724.796875 24
  435.033386 95417.9375 403
  436.036133 15025.573242 63
  437.028473 3200.910889 14
  450.056702 89345.875 377
  451.05954 16710.119141 71
  452.055664 3466.726807 15
//
