ACCESSION: MSBNK-MPI_for_Chemical_Ecology-CE000318
RECORD_TITLE: 8-Methylthiooctyl glucosinolate; LC-ESI-ITFT; MS2; HCD; CE 90.0 eV; [M-H]-
DATE: 2016.01.19 (Created 2012.04.12)
AUTHORS: Ales Svatos, Marco Kai, Ravi Kumar Maddula, MPI for Chemical Ecology, Jena, Germany
LICENSE: CC BY-NC-SA
COPYRIGHT: Copyright(C) 2011 MPI for Chemical Ecology, Jena, Germany
PUBLICATION: F. Rasche, K. Scheubert, F. Hufsky, T. Zichner, M. Kai, A. Svatos and S. Boecker. Identifying the unknowns by aligning fragmentation trees. Anal. Chem., 2012, 84, 3417-3426 doi:10.1021/ac300304u
COMMENT: Acquisition and generation of the data is financially supported by the Max-Planck-Society
CH$NAME: 8-Methylthiooctyl glucosinolate
CH$COMPOUND_CLASS: Natural Product; Glucosinolate
CH$FORMULA: C16H31NO9S3
CH$EXACT_MASS: 477.11609
CH$SMILES: [H]OC([H])([H])C([H])(O1)C([H])(O[H])C([H])(O[H])C([H])(O[H])C([H])(SC(=NOS(O)(=O)=O)C([H])([H])C([H])([H])C([H])([H])C([H])([H])C([H])([H])C([H])([H])C([H])([H])C([H])([H])SC([H])([H])[H])1
CH$IUPAC: InChI=1S/C16H31NO9S3/c1-27-9-7-5-3-2-4-6-8-12(17-26-29(22,23)24)28-16-15(21)14(20)13(19)11(10-18)25-16/h11,13-16,18-21H,2-10H2,1H3,(H,22,23,24)/b17-12+/t11-,13-,14+,15-,16+/m1/s1
CH$LINK: PUBCHEM CID:44237373
CH$LINK: INCHIKEY CWOJBEDMJKZKAB-STPBKMPXSA-N
AC$INSTRUMENT: LTQ Orbitrap XL, Thermo Scientfic; HP-1100 HPLC, Agilent
AC$INSTRUMENT_TYPE: LC-ESI-ITFT
AC$MASS_SPECTROMETRY: MS_TYPE MS2
AC$MASS_SPECTROMETRY: ION_MODE NEGATIVE
AC$MASS_SPECTROMETRY: IONIZATION ESI
AC$MASS_SPECTROMETRY: RESOLUTION_SETTING 7500
AC$MASS_SPECTROMETRY: SPRAY_VOLTAGE 4.5 kV
AC$MASS_SPECTROMETRY: TUBE_LENS_VOLTAGE 140 V
AC$MASS_SPECTROMETRY: AUTOMATIC_GAIN_CONTROL 3.0E5
AC$MASS_SPECTROMETRY: CAPILLARY_TEMPERATURE 275 C
AC$MASS_SPECTROMETRY: CAPILLARY_VOLTAGE 39 V
AC$MASS_SPECTROMETRY: FRAGMENTATION_METHOD HCD
AC$MASS_SPECTROMETRY: ACTIVATION_TIME 30 ms
AC$MASS_SPECTROMETRY: ACTIVATION_PARAMETER q=0.25
AC$MASS_SPECTROMETRY: COLLISION_ENERGY 90.0eV
AC$CHROMATOGRAPHY: COLUMN_NAME Symmetry C18 Column, Waters
AC$CHROMATOGRAPHY: SOLVENT A H2O(0.1%HCOOH)
AC$CHROMATOGRAPHY: SOLVENT B CH3CN(0.1%HCOOH)
AC$CHROMATOGRAPHY: FLOW_GRADIENT 0min:5%, 24min:95%, 28min:95%, 28.1:5% (acetonitrile)
AC$CHROMATOGRAPHY: FLOW_RATE 0.3 ml/min
AC$CHROMATOGRAPHY: RETENTION_TIME 1171.68 s
MS$FOCUSED_ION: PRECURSOR_M/Z 476
MS$FOCUSED_ION: PRECURSOR_TYPE [M-H]-
PK$SPLASH: splash10-0002-9000000000-9ec3a25f3a9eae143fd7
PK$NUM_PEAK: 25
PK$PEAK: m/z int. rel.int.
  74.770012 15683.333984 12
  74.991699 140066.625 107
  79.957954 100706.609375 77
  80.965813 15267.717773 12
  85.02993 11808.90332 9
  95.938812 11802.0 9
  95.952682 921610.1875 701
  95.964661 8618.680664 7
  96.946449 14092.271484 11
  96.951393 8874.237305 7
  96.960403 1312871.125 999
  96.973946 12340.674805 9
  101.025009 9858.62207 8
  111.930122 9752.84668 7
  127.925049 15650.018555 12
  138.971344 28184.947266 21
  194.506805 9769.72168 7
  219.089203 17139.378906 13
  234.099579 21926.980469 17
  259.013733 35898.183594 27
  274.991302 27525.525391 21
  291.558258 14547.369141 11
  299.078674 27602.875 21
  464.124268 8113.694824 6
  481.318024 8235.649414 6
//
