ACCESSION: MSBNK-MPI_for_Chemical_Ecology-CE000372
RECORD_TITLE: 7-Methylthioheptyl glucosinolate; LC-ESI-ITFT; MS2; HCD; CE 55.0 eV; [M-H]-
DATE: 2016.01.19 (Created 2012.04.12)
AUTHORS: Ales Svatos, Marco Kai, Ravi Kumar Maddula, MPI for Chemical Ecology, Jena, Germany
LICENSE: CC BY-NC-SA
COPYRIGHT: Copyright(C) 2011 MPI for Chemical Ecology, Jena, Germany
PUBLICATION: F. Rasche, K. Scheubert, F. Hufsky, T. Zichner, M. Kai, A. Svatos and S. Boecker. Identifying the unknowns by aligning fragmentation trees. Anal. Chem., 2012, 84, 3417-3426 doi:10.1021/ac300304u
COMMENT: Acquisition and generation of the data is financially supported by the Max-Planck-Society
CH$NAME: 7-Methylthioheptyl glucosinolate
CH$COMPOUND_CLASS: Natural Product; Glucosinolate
CH$FORMULA: C15H29NO9S3
CH$EXACT_MASS: 463.10044
CH$SMILES: [H]OC([H])([H])C([H])(O1)C([H])(O[H])C([H])(O[H])C([H])(O[H])C([H])(SC(=NOS(O)(=O)=O)C([H])([H])C([H])([H])C([H])([H])C([H])([H])C([H])([H])C([H])([H])C([H])([H])SC([H])([H])[H])1
CH$IUPAC: InChI=1S/C15H29NO9S3/c1-26-8-6-4-2-3-5-7-11(16-25-28(21,22)23)27-15-14(20)13(19)12(18)10(9-17)24-15/h10,12-15,17-20H,2-9H2,1H3,(H,21,22,23)/b16-11+/t10-,12-,13+,14-,15+/m1/s1
CH$LINK: PUBCHEM CID:44237368
CH$LINK: INCHIKEY SJHVRBSHKTUXLG-MFIRQCQASA-N
AC$INSTRUMENT: LTQ Orbitrap XL, Thermo Scientfic; HP-1100 HPLC, Agilent
AC$INSTRUMENT_TYPE: LC-ESI-ITFT
AC$MASS_SPECTROMETRY: MS_TYPE MS2
AC$MASS_SPECTROMETRY: ION_MODE NEGATIVE
AC$MASS_SPECTROMETRY: IONIZATION ESI
AC$MASS_SPECTROMETRY: RESOLUTION_SETTING 7500
AC$MASS_SPECTROMETRY: SPRAY_VOLTAGE 4.5 kV
AC$MASS_SPECTROMETRY: TUBE_LENS_VOLTAGE 140 V
AC$MASS_SPECTROMETRY: AUTOMATIC_GAIN_CONTROL 3.0E5
AC$MASS_SPECTROMETRY: CAPILLARY_TEMPERATURE 275 C
AC$MASS_SPECTROMETRY: CAPILLARY_VOLTAGE 39 V
AC$MASS_SPECTROMETRY: FRAGMENTATION_METHOD HCD
AC$MASS_SPECTROMETRY: ACTIVATION_TIME 30 ms
AC$MASS_SPECTROMETRY: ACTIVATION_PARAMETER q=0.25
AC$MASS_SPECTROMETRY: COLLISION_ENERGY 55.0eV
AC$CHROMATOGRAPHY: COLUMN_NAME Symmetry C18 Column, Waters
AC$CHROMATOGRAPHY: SOLVENT A H2O(0.1%HCOOH)
AC$CHROMATOGRAPHY: SOLVENT B CH3CN(0.1%HCOOH)
AC$CHROMATOGRAPHY: FLOW_GRADIENT 0min:5%, 24min:95%, 28min:95%, 28.1:5% (acetonitrile)
AC$CHROMATOGRAPHY: FLOW_RATE 0.3 ml/min
AC$CHROMATOGRAPHY: RETENTION_TIME 999.573 s
MS$FOCUSED_ION: PRECURSOR_M/Z 462
MS$FOCUSED_ION: PRECURSOR_TYPE [M-H]-
PK$SPLASH: splash10-0002-9010300000-e72017f851779c9b4744
PK$NUM_PEAK: 28
PK$PEAK: m/z int. rel.int.
  74.766731 2080.287354 9
  74.991722 9531.849609 40
  79.957985 6671.700195 28
  85.030174 2728.813965 11
  95.952789 41814.308594 175
  96.919067 2151.781982 9
  96.946426 2960.998535 12
  96.960289 238599.328125 999
  96.973457 2163.818115 9
  98.955933 2510.202881 11
  101.02504 1978.264404 8
  128.9328 2209.215576 9
  145.051224 2973.073242 12
  163.061157 1695.475464 7
  195.03389 2773.299072 12
  220.084091 10748.514648 45
  227.0233 4329.716797 18
  259.013458 12592.095703 53
  266.053894 1754.493408 7
  269.035004 5191.893066 22
  274.990417 14208.792969 59
  284.065948 1758.154053 7
  290.985443 2622.084473 11
  291.559906 1765.181519 7
  299.066772 4062.319336 17
  462.094238 103343.039062 433
  463.096497 20845.283203 87
  464.09021 3747.843994 16
//
