ACCESSION: MSBNK-NAIST-KNA00374
RECORD_TITLE: S-Adenosyl-L-methionine; LC-ESI-ITFT; MS2; m/z:298.10; POS
DATE: 2016.01.19 (Created 2009.11.18, modified 2011.08.03)
AUTHORS: Takahashi H, Kanaya S, Ogasawara N, Graduate School of Information Science, NAIST
LICENSE: CC BY-SA
CH$NAME: S-Adenosyl-L-methionine
CH$NAME: S-Adenosylmethionine
CH$NAME: Acylcarnitine
CH$COMPOUND_CLASS: Natural Product
CH$FORMULA: C15H22N6O5S
CH$EXACT_MASS: 398.13724
CH$SMILES: [O-1]C(=O)C(N)CC[S+1](C)CC(O1)C(O)C(O)C1n(c3)c(n2)c(n3)c(N)nc2
CH$IUPAC: InChI=1S/C15H22N6O5S/c1-27(3-2-7(16)15(24)25)4-8-10(22)11(23)14(26-8)21-6-20-9-12(17)18-5-19-13(9)21/h5-8,10-11,14,22-23H,2-4,16H2,1H3,(H2-,17,18,19,24,25)/t7-,8+,10+,11+,14+,27?/m0/s1
CH$LINK: CAS 29908-03-0
CH$LINK: CHEBI CHEBI:15414
CH$LINK: KEGG C00019
CH$LINK: KNAPSACK C00007347
CH$LINK: NIKKAJI J23.293I
CH$LINK: PUBCHEM CID:34755
CH$LINK: INCHIKEY MEFKEPWMEQBLKI-AIRLBKTGSA-N
CH$LINK: COMPTOX DTXSID6032019
AC$INSTRUMENT: LTQ Orbitrap XL, Thermo Scientfic
AC$INSTRUMENT_TYPE: LC-ESI-ITFT
AC$MASS_SPECTROMETRY: MS_TYPE MS2
AC$MASS_SPECTROMETRY: ION_MODE POSITIVE
AC$MASS_SPECTROMETRY: COLLISION_ENERGY 35eV
AC$MASS_SPECTROMETRY: IONIZATION ESI
AC$CHROMATOGRAPHY: COLUMN_NAME TOSOH TSKgel ODS-100V  5um Part no. 21456
AC$CHROMATOGRAPHY: FLOW_GRADIENT 0min:3%, 45min:97%, 50min:97%, 50.1:3%, 57min:3% (acetonitrile)
AC$CHROMATOGRAPHY: FLOW_RATE 0.5 ml/min
AC$CHROMATOGRAPHY: RETENTION_TIME 4.129168 min
AC$CHROMATOGRAPHY: SOLVENT A 0.1%formate-water
AC$CHROMATOGRAPHY: SOLVENT B 0.1%formate-acetonitrile
MS$FOCUSED_ION: BASE_PEAK 135.955093
MS$FOCUSED_ION: PRECURSOR_M/Z 298.10
PK$SPLASH: splash10-000i-0900000000-f5e73ae9edab13d36f0d
PK$NUM_PEAK: 13
PK$PEAK: m/z int. rel.int.
  94.101906 14.656448 1
  96.966209 513.212097 20
  102.984589 24.883068 1
  119.101334 50.189270 2
  135.955093 25026.675781 999
  145.077698 798.308838 32
  162.946442 1607.204102 64
  181.864441 17.595942 1
  208.233185 12.828667 1
  238.220398 188.104233 8
  280.035980 45.547646 2
  281.208496 19.968641 1
  282.203369 64.395515 3
//
