ACCESSION: MSBNK-NAIST-KNA00638
RECORD_TITLE: D-Gluconic acid; LC-ESI-ITFT; MS2; m/z:195.05; NEG
DATE: 2016.01.19 (Created 2009.11.19, modified 2011.08.03)
AUTHORS: Takahashi H, Kanaya S, Ogasawara N, Graduate School of Information Science, NAIST
LICENSE: CC BY-SA
CH$NAME: D-Gluconic acid
CH$NAME: D-Gluconate
CH$NAME: D-gluco-Hexonic acid
CH$COMPOUND_CLASS: Natural Product
CH$FORMULA: C6H12O7
CH$EXACT_MASS: 196.05830
CH$SMILES: OCC(O)C(O)C(O)C(O)C(O)=O
CH$IUPAC: InChI=1S/C6H12O7/c7-1-2(8)3(9)4(10)5(11)6(12)13/h2-5,7-11H,1H2,(H,12,13)
CH$LINK: CAS 526-95-4
CH$LINK: CHEBI CHEBI:33198
CH$LINK: KEGG C00257
CH$LINK: KNAPSACK C00007303
CH$LINK: NIKKAJI J3.286G
CH$LINK: PUBCHEM CID:10690
CH$LINK: INCHIKEY RGHNJXZEOKUKBD-UHFFFAOYSA-N
AC$INSTRUMENT: LTQ Orbitrap XL, Thermo Scientfic
AC$INSTRUMENT_TYPE: LC-ESI-ITFT
AC$MASS_SPECTROMETRY: MS_TYPE MS2
AC$MASS_SPECTROMETRY: ION_MODE NEGATIVE
AC$MASS_SPECTROMETRY: COLLISION_ENERGY 35eV
AC$MASS_SPECTROMETRY: IONIZATION ESI
AC$CHROMATOGRAPHY: COLUMN_NAME TOSOH TSKgel ODS-100V  5um Part no. 21456
AC$CHROMATOGRAPHY: FLOW_GRADIENT 0min:3%, 45min:97%, 50min:97%, 50.1:3%, 57min:3% (acetonitrile)
AC$CHROMATOGRAPHY: FLOW_RATE 0.5 ml/min
AC$CHROMATOGRAPHY: RETENTION_TIME 5.470082 min
AC$CHROMATOGRAPHY: SOLVENT A 0.1%formate-water
AC$CHROMATOGRAPHY: SOLVENT B 0.1%formate-acetonitrile
MS$FOCUSED_ION: BASE_PEAK 128.951462
MS$FOCUSED_ION: PRECURSOR_M/Z 195.05
PK$SPLASH: splash10-004i-1900000000-b0925b2aaea018f177d3
PK$NUM_PEAK: 18
PK$PEAK: m/z int. rel.int.
  57.060200 9.395406 1
  58.990860 6.436105 1
  71.019707 12.251398 2
  74.907196 288.730957 36
  79.020477 8.670251 1
  84.964081 122.915230 15
  86.916466 173.232544 22
  89.075363 20.819439 3
  96.824585 13.340816 2
  98.957703 591.724182 74
  111.010223 65.482101 8
  128.951462 8036.016113 999
  130.934784 20.024982 2
  140.990173 111.394348 14
  149.056671 17.835102 2
  151.032730 6.964648 1
  159.016724 888.711304 110
  177.053635 1284.786377 160
//
