ACCESSION: MSBNK-NAIST-KNA00277
RECORD_TITLE: L-Glutamic acid; LC-ESI-ITFT; MS2; m/z:130.05; POS
DATE: 2016.01.19 (Created 2009.11.17, modified 2011.08.03)
AUTHORS: Takahashi H, Kanaya S, Ogasawara N, Graduate School of Information Science, NAIST
LICENSE: CC BY-SA
CH$NAME: L-Glutamate
CH$NAME: L-Glutamic acid
CH$NAME: L-Glutaminic acid
CH$COMPOUND_CLASS: Natural Product
CH$FORMULA: C5H9NO4
CH$EXACT_MASS: 147.05316
CH$SMILES: OC(=O)CC[C@H](N)C(O)=O
CH$IUPAC: InChI=1S/C5H9NO4/c6-3(5(9)10)1-2-4(7)8/h3H,1-2,6H2,(H,7,8)(H,9,10)/t3-/m0/s1
CH$LINK: CAS 56-86-0
CH$LINK: CHEBI CHEBI:16015
CH$LINK: KEGG C00025
CH$LINK: KNAPSACK C00001358
CH$LINK: NIKKAJI J9.171E
CH$LINK: PUBCHEM CID:33032
CH$LINK: INCHIKEY WHUUTDBJXJRKMK-VKHMYHEASA-N
CH$LINK: COMPTOX DTXSID5020659
AC$INSTRUMENT: LTQ Orbitrap XL, Thermo Scientfic
AC$INSTRUMENT_TYPE: LC-ESI-ITFT
AC$MASS_SPECTROMETRY: MS_TYPE MS2
AC$MASS_SPECTROMETRY: ION_MODE POSITIVE
AC$MASS_SPECTROMETRY: COLLISION_ENERGY 35eV
AC$MASS_SPECTROMETRY: IONIZATION ESI
AC$CHROMATOGRAPHY: COLUMN_NAME TOSOH TSKgel ODS-100V  5um Part no. 21456
AC$CHROMATOGRAPHY: FLOW_GRADIENT 0min:3%, 45min:97%, 50min:97%, 50.1:3%, 57min:3% (acetonitrile)
AC$CHROMATOGRAPHY: FLOW_RATE 0.5 ml/min
AC$CHROMATOGRAPHY: RETENTION_TIME 4.828890 min
AC$CHROMATOGRAPHY: SOLVENT A 0.1%formate-water
AC$CHROMATOGRAPHY: SOLVENT B 0.1%formate-acetonitrile
MS$FOCUSED_ION: BASE_PEAK 83.974167
MS$FOCUSED_ION: PRECURSOR_M/Z 130.05
PK$SPLASH: splash10-001i-9000000000-c3c7f8f3754109a0c25b
PK$NUM_PEAK: 6
PK$PEAK: m/z int. rel.int.
  83.974167 9465.911133 999
  86.023315 34.194752 4
  88.855659 14.692104 2
  102.086349 151.589844 16
  109.215729 9.485209 1
  118.071426 6.071904 1
//
