ACCESSION: MSBNK-NAIST-KNA00707
RECORD_TITLE: beta-D-Fructose 6-phosphate; LC-ESI-ITFT; MS2; m/z:779.08; NEG
DATE: 2016.01.19 (Created 2009.11.19, modified 2011.08.03)
AUTHORS: Takahashi H, Kanaya S, Ogasawara N, Graduate School of Information Science, NAIST
LICENSE: CC BY-SA
CH$NAME: beta-D-Fructose 6-phosphate
CH$COMPOUND_CLASS: Natural Product
CH$FORMULA: C6H13O9P
CH$EXACT_MASS: 260.02972
CH$SMILES: OC[C@@](O)(O1)[C@@H](O)[C@H](O)[C@@H](COP(O)(O)=O)1
CH$IUPAC: InChI=1S/C6H13O9P/c7-2-6(10)5(9)4(8)3(15-6)1-14-16(11,12)13/h3-5,7-10H,1-2H2,(H2,11,12,13)/t3-,4-,5+,6-/m1/s1
CH$LINK: CHEBI CHEBI:16084
CH$LINK: KEGG C05345
CH$LINK: KNAPSACK C00019548
CH$LINK: PUBCHEM CID:440641
CH$LINK: INCHIKEY BGWGXPAPYGQALX-ARQDHWQXSA-N
CH$LINK: COMPTOX DTXSID90889361
AC$INSTRUMENT: LTQ Orbitrap XL, Thermo Scientfic
AC$INSTRUMENT_TYPE: LC-ESI-ITFT
AC$MASS_SPECTROMETRY: MS_TYPE MS2
AC$MASS_SPECTROMETRY: ION_MODE NEGATIVE
AC$MASS_SPECTROMETRY: COLLISION_ENERGY 35eV
AC$MASS_SPECTROMETRY: IONIZATION ESI
AC$CHROMATOGRAPHY: COLUMN_NAME TOSOH TSKgel ODS-100V  5um Part no. 21456
AC$CHROMATOGRAPHY: FLOW_GRADIENT 0min:3%, 45min:97%, 50min:97%, 50.1:3%, 57min:3% (acetonitrile)
AC$CHROMATOGRAPHY: FLOW_RATE 0.5 ml/min
AC$CHROMATOGRAPHY: RETENTION_TIME 6.834713 min
AC$CHROMATOGRAPHY: SOLVENT A 0.1%formate-water
AC$CHROMATOGRAPHY: SOLVENT B 0.1%formate-acetonitrile
MS$FOCUSED_ION: BASE_PEAK 608.245056
MS$FOCUSED_ION: PRECURSOR_M/Z 779.08
PK$SPLASH: splash10-0ab9-0000509000-ba24f5137a9692d147ab
PK$NUM_PEAK: 2
PK$PEAK: m/z int. rel.int.
  471.939087 5.330075 660
  608.245056 8.064135 999
//
