ACCESSION: MSBNK-NAIST-KNA00670
RECORD_TITLE: Taurine; LC-ESI-ITFT; MS2; m/z:249.02; NEG
DATE: 2016.01.19 (Created 2009.11.19, modified 2011.08.03)
AUTHORS: Takahashi H, Kanaya S, Ogasawara N, Graduate School of Information Science, NAIST
LICENSE: CC BY-SA
CH$NAME: Taurine
CH$NAME: 2-Aminoethanesulfonic acid
CH$NAME: Aminoethylsulfonic acid
CH$COMPOUND_CLASS: Natural Product
CH$FORMULA: C2H7NO3S
CH$EXACT_MASS: 125.01466
CH$SMILES: NCCS(O)(=O)=O
CH$IUPAC: InChI=1S/C2H7NO3S/c3-1-2-7(4,5)6/h1-3H2,(H,4,5,6)
CH$LINK: CAS 107-35-7
CH$LINK: CHEBI CHEBI:15891
CH$LINK: KEGG C00245
CH$LINK: NIKKAJI J5.056C
CH$LINK: PUBCHEM CID:1123
CH$LINK: INCHIKEY XOAAWQZATWQOTB-UHFFFAOYSA-N
CH$LINK: COMPTOX DTXSID3021304
AC$INSTRUMENT: LTQ Orbitrap XL, Thermo Scientfic
AC$INSTRUMENT_TYPE: LC-ESI-ITFT
AC$MASS_SPECTROMETRY: MS_TYPE MS2
AC$MASS_SPECTROMETRY: ION_MODE NEGATIVE
AC$MASS_SPECTROMETRY: COLLISION_ENERGY 35eV
AC$MASS_SPECTROMETRY: IONIZATION ESI
AC$CHROMATOGRAPHY: COLUMN_NAME TOSOH TSKgel ODS-100V  5um Part no. 21456
AC$CHROMATOGRAPHY: FLOW_GRADIENT 0min:3%, 45min:97%, 50min:97%, 50.1:3%, 57min:3% (acetonitrile)
AC$CHROMATOGRAPHY: FLOW_RATE 0.5 ml/min
AC$CHROMATOGRAPHY: RETENTION_TIME 4.795743 min
AC$CHROMATOGRAPHY: SOLVENT A 0.1%formate-water
AC$CHROMATOGRAPHY: SOLVENT B 0.1%formate-acetonitrile
MS$FOCUSED_ION: BASE_PEAK 123.942795
MS$FOCUSED_ION: PRECURSOR_M/Z 249.02
PK$SPLASH: splash10-00di-0900000000-d411fff703670832e445
PK$NUM_PEAK: 3
PK$PEAK: m/z int. rel.int.
  79.900536 22.261837 1
  123.942795 14984.085938 999
  124.746414 8.779563 1
//
