ACCESSION: MSBNK-NAIST-KNA00603
RECORD_TITLE: NAD+; LC-ESI-ITFT; MS2; m/z:742.07; NEG
DATE: 2016.01.19 (Created 2009.11.19, modified 2011.08.03)
AUTHORS: Takahashi H, Kanaya S, Ogasawara N, Graduate School of Information Science, NAIST
LICENSE: CC BY-SA
CH$NAME: NAD+
CH$NAME: NAD
CH$NAME: Nicotinamide adenine dinucleotide
CH$NAME: DPN
CH$NAME: Diphosphopyridine nucleotide
CH$NAME: Nadide
CH$COMPOUND_CLASS: Natural Product
CH$FORMULA: [C21H28N7O14P2]+
CH$EXACT_MASS: 664.11695
CH$SMILES: C1=CC(=C[N+](=C1)[C@H]2[C@@H]([C@@H]([C@H](O2)COP(=O)(O)OP(=O)(O)OC[C@@H]3[C@H]([C@H]([C@@H](O3)N4C=NC5=C(N=CN=C54)N)O)O)O)O)C(=O)N
CH$IUPAC: InChI=1S/C21H27N7O14P2/c22-17-12-19(25-7-24-17)28(8-26-12)21-16(32)14(30)11(41-21)6-39-44(36,37)42-43(34,35)38-5-10-13(29)15(31)20(40-10)27-3-1-2-9(4-27)18(23)33/h1-4,7-8,10-11,13-16,20-21,29-32H,5-6H2,(H5-,22,23,24,25,33,34,35,36,37)/p+1/t10-,11-,13-,14-,15-,16-,20-,21-/m1/s1
CH$LINK: CAS 53-84-9
CH$LINK: CHEBI CHEBI:15846
CH$LINK: KEGG C00003
CH$LINK: KNAPSACK C00007256
CH$LINK: NIKKAJI J136.554A
CH$LINK: PUBCHEM CID:5893
CH$LINK: INCHIKEY BAWFJGJZGIEFAR-NNYOXOHSSA-O
AC$INSTRUMENT: LTQ Orbitrap XL, Thermo Scientfic
AC$INSTRUMENT_TYPE: LC-ESI-ITFT
AC$MASS_SPECTROMETRY: MS_TYPE MS2
AC$MASS_SPECTROMETRY: ION_MODE NEGATIVE
AC$MASS_SPECTROMETRY: COLLISION_ENERGY 35eV
AC$MASS_SPECTROMETRY: IONIZATION ESI
AC$CHROMATOGRAPHY: COLUMN_NAME TOSOH TSKgel ODS-100V  5um Part no. 21456
AC$CHROMATOGRAPHY: FLOW_GRADIENT 0min:3%, 45min:97%, 50min:97%, 50.1:3%, 57min:3% (acetonitrile)
AC$CHROMATOGRAPHY: FLOW_RATE 0.5 ml/min
AC$CHROMATOGRAPHY: RETENTION_TIME 8.874092 min
AC$CHROMATOGRAPHY: SOLVENT A 0.1%formate-water
AC$CHROMATOGRAPHY: SOLVENT B 0.1%formate-acetonitrile
MS$FOCUSED_ION: BASE_PEAK 620.069519
MS$FOCUSED_ION: PRECURSOR_M/Z 742.07
PK$SPLASH: splash10-00di-0000009000-e1d0afb4e7926a0f845e
PK$NUM_PEAK: 14
PK$PEAK: m/z int. rel.int.
  297.027191 9.788498 1
  329.153687 10.532453 1
  395.188171 31.367445 3
  408.052612 34.020073 3
  425.982361 35.990627 3
  466.922119 7.683956 1
  522.891602 8.379548 1
  602.022644 93.198517 8
  607.194336 53.424873 5
  620.069519 11292.650391 999
  620.773499 17.877455 2
  644.070984 15.866043 1
  662.241394 9.124635 1
  724.213623 26.119358 2
//
