ACCESSION: MSBNK-NAIST-KNA00615
RECORD_TITLE: FAD; LC-ESI-ITFT; MS2; m/z:785.15; NEG
DATE: 2016.01.19 (Created 2009.11.19, modified 2011.08.03)
AUTHORS: Takahashi H, Kanaya S, Ogasawara N, Graduate School of Information Science, NAIST
LICENSE: CC BY-SA
CH$NAME: FAD
CH$NAME: Flavin adenine dinucleotide
CH$COMPOUND_CLASS: Natural Product
CH$FORMULA: C27H33N9O15P2
CH$EXACT_MASS: 785.15713
CH$SMILES: C(C(CN(c54)C(=N6)C(C(=O)NC6=O)=Nc(cc(c(c5)C)C)4)O)(O)C(O)COP(OP(OCC(O1)C(C(C1n(c2)c(n3)c(c(N)nc3)n2)O)O)(O)=O)(O)=O
CH$IUPAC: InChI=1S/C27H33N9O15P2/c1-10-3-12-13(4-11(10)2)35(24-18(32-12)25(42)34-27(43)33-24)5-14(37)19(39)15(38)6-48-52(44,45)51-53(46,47)49-7-16-20(40)21(41)26(50-16)36-9-31-17-22(28)29-8-30-23(17)36/h3-4,8-9,14-16,19-21,26,37-41H,5-7H2,1-2H3,(H,44,45)(H,46,47)(H2,28,29,30)(H,34,42,43)/t14-,15+,16+,19-,20+,21+,26+/m0/s1
CH$LINK: CAS 146-14-5
CH$LINK: CHEBI CHEBI:16238
CH$LINK: KEGG C00016
CH$LINK: KNAPSACK C00001500
CH$LINK: NIKKAJI J39.053D
CH$LINK: PUBCHEM CID:643975
CH$LINK: INCHIKEY VWWQXMAJTJZDQX-UYBVJOGSSA-N
CH$LINK: COMPTOX DTXSID4048307
AC$INSTRUMENT: LTQ Orbitrap XL, Thermo Scientfic
AC$INSTRUMENT_TYPE: LC-ESI-ITFT
AC$MASS_SPECTROMETRY: MS_TYPE MS2
AC$MASS_SPECTROMETRY: ION_MODE NEGATIVE
AC$MASS_SPECTROMETRY: COLLISION_ENERGY 35eV
AC$MASS_SPECTROMETRY: IONIZATION ESI
AC$CHROMATOGRAPHY: COLUMN_NAME TOSOH TSKgel ODS-100V  5um Part no. 21456
AC$CHROMATOGRAPHY: FLOW_GRADIENT 0min:3%, 45min:97%, 50min:97%, 50.1:3%, 57min:3% (acetonitrile)
AC$CHROMATOGRAPHY: FLOW_RATE 0.5 ml/min
AC$CHROMATOGRAPHY: RETENTION_TIME 14.763632 min
AC$CHROMATOGRAPHY: SOLVENT A 0.1%formate-water
AC$CHROMATOGRAPHY: SOLVENT B 0.1%formate-acetonitrile
MS$FOCUSED_ION: BASE_PEAK 437.058289
MS$FOCUSED_ION: PRECURSOR_M/Z 785.15
PK$SPLASH: splash10-000i-0003900000-d2ede6a2e7183f1c32a3
PK$NUM_PEAK: 19
PK$PEAK: m/z int. rel.int.
  241.300125 570.116943 6
  255.202347 301.373840 3
  273.173096 70.135284 1
  339.328674 53.390923 1
  346.137207 35019.140625 371
  347.252686 660.321777 7
  394.327209 61.844772 1
  408.166077 1024.817261 11
  419.238342 217.687805 2
  437.058289 94414.335938 999
  438.153809 3006.128906 32
  455.249817 316.332642 3
  468.133362 60.665863 1
  517.086975 2654.879395 28
  517.853821 73.206512 1
  528.247925 79.069511 1
  542.188171 547.113037 6
  686.353577 206.720901 2
  766.261169 348.283691 4
//
