ACCESSION: MSBNK-NAIST-KNA00282
RECORD_TITLE: Uridine; LC-ESI-ITFT; MS2; m/z:171.15; POS
DATE: 2016.01.19 (Created 2009.11.17, modified 2011.08.03)
AUTHORS: Takahashi H, Kanaya S, Ogasawara N, Graduate School of Information Science, NAIST
LICENSE: CC BY-SA
CH$NAME: Uridine
CH$COMPOUND_CLASS: Natural Product
CH$FORMULA: C9H12N2O6
CH$EXACT_MASS: 244.06954
CH$SMILES: OC[C@@H](O1)[C@@H](O)[C@@H](O)[C@@H]1N(C=2)C(=O)NC(=O)C2
CH$IUPAC: InChI=1S/C9H12N2O6/c12-3-4-6(14)7(15)8(17-4)11-2-1-5(13)10-9(11)16/h1-2,4,6-8,12,14-15H,3H2,(H,10,13,16)/t4-,6-,7-,8-/m1/s1
CH$LINK: CAS 58-96-8
CH$LINK: CHEBI CHEBI:16704
CH$LINK: KEGG C00299
CH$LINK: KNAPSACK C00019674
CH$LINK: NIKKAJI J4.593D
CH$LINK: PUBCHEM CID:6029
CH$LINK: INCHIKEY DRTQHJPVMGBUCF-XVFCMESISA-N
CH$LINK: COMPTOX DTXSID40891555
AC$INSTRUMENT: LTQ Orbitrap XL, Thermo Scientfic
AC$INSTRUMENT_TYPE: LC-ESI-ITFT
AC$MASS_SPECTROMETRY: MS_TYPE MS2
AC$MASS_SPECTROMETRY: ION_MODE POSITIVE
AC$MASS_SPECTROMETRY: COLLISION_ENERGY 35eV
AC$MASS_SPECTROMETRY: IONIZATION ESI
AC$CHROMATOGRAPHY: COLUMN_NAME TOSOH TSKgel ODS-100V  5um Part no. 21456
AC$CHROMATOGRAPHY: FLOW_GRADIENT 0min:3%, 45min:97%, 50min:97%, 50.1:3%, 57min:3% (acetonitrile)
AC$CHROMATOGRAPHY: FLOW_RATE 0.5 ml/min
AC$CHROMATOGRAPHY: RETENTION_TIME 9.214213 min
AC$CHROMATOGRAPHY: SOLVENT A 0.1%formate-water
AC$CHROMATOGRAPHY: SOLVENT B 0.1%formate-acetonitrile
MS$FOCUSED_ION: BASE_PEAK 88.985397
MS$FOCUSED_ION: PRECURSOR_M/Z 171.15
PK$SPLASH: splash10-000i-9000000000-aa4ba481865df59b0da8
PK$NUM_PEAK: 23
PK$PEAK: m/z int. rel.int.
  57.029068 123.050858 20
  71.990784 1142.864624 183
  73.022354 129.296646 21
  80.917503 5.122575 1
  83.020340 24.298294 4
  85.095963 7.548384 1
  88.985397 6238.197754 999
  92.066055 25.906195 4
  93.071487 23.102142 4
  99.140610 5.060142 1
  100.165588 3.611977 1
  101.053238 91.200073 15
  107.152222 3.550252 1
  108.959579 36.122555 6
  113.038391 3.817727 1
  115.246140 3.329077 1
  129.098312 49.512791 8
  129.987854 11.668475 2
  135.214859 4.140009 1
  143.078094 9.126615 1
  153.062561 23.979036 4
  154.041763 7.832090 1
  171.107468 19.784485 3
//
