ACCESSION: MSBNK-NAIST-KNA00271
RECORD_TITLE: NADH; LC-ESI-ITFT; MS2; m/z:666.13; POS
DATE: 2016.01.19 (Created 2009.11.17, modified 2011.08.03)
AUTHORS: Takahashi H, Kanaya S, Ogasawara N, Graduate School of Information Science, NAIST
LICENSE: CC BY-SA
CH$NAME: NADH
CH$NAME: DPNH
CH$COMPOUND_CLASS: Natural Product
CH$FORMULA: C21H29N7O14P2
CH$EXACT_MASS: 665.12477
CH$SMILES: NC(=O)C(C5)=CN(C=C5)[C@H](O1)[C@H](O)[C@H](O)[C@@H](COP(O)(=O)OP(O)(=O)OC[C@@H](O2)[C@@H](O)[C@@H](O)[C@@H]2n(c4)c(n3)c(n4)c(N)nc3)1
CH$IUPAC: InChI=1S/C21H29N7O14P2/c22-17-12-19(25-7-24-17)28(8-26-12)21-16(32)14(30)11(41-21)6-39-44(36,37)42-43(34,35)38-5-10-13(29)15(31)20(40-10)27-3-1-2-9(4-27)18(23)33/h1,3-4,7-8,10-11,13-16,20-21,29-32H,2,5-6H2,(H2,23,33)(H,34,35)(H,36,37)(H2,22,24,25)/t10-,11-,13-,14-,15-,16-,20-,21-/m1/s1
CH$LINK: CAS 58-68-4
CH$LINK: CHEBI CHEBI:16908
CH$LINK: KEGG C00004
CH$LINK: KNAPSACK C00019343
CH$LINK: NIKKAJI J213.546I
CH$LINK: PUBCHEM CID:439153
CH$LINK: INCHIKEY BOPGDPNILDQYTO-NNYOXOHSSA-N
CH$LINK: COMPTOX DTXSID30889320
AC$INSTRUMENT: LTQ Orbitrap XL, Thermo Scientfic
AC$INSTRUMENT_TYPE: LC-ESI-ITFT
AC$MASS_SPECTROMETRY: MS_TYPE MS2
AC$MASS_SPECTROMETRY: ION_MODE POSITIVE
AC$MASS_SPECTROMETRY: COLLISION_ENERGY 35eV
AC$MASS_SPECTROMETRY: IONIZATION ESI
AC$CHROMATOGRAPHY: COLUMN_NAME TOSOH TSKgel ODS-100V  5um Part no. 21456
AC$CHROMATOGRAPHY: FLOW_GRADIENT 0min:3%, 45min:97%, 50min:97%, 50.1:3%, 57min:3% (acetonitrile)
AC$CHROMATOGRAPHY: FLOW_RATE 0.5 ml/min
AC$CHROMATOGRAPHY: RETENTION_TIME 9.535870 min
AC$CHROMATOGRAPHY: SOLVENT A 0.1%formate-water
AC$CHROMATOGRAPHY: SOLVENT B 0.1%formate-acetonitrile
MS$FOCUSED_ION: BASE_PEAK 649.125549
MS$FOCUSED_ION: PRECURSOR_M/Z 666.13
PK$SPLASH: splash10-0002-0000009000-9e519345cf4890a11796
PK$NUM_PEAK: 8
PK$PEAK: m/z int. rel.int.
  302.278870 98.893028 1
  319.198853 82.237335 1
  348.257080 1824.116699 23
  496.247192 76.177109 1
  514.254883 1070.850098 14
  530.983704 50.166595 1
  631.157837 77.542946 1
  649.125549 78378.695313 999
//
