ACCESSION: MSBNK-NAIST-KNA00403
RECORD_TITLE: NADP+; LC-ESI-ITFT; MS2; m/z:744.08; POS
DATE: 2016.01.19 (Created 2009.11.18, modified 2011.08.03)
AUTHORS: Takahashi H, Kanaya S, Ogasawara N, Graduate School of Information Science, NAIST
LICENSE: CC BY-SA
CH$NAME: NADP+
CH$NAME: NADP
CH$NAME: Nicotinamide adenine dinucleotide phosphate
CH$NAME: beta-Nicotinamide adenine dinucleotide phosphate
CH$NAME: TPN
CH$NAME: Triphosphopyridine nucleotide
CH$COMPOUND_CLASS: Natural Product
CH$FORMULA: [C21H29N7O17P3]+
CH$EXACT_MASS: 744.08328
CH$SMILES: NC(=O)c(c5)c[n+1](cc5)[C@H](O1)[C@H](O)[C@H](O)[C@@H](COP(O)(=O)OP(O)(=O)OC[C@@H](O2)[C@@H](O)[C@@H](OP(O)(O)=O)[C@@H]2n(c3)c(n4)c(c(N)nc4)n3)1
CH$IUPAC: InChI=1S/C21H28N7O17P3/c22-17-12-19(25-7-24-17)28(8-26-12)21-16(44-46(33,34)35)14(30)11(43-21)6-41-48(38,39)45-47(36,37)40-5-10-13(29)15(31)20(42-10)27-3-1-2-9(4-27)18(23)32/h1-4,7-8,10-11,13-16,20-21,29-31H,5-6H2,(H7-,22,23,24,25,32,33,34,35,36,37,38,39)/p+1/t10-,11-,13-,14-,15-,16-,20-,21-/m1/s1
CH$LINK: CAS 53-59-8
CH$LINK: CHEBI CHEBI:18009
CH$LINK: KEGG C00006
CH$LINK: NIKKAJI J247.824B
CH$LINK: PUBCHEM CID:5886
CH$LINK: INCHIKEY XJLXINKUBYWONI-NNYOXOHSSA-O
AC$INSTRUMENT: LTQ Orbitrap XL, Thermo Scientfic
AC$INSTRUMENT_TYPE: LC-ESI-ITFT
AC$MASS_SPECTROMETRY: MS_TYPE MS2
AC$MASS_SPECTROMETRY: ION_MODE POSITIVE
AC$MASS_SPECTROMETRY: COLLISION_ENERGY 35eV
AC$MASS_SPECTROMETRY: IONIZATION ESI
AC$CHROMATOGRAPHY: COLUMN_NAME TOSOH TSKgel ODS-100V  5um Part no. 21456
AC$CHROMATOGRAPHY: FLOW_GRADIENT 0min:3%, 45min:97%, 50min:97%, 50.1:3%, 57min:3% (acetonitrile)
AC$CHROMATOGRAPHY: FLOW_RATE 0.5 ml/min
AC$CHROMATOGRAPHY: RETENTION_TIME 8.873388 min
AC$CHROMATOGRAPHY: SOLVENT A 0.1%formate-water
AC$CHROMATOGRAPHY: SOLVENT B 0.1%formate-acetonitrile
MS$FOCUSED_ION: BASE_PEAK 604.119385
MS$FOCUSED_ION: PRECURSOR_M/Z 744.08
PK$SPLASH: splash10-0udi-0000009000-384d275a638928dd40f1
PK$NUM_PEAK: 20
PK$PEAK: m/z int. rel.int.
  214.325485 149.954651 1
  232.158447 1252.673096 7
  312.235474 318.190765 2
  330.110046 831.986023 5
  371.190857 121.045822 1
  408.182617 131.171600 1
  410.144287 5716.717773 33
  428.196960 349.186279 2
  469.024292 641.556641 4
  490.137573 15655.748047 89
  506.262390 1051.977783 6
  508.105591 3392.809814 19
  524.291626 130.772995 1
  585.934265 803.478699 5
  604.119385 174809.031250 999
  604.774841 532.275940 3
  609.083740 179.949112 1
  621.994080 71382.242188 408
  622.678406 124.460205 1
  726.070435 1254.725342 7
//
