ACCESSION: MSBNK-NAIST-KNA00100
RECORD_TITLE: L-Citrulline; LC-ESI-ITFT; MS2; m/z:176.10; POS
DATE: 2016.01.19 (Created 2009.11.17, modified 2011.08.03)
AUTHORS: Takahashi H, Kanaya S, Ogasawara N, Graduate School of Information Science, NAIST
LICENSE: CC BY-SA
CH$NAME: L-Citrulline
CH$NAME: 2-Amino-5-ureidovaleric acid
CH$NAME: Citrulline
CH$COMPOUND_CLASS: Natural Product
CH$FORMULA: C6H13N3O3
CH$EXACT_MASS: 175.09569
CH$SMILES: NC(=O)NCCC[C@H](N)C(O)=O
CH$IUPAC: InChI=1S/C6H13N3O3/c7-4(5(10)11)2-1-3-9-6(8)12/h4H,1-3,7H2,(H,10,11)(H3,8,9,12)/t4-/m0/s1
CH$LINK: CAS 372-75-8
CH$LINK: CHEBI CHEBI:16349
CH$LINK: KEGG C00327
CH$LINK: KNAPSACK C00001348
CH$LINK: NIKKAJI J5.711H
CH$LINK: PUBCHEM CID:9750
CH$LINK: INCHIKEY RHGKLRLOHDJJDR-BYPYZUCNSA-N
CH$LINK: COMPTOX DTXSID80883373
AC$INSTRUMENT: LTQ Orbitrap XL, Thermo Scientfic
AC$INSTRUMENT_TYPE: LC-ESI-ITFT
AC$MASS_SPECTROMETRY: MS_TYPE MS2
AC$MASS_SPECTROMETRY: ION_MODE POSITIVE
AC$MASS_SPECTROMETRY: COLLISION_ENERGY 35eV
AC$MASS_SPECTROMETRY: IONIZATION ESI
AC$CHROMATOGRAPHY: COLUMN_NAME TOSOH TSKgel ODS-100V  5um Part no. 21456
AC$CHROMATOGRAPHY: FLOW_GRADIENT 0min:3%, 45min:97%, 50min:97%, 50.1:3%, 57min:3% (acetonitrile)
AC$CHROMATOGRAPHY: FLOW_RATE 0.5 ml/min
AC$CHROMATOGRAPHY: RETENTION_TIME 4.832382 min
AC$CHROMATOGRAPHY: SOLVENT A 0.1%formate-water
AC$CHROMATOGRAPHY: SOLVENT B 0.1%formate-acetonitrile
MS$FOCUSED_ION: BASE_PEAK 158.998047
MS$FOCUSED_ION: PRECURSOR_M/Z 176.10
PK$SPLASH: splash10-0a4i-0900000000-10ee9a593e13550bec1c
PK$NUM_PEAK: 7
PK$PEAK: m/z int. rel.int.
  113.017288 4048.509277 3
  114.486893 1103.279785 1
  115.143478 8477.534180 6
  116.151993 882.988098 1
  130.108841 4462.264160 3
  133.157013 6592.729004 5
  158.998047 1362701.500000 999
//
