ACCESSION: MSBNK-NAIST-KNA00436
RECORD_TITLE: Anthranilic acid; LC-ESI-ITFT; MS2; m/z:120.04; POS
DATE: 2016.01.19 (Created 2009.11.18, modified 2011.08.03)
AUTHORS: Takahashi H, Kanaya S, Ogasawara N, Graduate School of Information Science, NAIST
LICENSE: CC BY-SA
CH$NAME: Anthranilate
CH$NAME: Anthranilic acid
CH$NAME: o-Aminobenzoic acid
CH$NAME: Vitamin L1
CH$NAME: 2-Aminobenzoate
CH$COMPOUND_CLASS: Natural Product
CH$FORMULA: C7H7NO2
CH$EXACT_MASS: 137.04768
CH$SMILES: OC(=O)c(c1)c(N)ccc1
CH$IUPAC: InChI=1S/C7H7NO2/c8-6-4-2-1-3-5(6)7(9)10/h1-4H,8H2,(H,9,10)
CH$LINK: CAS 118-92-3
CH$LINK: CHEBI CHEBI:30754
CH$LINK: KEGG C00108
CH$LINK: KNAPSACK C00007382
CH$LINK: NIKKAJI J2.912B
CH$LINK: PUBCHEM CID:227
CH$LINK: INCHIKEY RWZYAGGXGHYGMB-UHFFFAOYSA-N
CH$LINK: COMPTOX DTXSID8020094
AC$INSTRUMENT: LTQ Orbitrap XL, Thermo Scientfic
AC$INSTRUMENT_TYPE: LC-ESI-ITFT
AC$MASS_SPECTROMETRY: MS_TYPE MS2
AC$MASS_SPECTROMETRY: ION_MODE POSITIVE
AC$MASS_SPECTROMETRY: COLLISION_ENERGY 35eV
AC$MASS_SPECTROMETRY: IONIZATION ESI
AC$CHROMATOGRAPHY: COLUMN_NAME TOSOH TSKgel ODS-100V  5um Part no. 21456
AC$CHROMATOGRAPHY: FLOW_GRADIENT 0min:3%, 45min:97%, 50min:97%, 50.1:3%, 57min:3% (acetonitrile)
AC$CHROMATOGRAPHY: FLOW_RATE 0.5 ml/min
AC$CHROMATOGRAPHY: RETENTION_TIME 22.698190 min
AC$CHROMATOGRAPHY: SOLVENT A 0.1%formate-water
AC$CHROMATOGRAPHY: SOLVENT B 0.1%formate-acetonitrile
MS$FOCUSED_ION: BASE_PEAK 91.986679
MS$FOCUSED_ION: PRECURSOR_M/Z 120.04
PK$SPLASH: splash10-0006-9000000000-0b31adf3d32eac74f278
PK$NUM_PEAK: 4
PK$PEAK: m/z int. rel.int.
  88.149788 26.822245 3
  91.986679 8145.609863 999
  99.535202 70.947075 9
  120.130997 404.581177 50
//
