ACCESSION: MSBNK-NAIST-KNA00188
RECORD_TITLE: S-Adenosyl-L-methionine; LC-ESI-ITFT; MS2; m/z:399.14; POS
DATE: 2016.01.19 (Created 2009.11.17, modified 2011.08.03)
AUTHORS: Takahashi H, Kanaya S, Ogasawara N, Graduate School of Information Science, NAIST
LICENSE: CC BY-SA
CH$NAME: S-Adenosyl-L-methionine
CH$NAME: S-Adenosylmethionine
CH$NAME: Acylcarnitine
CH$COMPOUND_CLASS: Natural Product
CH$FORMULA: C15H22N6O5S
CH$EXACT_MASS: 398.13724
CH$SMILES: [O-1]C(=O)C(N)CC[S+1](C)CC(O1)C(O)C(O)C1n(c3)c(n2)c(n3)c(N)nc2
CH$IUPAC: InChI=1S/C15H22N6O5S/c1-27(3-2-7(16)15(24)25)4-8-10(22)11(23)14(26-8)21-6-20-9-12(17)18-5-19-13(9)21/h5-8,10-11,14,22-23H,2-4,16H2,1H3,(H2-,17,18,19,24,25)/t7-,8+,10+,11+,14+,27?/m0/s1
CH$LINK: CAS 29908-03-0
CH$LINK: CHEBI CHEBI:15414
CH$LINK: KEGG C00019
CH$LINK: KNAPSACK C00007347
CH$LINK: NIKKAJI J23.293I
CH$LINK: PUBCHEM CID:34755
CH$LINK: INCHIKEY MEFKEPWMEQBLKI-AIRLBKTGSA-N
CH$LINK: COMPTOX DTXSID6032019
AC$INSTRUMENT: LTQ Orbitrap XL, Thermo Scientfic
AC$INSTRUMENT_TYPE: LC-ESI-ITFT
AC$MASS_SPECTROMETRY: MS_TYPE MS2
AC$MASS_SPECTROMETRY: ION_MODE POSITIVE
AC$MASS_SPECTROMETRY: COLLISION_ENERGY 35eV
AC$MASS_SPECTROMETRY: IONIZATION ESI
AC$CHROMATOGRAPHY: COLUMN_NAME TOSOH TSKgel ODS-100V  5um Part no. 21456
AC$CHROMATOGRAPHY: FLOW_GRADIENT 0min:3%, 45min:97%, 50min:97%, 50.1:3%, 57min:3% (acetonitrile)
AC$CHROMATOGRAPHY: FLOW_RATE 0.5 ml/min
AC$CHROMATOGRAPHY: RETENTION_TIME 4.145622 min
AC$CHROMATOGRAPHY: SOLVENT A 0.1%formate-water
AC$CHROMATOGRAPHY: SOLVENT B 0.1%formate-acetonitrile
MS$FOCUSED_ION: BASE_PEAK 250.091125
MS$FOCUSED_ION: PRECURSOR_M/Z 399.14
PK$SPLASH: splash10-0udi-0090000000-5860746a0a2ffb474e48
PK$NUM_PEAK: 7
PK$PEAK: m/z int. rel.int.
  136.070129 6829.567871 38
  145.092285 265.837036 1
  163.143524 1065.791382 6
  250.091125 178346.765625 999
  250.691711 929.194519 5
  264.164948 6659.309570 37
  298.144165 80850.718750 453
//
