ACCESSION: MSBNK-NAIST-KNA00710
RECORD_TITLE: Inosine; LC-ESI-ITFT; MS2; m/z:267.07; NEG
DATE: 2016.01.19 (Created 2009.11.19, modified 2011.08.03)
AUTHORS: Takahashi H, Kanaya S, Ogasawara N, Graduate School of Information Science, NAIST
LICENSE: CC BY-SA
CH$NAME: Inosine
CH$COMPOUND_CLASS: Natural Product
CH$FORMULA: C10H12N4O5
CH$EXACT_MASS: 268.08077
CH$SMILES: OC[C@@H](O1)[C@@H](O)[C@@H](O)[C@@H]1n(c3)c(N=2)c(n3)C(=O)NC2
CH$IUPAC: InChI=1S/C10H12N4O5/c15-1-4-6(16)7(17)10(19-4)14-3-13-5-8(14)11-2-12-9(5)18/h2-4,6-7,10,15-17H,1H2,(H,11,12,18)/t4-,6-,7-,10-/m1/s1
CH$LINK: CAS 58-63-9
CH$LINK: CHEBI CHEBI:17596
CH$LINK: KEGG C00294
CH$LINK: KNAPSACK C00019692
CH$LINK: NIKKAJI J1.388I
CH$LINK: PUBCHEM CID:135398641
CH$LINK: INCHIKEY UGQMRVRMYYASKQ-KQYNXXCUSA-N
CH$LINK: COMPTOX DTXSID2045993
AC$INSTRUMENT: LTQ Orbitrap XL, Thermo Scientfic
AC$INSTRUMENT_TYPE: LC-ESI-ITFT
AC$MASS_SPECTROMETRY: MS_TYPE MS2
AC$MASS_SPECTROMETRY: ION_MODE NEGATIVE
AC$MASS_SPECTROMETRY: COLLISION_ENERGY 35eV
AC$MASS_SPECTROMETRY: IONIZATION ESI
AC$CHROMATOGRAPHY: COLUMN_NAME TOSOH TSKgel ODS-100V  5um Part no. 21456
AC$CHROMATOGRAPHY: FLOW_GRADIENT 0min:3%, 45min:97%, 50min:97%, 50.1:3%, 57min:3% (acetonitrile)
AC$CHROMATOGRAPHY: FLOW_RATE 0.5 ml/min
AC$CHROMATOGRAPHY: RETENTION_TIME 5.535163 min
AC$CHROMATOGRAPHY: SOLVENT A 0.1%formate-water
AC$CHROMATOGRAPHY: SOLVENT B 0.1%formate-acetonitrile
MS$FOCUSED_ION: BASE_PEAK 134.978729
MS$FOCUSED_ION: PRECURSOR_M/Z 267.07
PK$SPLASH: splash10-001i-0900000000-632ba91cd477e5aaf9e5
PK$NUM_PEAK: 6
PK$PEAK: m/z int. rel.int.
  92.056808 252.944717 6
  108.079834 188.311646 4
  134.978729 42572.335938 999
  149.072632 28.932528 1
  176.953278 202.877228 5
  249.108261 28.615643 1
//
