ACCESSION: MSBNK-NAIST-KNA00641
RECORD_TITLE: Guanine; LC-ESI-ITFT; MS2; m/z:150.04; NEG
DATE: 2016.01.19 (Created 2009.11.19, modified 2011.08.03)
AUTHORS: Takahashi H, Kanaya S, Ogasawara N, Graduate School of Information Science, NAIST
LICENSE: CC BY-SA
CH$NAME: Guanine
CH$NAME: 2-Amino-6-hydroxypurine
CH$COMPOUND_CLASS: Natural Product
CH$FORMULA: C5H5N5O
CH$EXACT_MASS: 151.04941
CH$SMILES: C1=NC2=C(N1)C(=O)N=C(N2)N
CH$IUPAC: InChI=1S/C5H5N5O/c6-5-9-3-2(4(11)10-5)7-1-8-3/h1H,(H4,6,7,8,9,10,11)
CH$LINK: CAS 73-40-5
CH$LINK: CHEBI CHEBI:16235
CH$LINK: KEGG C00242
CH$LINK: KNAPSACK C00001501
CH$LINK: NIKKAJI J9.344K
CH$LINK: PUBCHEM CID:135398634
CH$LINK: INCHIKEY UYTPUPDQBNUYGX-UHFFFAOYSA-N
CH$LINK: COMPTOX DTXSID9052476
AC$INSTRUMENT: LTQ Orbitrap XL, Thermo Scientfic
AC$INSTRUMENT_TYPE: LC-ESI-ITFT
AC$MASS_SPECTROMETRY: MS_TYPE MS2
AC$MASS_SPECTROMETRY: ION_MODE NEGATIVE
AC$MASS_SPECTROMETRY: COLLISION_ENERGY 35eV
AC$MASS_SPECTROMETRY: IONIZATION ESI
AC$CHROMATOGRAPHY: COLUMN_NAME TOSOH TSKgel ODS-100V  5um Part no. 21456
AC$CHROMATOGRAPHY: FLOW_GRADIENT 0min:3%, 45min:97%, 50min:97%, 50.1:3%, 57min:3% (acetonitrile)
AC$CHROMATOGRAPHY: FLOW_RATE 0.5 ml/min
AC$CHROMATOGRAPHY: RETENTION_TIME 5.465665 min
AC$CHROMATOGRAPHY: SOLVENT A 0.1%formate-water
AC$CHROMATOGRAPHY: SOLVENT B 0.1%formate-acetonitrile
MS$FOCUSED_ION: BASE_PEAK 132.952469
MS$FOCUSED_ION: PRECURSOR_M/Z 150.04
PK$SPLASH: splash10-001i-0900000000-45d9db80ce4657ef1773
PK$NUM_PEAK: 6
PK$PEAK: m/z int. rel.int.
  81.954681 17.865364 2
  107.043259 464.055756 46
  108.066040 254.591965 25
  126.055801 11.480207 1
  132.952469 10017.594727 999
  149.997726 5.302651 1
//
