ACCESSION: MSBNK-NAIST-KNA00062
RECORD_TITLE: Spermidine; LC-ESI-ITFT; MS2; m/z:146.17; POS
DATE: 2016.01.19 (Created 2009.11.17, modified 2011.08.03)
AUTHORS: Takahashi H, Kanaya S, Ogasawara N, Graduate School of Information Science, NAIST
LICENSE: CC BY-SA
CH$NAME: Spermidine
CH$NAME: N-(3-Aminopropyl)-1,4-butane-diamine
CH$COMPOUND_CLASS: Natural Product
CH$FORMULA: C7H19N3
CH$EXACT_MASS: 145.15790
CH$SMILES: NCCCCNCCCN
CH$IUPAC: InChI=1S/C7H19N3/c8-4-1-2-6-10-7-3-5-9/h10H,1-9H2
CH$LINK: CAS 124-20-9
CH$LINK: CHEBI CHEBI:16610
CH$LINK: KEGG C00315
CH$LINK: KNAPSACK C00001431
CH$LINK: NIKKAJI J10.054D
CH$LINK: PUBCHEM CID:1102
CH$LINK: INCHIKEY ATHGHQPFGPMSJY-UHFFFAOYSA-N
CH$LINK: COMPTOX DTXSID4036645
AC$INSTRUMENT: LTQ Orbitrap XL, Thermo Scientfic
AC$INSTRUMENT_TYPE: LC-ESI-ITFT
AC$MASS_SPECTROMETRY: MS_TYPE MS2
AC$MASS_SPECTROMETRY: ION_MODE POSITIVE
AC$MASS_SPECTROMETRY: COLLISION_ENERGY 35eV
AC$MASS_SPECTROMETRY: IONIZATION ESI
AC$CHROMATOGRAPHY: COLUMN_NAME TOSOH TSKgel ODS-100V  5um Part no. 21456
AC$CHROMATOGRAPHY: FLOW_GRADIENT 0min:3%, 45min:97%, 50min:97%, 50.1:3%, 57min:3% (acetonitrile)
AC$CHROMATOGRAPHY: FLOW_RATE 0.5 ml/min
AC$CHROMATOGRAPHY: RETENTION_TIME 3.376743 min
AC$CHROMATOGRAPHY: SOLVENT A 0.1%formate-water
AC$CHROMATOGRAPHY: SOLVENT B 0.1%formate-acetonitrile
MS$FOCUSED_ION: BASE_PEAK 129.067474
MS$FOCUSED_ION: PRECURSOR_M/Z 146.17
PK$SPLASH: splash10-00b9-7900000000-062e21e4525351cbd0d4
PK$NUM_PEAK: 7
PK$PEAK: m/z int. rel.int.
  58.052601 3974.495361 51
  72.003418 50878.660156 654
  74.944992 21581.705078 277
  84.040985 96.887680 1
  112.054367 17130.468750 220
  129.067474 77703.718750 999
  129.844879 55.306915 1
//
