ACCESSION: MSBNK-NAIST-KNA00275
RECORD_TITLE: Taurine; LC-ESI-ITFT; MS2; m/z:251.04; POS
DATE: 2016.01.19 (Created 2009.11.17, modified 2011.08.03)
AUTHORS: Takahashi H, Kanaya S, Ogasawara N, Graduate School of Information Science, NAIST
LICENSE: CC BY-SA
CH$NAME: Taurine
CH$NAME: 2-Aminoethanesulfonic acid
CH$NAME: Aminoethylsulfonic acid
CH$COMPOUND_CLASS: Natural Product
CH$FORMULA: C2H7NO3S
CH$EXACT_MASS: 125.01466
CH$SMILES: NCCS(O)(=O)=O
CH$IUPAC: InChI=1S/C2H7NO3S/c3-1-2-7(4,5)6/h1-3H2,(H,4,5,6)
CH$LINK: CAS 107-35-7
CH$LINK: CHEBI CHEBI:15891
CH$LINK: KEGG C00245
CH$LINK: NIKKAJI J5.056C
CH$LINK: PUBCHEM CID:1123
CH$LINK: INCHIKEY XOAAWQZATWQOTB-UHFFFAOYSA-N
CH$LINK: COMPTOX DTXSID3021304
AC$INSTRUMENT: LTQ Orbitrap XL, Thermo Scientfic
AC$INSTRUMENT_TYPE: LC-ESI-ITFT
AC$MASS_SPECTROMETRY: MS_TYPE MS2
AC$MASS_SPECTROMETRY: ION_MODE POSITIVE
AC$MASS_SPECTROMETRY: COLLISION_ENERGY 35eV
AC$MASS_SPECTROMETRY: IONIZATION ESI
AC$CHROMATOGRAPHY: COLUMN_NAME TOSOH TSKgel ODS-100V  5um Part no. 21456
AC$CHROMATOGRAPHY: FLOW_GRADIENT 0min:3%, 45min:97%, 50min:97%, 50.1:3%, 57min:3% (acetonitrile)
AC$CHROMATOGRAPHY: FLOW_RATE 0.5 ml/min
AC$CHROMATOGRAPHY: RETENTION_TIME 4.770100 min
AC$CHROMATOGRAPHY: SOLVENT A 0.1%formate-water
AC$CHROMATOGRAPHY: SOLVENT B 0.1%formate-acetonitrile
MS$FOCUSED_ION: BASE_PEAK 125.917511
MS$FOCUSED_ION: PRECURSOR_M/Z 251.04
PK$SPLASH: splash10-004i-0900000000-10d63d9e046e843a5fca
PK$NUM_PEAK: 4
PK$PEAK: m/z int. rel.int.
  108.023148 297.563110 11
  125.917511 28244.228516 999
  160.054916 50.936306 2
  233.139877 16.618326 1
//
