ACCESSION: MSBNK-NAIST-KNA00194
RECORD_TITLE: 3',5'-Cyclic AMP; LC-ESI-ITFT; MS2; m/z:284.10; POS
DATE: 2016.01.19 (Created 2009.11.17, modified 2011.08.03)
AUTHORS: Takahashi H, Kanaya S, Ogasawara N, Graduate School of Information Science, NAIST
LICENSE: CC BY-SA
CH$NAME: 3',5'-Cyclic AMP
CH$NAME: Cyclic adenylic acid
CH$NAME: Cyclic AMP
CH$NAME: Adenosine 3',5'-phosphate
CH$NAME: cAMP
CH$COMPOUND_CLASS: Natural Product
CH$FORMULA: C10H12N5O6P
CH$EXACT_MASS: 329.05252
CH$SMILES: Nc(n4)c(n3)c(nc4)n(c3)[C@H](O1)[C@H](O)[C@H](O2)[C@@H](COP(O)(=O)2)1
CH$IUPAC: InChI=1S/C10H12N5O6P/c11-8-5-9(13-2-12-8)15(3-14-5)10-6(16)7-4(20-10)1-19-22(17,18)21-7/h2-4,6-7,10,16H,1H2,(H,17,18)(H2,11,12,13)/t4-,6-,7-,10-/m1/s1
CH$LINK: CAS 60-92-4
CH$LINK: CHEBI CHEBI:17489
CH$LINK: KEGG C00575
CH$LINK: KNAPSACK C00001497
CH$LINK: NIKKAJI J4.811I
CH$LINK: PUBCHEM CID:6076
CH$LINK: INCHIKEY IVOMOUWHDPKRLL-KQYNXXCUSA-N
CH$LINK: COMPTOX DTXSID8040436
AC$INSTRUMENT: LTQ Orbitrap XL, Thermo Scientfic
AC$INSTRUMENT_TYPE: LC-ESI-ITFT
AC$MASS_SPECTROMETRY: MS_TYPE MS2
AC$MASS_SPECTROMETRY: ION_MODE POSITIVE
AC$MASS_SPECTROMETRY: COLLISION_ENERGY 35eV
AC$MASS_SPECTROMETRY: IONIZATION ESI
AC$CHROMATOGRAPHY: COLUMN_NAME TOSOH TSKgel ODS-100V  5um Part no. 21456
AC$CHROMATOGRAPHY: FLOW_GRADIENT 0min:3%, 45min:97%, 50min:97%, 50.1:3%, 57min:3% (acetonitrile)
AC$CHROMATOGRAPHY: FLOW_RATE 0.5 ml/min
AC$CHROMATOGRAPHY: RETENTION_TIME 9.760177 min
AC$CHROMATOGRAPHY: SOLVENT A 0.1%formate-water
AC$CHROMATOGRAPHY: SOLVENT B 0.1%formate-acetonitrile
MS$FOCUSED_ION: BASE_PEAK 152.028412
MS$FOCUSED_ION: PRECURSOR_M/Z 284.10
PK$SPLASH: splash10-0udi-0900000000-f10e1d70e30865424af6
PK$NUM_PEAK: 6
PK$PEAK: m/z int. rel.int.
  134.078430 185.934021 3
  135.162689 143.411026 2
  152.028412 62914.292969 999
  152.868713 33.994759 1
  211.308960 48.741470 1
  212.187042 53.803967 1
//
