ACCESSION: MSBNK-NAIST-KNA00295
RECORD_TITLE: Cytidine; LC-ESI-ITFT; MS2; m/z:487.18; POS
DATE: 2016.01.19 (Created 2009.11.17, modified 2011.08.03)
AUTHORS: Takahashi H, Kanaya S, Ogasawara N, Graduate School of Information Science, NAIST
LICENSE: CC BY-SA
CH$NAME: Cytidine
CH$COMPOUND_CLASS: Natural Product
CH$FORMULA: C9H13N3O5
CH$EXACT_MASS: 243.08552
CH$SMILES: OC[C@@H](O1)[C@@H](O)[C@@H](O)[C@@H]1N(C=2)C(=O)N=C(N)C2
CH$IUPAC: InChI=1S/C9H13N3O5/c10-5-1-2-12(9(16)11-5)8-7(15)6(14)4(3-13)17-8/h1-2,4,6-8,13-15H,3H2,(H2,10,11,16)/t4-,6-,7-,8-/m1/s1
CH$LINK: CAS 65-46-3
CH$LINK: CHEBI CHEBI:17562
CH$LINK: KEGG C00475
CH$LINK: NIKKAJI J4.837B
CH$LINK: PUBCHEM CID:6175
CH$LINK: INCHIKEY UHDGCWIWMRVCDJ-XVFCMESISA-N
CH$LINK: COMPTOX DTXSID60891552
AC$INSTRUMENT: LTQ Orbitrap XL, Thermo Scientfic
AC$INSTRUMENT_TYPE: LC-ESI-ITFT
AC$MASS_SPECTROMETRY: MS_TYPE MS2
AC$MASS_SPECTROMETRY: ION_MODE POSITIVE
AC$MASS_SPECTROMETRY: COLLISION_ENERGY 35eV
AC$MASS_SPECTROMETRY: IONIZATION ESI
AC$CHROMATOGRAPHY: COLUMN_NAME TOSOH TSKgel ODS-100V  5um Part no. 21456
AC$CHROMATOGRAPHY: FLOW_GRADIENT 0min:3%, 45min:97%, 50min:97%, 50.1:3%, 57min:3% (acetonitrile)
AC$CHROMATOGRAPHY: FLOW_RATE 0.5 ml/min
AC$CHROMATOGRAPHY: RETENTION_TIME 5.472207 min
AC$CHROMATOGRAPHY: SOLVENT A 0.1%formate-water
AC$CHROMATOGRAPHY: SOLVENT B 0.1%formate-acetonitrile
MS$FOCUSED_ION: BASE_PEAK 244.040680
MS$FOCUSED_ION: PRECURSOR_M/Z 487.18
PK$SPLASH: splash10-0006-0090000000-f0e6ac0bacdbef1206b0
PK$NUM_PEAK: 4
PK$PEAK: m/z int. rel.int.
  244.040680 135408.156250 999
  244.675552 121.399170 1
  355.009857 246.586441 2
  376.302124 73.885887 1
//
