ACCESSION: MSBNK-NAIST-KNA00685
RECORD_TITLE: DOPA; LC-ESI-ITFT; MS2; m/z:196.06; NEG
DATE: 2016.01.19 (Created 2009.11.19, modified 2011.08.03)
AUTHORS: Takahashi H, Kanaya S, Ogasawara N, Graduate School of Information Science, NAIST
LICENSE: CC BY-SA
CH$NAME: 3,4-Dihydroxy-L-phenylalanine
CH$NAME: L-Dopa
CH$NAME: 3-Hydroxy-L-tyrosine
CH$NAME: L-beta-(3,4-Dihydroxyphenyl)alanine
CH$NAME: Levodopa
CH$NAME: Dihydroxy-L-phenylalanine
CH$NAME: DOPA
CH$COMPOUND_CLASS: Natural Product
CH$FORMULA: C9H11NO4
CH$EXACT_MASS: 197.06881
CH$SMILES: OC(=O)C([H])(N)Cc(c1)cc(O)c(O)c1
CH$IUPAC: InChI=1S/C9H11NO4/c10-6(9(13)14)3-5-1-2-7(11)8(12)4-5/h1-2,4,6,11-12H,3,10H2,(H,13,14)/t6-/m0/s1
CH$LINK: CAS 59-92-7
CH$LINK: CHEBI CHEBI:15765
CH$LINK: KEGG C00355
CH$LINK: KNAPSACK C00001357
CH$LINK: NIKKAJI J9.225H
CH$LINK: PUBCHEM CID:6047
CH$LINK: INCHIKEY WTDRDQBEARUVNC-LURJTMIESA-N
CH$LINK: COMPTOX DTXSID9023209
AC$INSTRUMENT: LTQ Orbitrap XL, Thermo Scientfic
AC$INSTRUMENT_TYPE: LC-ESI-ITFT
AC$MASS_SPECTROMETRY: MS_TYPE MS2
AC$MASS_SPECTROMETRY: ION_MODE NEGATIVE
AC$MASS_SPECTROMETRY: COLLISION_ENERGY 35eV
AC$MASS_SPECTROMETRY: IONIZATION ESI
AC$CHROMATOGRAPHY: COLUMN_NAME TOSOH TSKgel ODS-100V  5um Part no. 21456
AC$CHROMATOGRAPHY: FLOW_GRADIENT 0min:3%, 45min:97%, 50min:97%, 50.1:3%, 57min:3% (acetonitrile)
AC$CHROMATOGRAPHY: FLOW_RATE 0.5 ml/min
AC$CHROMATOGRAPHY: RETENTION_TIME 5.480760 min
AC$CHROMATOGRAPHY: SOLVENT A 0.1%formate-water
AC$CHROMATOGRAPHY: SOLVENT B 0.1%formate-acetonitrile
MS$FOCUSED_ION: BASE_PEAK 179.026535
MS$FOCUSED_ION: PRECURSOR_M/Z 196.06
PK$SPLASH: splash10-004i-0900000000-0b0d4b6dcb7f1fa24e1a
PK$NUM_PEAK: 12
PK$PEAK: m/z int. rel.int.
  71.999779 480.174683 28
  81.227425 14.060502 1
  107.167511 38.989216 2
  109.055878 552.464844 32
  122.063934 211.474609 12
  123.077438 243.876770 14
  124.125702 138.218597 8
  134.143875 1427.217529 83
  135.163513 7573.392090 442
  150.190903 57.515064 3
  152.018509 7176.735840 419
  179.026535 17108.710938 999
//
