ACCESSION: MSBNK-NAIST-KNA00618
RECORD_TITLE: NADH; LC-ESI-ITFT; MS2; m/z:664.12; NEG
DATE: 2016.01.19 (Created 2009.11.19, modified 2011.08.03)
AUTHORS: Takahashi H, Kanaya S, Ogasawara N, Graduate School of Information Science, NAIST
LICENSE: CC BY-SA
CH$NAME: NADH
CH$NAME: DPNH
CH$COMPOUND_CLASS: Natural Product
CH$FORMULA: C21H29N7O14P2
CH$EXACT_MASS: 665.12477
CH$SMILES: NC(=O)C(C5)=CN(C=C5)[C@H](O1)[C@H](O)[C@H](O)[C@@H](COP(O)(=O)OP(O)(=O)OC[C@@H](O2)[C@@H](O)[C@@H](O)[C@@H]2n(c4)c(n3)c(n4)c(N)nc3)1
CH$IUPAC: InChI=1S/C21H29N7O14P2/c22-17-12-19(25-7-24-17)28(8-26-12)21-16(32)14(30)11(41-21)6-39-44(36,37)42-43(34,35)38-5-10-13(29)15(31)20(40-10)27-3-1-2-9(4-27)18(23)33/h1,3-4,7-8,10-11,13-16,20-21,29-32H,2,5-6H2,(H2,23,33)(H,34,35)(H,36,37)(H2,22,24,25)/t10-,11-,13-,14-,15-,16-,20-,21-/m1/s1
CH$LINK: CAS 58-68-4
CH$LINK: CHEBI CHEBI:16908
CH$LINK: KEGG C00004
CH$LINK: KNAPSACK C00019343
CH$LINK: NIKKAJI J213.546I
CH$LINK: PUBCHEM CID:439153
CH$LINK: INCHIKEY BOPGDPNILDQYTO-NNYOXOHSSA-N
CH$LINK: COMPTOX DTXSID30889320
AC$INSTRUMENT: LTQ Orbitrap XL, Thermo Scientfic
AC$INSTRUMENT_TYPE: LC-ESI-ITFT
AC$MASS_SPECTROMETRY: MS_TYPE MS2
AC$MASS_SPECTROMETRY: ION_MODE NEGATIVE
AC$MASS_SPECTROMETRY: COLLISION_ENERGY 35eV
AC$MASS_SPECTROMETRY: IONIZATION ESI
AC$CHROMATOGRAPHY: COLUMN_NAME TOSOH TSKgel ODS-100V  5um Part no. 21456
AC$CHROMATOGRAPHY: FLOW_GRADIENT 0min:3%, 45min:97%, 50min:97%, 50.1:3%, 57min:3% (acetonitrile)
AC$CHROMATOGRAPHY: FLOW_RATE 0.5 ml/min
AC$CHROMATOGRAPHY: RETENTION_TIME 9.565262 min
AC$CHROMATOGRAPHY: SOLVENT A 0.1%formate-water
AC$CHROMATOGRAPHY: SOLVENT B 0.1%formate-acetonitrile
MS$FOCUSED_ION: BASE_PEAK 408.031616
MS$FOCUSED_ION: PRECURSOR_M/Z 664.12
PK$SPLASH: splash10-052b-0019600000-d18d795ec788eb32c3ee
PK$NUM_PEAK: 29
PK$PEAK: m/z int. rel.int.
  210.981262 206.794708 6
  214.127380 65.238670 2
  255.105911 58.562946 2
  272.970215 5793.839844 175
  281.152466 20.241344 1
  299.216309 732.411438 22
  317.144318 401.639404 12
  328.108887 4172.609863 126
  335.203064 1325.657715 40
  346.123657 10184.909180 308
  397.126770 32943.429688 998
  400.131042 189.275253 6
  403.155457 40.107018 1
  408.031616 32989.968750 999
  415.085693 186.266739 6
  424.346313 18.541500 1
  426.001404 745.206360 23
  431.161926 87.668716 3
  442.173889 56.964359 2
  452.346313 19.924664 1
  468.229736 81.878540 2
  480.290344 24.094187 1
  497.998291 294.394714 9
  529.199768 455.131409 14
  539.924805 21.330515 1
  566.199402 429.608704 13
  584.184326 124.997787 4
  621.196228 18.523497 1
  646.294189 28.791006 1
//
