ACCESSION: MSBNK-NAIST-KNA00071
RECORD_TITLE: L-(+)-Lysine; LC-ESI-ITFT; MS2; m/z:147.11; POS
DATE: 2016.01.19 (Created 2009.11.17, modified 2011.08.03)
AUTHORS: Takahashi H, Kanaya S, Ogasawara N, Graduate School of Information Science, NAIST
LICENSE: CC BY-SA
CH$NAME: L-Lysine
CH$NAME: Lysine acid
CH$NAME: 2,6-Diaminohexanoic acid
CH$NAME: L-(+)-Lysine
CH$COMPOUND_CLASS: Natural Product
CH$FORMULA: C6H14N2O2
CH$EXACT_MASS: 146.10553
CH$SMILES: NCCCC[C@H](N)C(O)=O
CH$IUPAC: InChI=1S/C6H14N2O2/c7-4-2-1-3-5(8)6(9)10/h5H,1-4,7-8H2,(H,9,10)/t5-/m0/s1
CH$LINK: CAS 56-87-1
CH$LINK: CHEBI CHEBI:18019
CH$LINK: KEGG C00047
CH$LINK: KNAPSACK C00001378
CH$LINK: NIKKAJI J9.176F
CH$LINK: PUBCHEM CID:5962
CH$LINK: INCHIKEY KDXKERNSBIXSRK-YFKPBYRVSA-N
CH$LINK: COMPTOX DTXSID6023232
AC$INSTRUMENT: LTQ Orbitrap XL, Thermo Scientfic
AC$INSTRUMENT_TYPE: LC-ESI-ITFT
AC$MASS_SPECTROMETRY: MS_TYPE MS2
AC$MASS_SPECTROMETRY: ION_MODE POSITIVE
AC$MASS_SPECTROMETRY: COLLISION_ENERGY 35eV
AC$MASS_SPECTROMETRY: IONIZATION ESI
AC$CHROMATOGRAPHY: COLUMN_NAME TOSOH TSKgel ODS-100V  5um Part no. 21456
AC$CHROMATOGRAPHY: FLOW_GRADIENT 0min:3%, 45min:97%, 50min:97%, 50.1:3%, 57min:3% (acetonitrile)
AC$CHROMATOGRAPHY: FLOW_RATE 0.5 ml/min
AC$CHROMATOGRAPHY: RETENTION_TIME 3.917792 min
AC$CHROMATOGRAPHY: SOLVENT A 0.1%formate-water
AC$CHROMATOGRAPHY: SOLVENT B 0.1%formate-acetonitrile
MS$FOCUSED_ION: BASE_PEAK 130.001450
MS$FOCUSED_ION: PRECURSOR_M/Z 147.11
PK$SPLASH: splash10-001i-0900000000-5bb15839f86f4fca0d0b
PK$NUM_PEAK: 4
PK$PEAK: m/z int. rel.int.
  84.017349 63137.828125 41
  101.150543 3473.184570 2
  129.190994 132168.687500 87
  130.001450 1523819.875000 999
//
