ACCESSION: MSBNK-NAIST-KNA00084
RECORD_TITLE: Tyramine; LC-ESI-ITFT; MS2; m/z:150.06; POS
DATE: 2016.01.19 (Created 2009.11.17, modified 2011.08.03)
AUTHORS: Takahashi H, Kanaya S, Ogasawara N, Graduate School of Information Science, NAIST
LICENSE: CC BY-SA
CH$NAME: Tyramine
CH$NAME: 2-(p-Hydroxyphenyl)ethylamine
CH$COMPOUND_CLASS: Natural Product
CH$FORMULA: C8H11NO
CH$EXACT_MASS: 137.08406
CH$SMILES: NCCc(c1)ccc(O)c1
CH$IUPAC: InChI=1S/C8H11NO/c9-6-5-7-1-3-8(10)4-2-7/h1-4,10H,5-6,9H2
CH$LINK: CAS 51-67-2
CH$LINK: CHEBI CHEBI:15760
CH$LINK: KEGG C00483
CH$LINK: KNAPSACK C00001435
CH$LINK: NIKKAJI J4.123H
CH$LINK: PUBCHEM CID:5610
CH$LINK: INCHIKEY DZGWFCGJZKJUFP-UHFFFAOYSA-N
CH$LINK: COMPTOX DTXSID2043874
AC$INSTRUMENT: LTQ Orbitrap XL, Thermo Scientfic
AC$INSTRUMENT_TYPE: LC-ESI-ITFT
AC$MASS_SPECTROMETRY: MS_TYPE MS2
AC$MASS_SPECTROMETRY: ION_MODE POSITIVE
AC$MASS_SPECTROMETRY: COLLISION_ENERGY 35eV
AC$MASS_SPECTROMETRY: IONIZATION ESI
AC$CHROMATOGRAPHY: COLUMN_NAME TOSOH TSKgel ODS-100V  5um Part no. 21456
AC$CHROMATOGRAPHY: FLOW_GRADIENT 0min:3%, 45min:97%, 50min:97%, 50.1:3%, 57min:3% (acetonitrile)
AC$CHROMATOGRAPHY: FLOW_RATE 0.5 ml/min
AC$CHROMATOGRAPHY: RETENTION_TIME 5.476693 min
AC$CHROMATOGRAPHY: SOLVENT A 0.1%formate-water
AC$CHROMATOGRAPHY: SOLVENT B 0.1%formate-acetonitrile
MS$FOCUSED_ION: BASE_PEAK 132.951889
MS$FOCUSED_ION: PRECURSOR_M/Z 150.06
PK$SPLASH: splash10-001i-0900000000-54239e66d89de3096ca8
PK$NUM_PEAK: 5
PK$PEAK: m/z int. rel.int.
  55.968235 6976.842285 18
  74.088982 322.043762 1
  102.133102 6950.944824 18
  103.974808 156502.218750 410
  132.951889 381202.781250 999
//
