ACCESSION: MSBNK-NAIST-KNA00341
RECORD_TITLE: L-Homoserine; LC-ESI-ITFT; MS2; m/z:120.07; POS
DATE: 2016.01.19 (Created 2009.11.18, modified 2011.08.03)
AUTHORS: Takahashi H, Kanaya S, Ogasawara N, Graduate School of Information Science, NAIST
LICENSE: CC BY-SA
CH$NAME: L-Homoserine
CH$NAME: 2-Amino-4-hydroxybutyric acid
CH$COMPOUND_CLASS: Natural Product
CH$FORMULA: C4H9NO3
CH$EXACT_MASS: 119.05824
CH$SMILES: OCC[C@H](N)C(O)=O
CH$IUPAC: InChI=1S/C4H9NO3/c5-3(1-2-6)4(7)8/h3,6H,1-2,5H2,(H,7,8)/t3-/m0/s1
CH$LINK: CAS 672-15-1
CH$LINK: CHEBI CHEBI:15699
CH$LINK: KEGG C00263
CH$LINK: KNAPSACK C00001366
CH$LINK: NIKKAJI J9.199E
CH$LINK: PUBCHEM CID:12647
CH$LINK: INCHIKEY UKAUYVFTDYCKQA-VKHMYHEASA-N
CH$LINK: COMPTOX DTXSID5075159
AC$INSTRUMENT: LTQ Orbitrap XL, Thermo Scientfic
AC$INSTRUMENT_TYPE: LC-ESI-ITFT
AC$MASS_SPECTROMETRY: MS_TYPE MS2
AC$MASS_SPECTROMETRY: ION_MODE POSITIVE
AC$MASS_SPECTROMETRY: COLLISION_ENERGY 35eV
AC$MASS_SPECTROMETRY: IONIZATION ESI
AC$CHROMATOGRAPHY: COLUMN_NAME TOSOH TSKgel ODS-100V  5um Part no. 21456
AC$CHROMATOGRAPHY: FLOW_GRADIENT 0min:3%, 45min:97%, 50min:97%, 50.1:3%, 57min:3% (acetonitrile)
AC$CHROMATOGRAPHY: FLOW_RATE 0.5 ml/min
AC$CHROMATOGRAPHY: RETENTION_TIME 4.668008 min
AC$CHROMATOGRAPHY: SOLVENT A 0.1%formate-water
AC$CHROMATOGRAPHY: SOLVENT B 0.1%formate-acetonitrile
MS$FOCUSED_ION: BASE_PEAK 73.983086
MS$FOCUSED_ION: PRECURSOR_M/Z 120.07
PK$SPLASH: splash10-00di-9400000000-30b57c9aabcc05806ce4
PK$NUM_PEAK: 4
PK$PEAK: m/z int. rel.int.
  56.063362 2272.251221 6
  73.983086 382401.375000 999
  84.045105 1466.182373 4
  101.962036 172935.562500 452
//
