ACCESSION: MSBNK-NAIST-KNA00807
RECORD_TITLE: L-Citrulline; LC-ESI-ITFT; MS2; m/z:349.18; NEG
DATE: 2016.01.19 (Created 2009.11.19, modified 2011.08.03)
AUTHORS: Takahashi H, Kanaya S, Ogasawara N, Graduate School of Information Science, NAIST
LICENSE: CC BY-SA
CH$NAME: L-Citrulline
CH$NAME: 2-Amino-5-ureidovaleric acid
CH$NAME: Citrulline
CH$COMPOUND_CLASS: Natural Product
CH$FORMULA: C6H13N3O3
CH$EXACT_MASS: 175.09569
CH$SMILES: NC(=O)NCCC[C@H](N)C(O)=O
CH$IUPAC: InChI=1S/C6H13N3O3/c7-4(5(10)11)2-1-3-9-6(8)12/h4H,1-3,7H2,(H,10,11)(H3,8,9,12)/t4-/m0/s1
CH$LINK: CAS 372-75-8
CH$LINK: CHEBI CHEBI:16349
CH$LINK: KEGG C00327
CH$LINK: KNAPSACK C00001348
CH$LINK: NIKKAJI J5.711H
CH$LINK: PUBCHEM CID:9750
CH$LINK: INCHIKEY RHGKLRLOHDJJDR-BYPYZUCNSA-N
CH$LINK: COMPTOX DTXSID80883373
AC$INSTRUMENT: LTQ Orbitrap XL, Thermo Scientfic
AC$INSTRUMENT_TYPE: LC-ESI-ITFT
AC$MASS_SPECTROMETRY: MS_TYPE MS2
AC$MASS_SPECTROMETRY: ION_MODE NEGATIVE
AC$MASS_SPECTROMETRY: COLLISION_ENERGY 35eV
AC$MASS_SPECTROMETRY: IONIZATION ESI
AC$CHROMATOGRAPHY: COLUMN_NAME TOSOH TSKgel ODS-100V  5um Part no. 21456
AC$CHROMATOGRAPHY: FLOW_GRADIENT 0min:3%, 45min:97%, 50min:97%, 50.1:3%, 57min:3% (acetonitrile)
AC$CHROMATOGRAPHY: FLOW_RATE 0.5 ml/min
AC$CHROMATOGRAPHY: RETENTION_TIME 4.841723 min
AC$CHROMATOGRAPHY: SOLVENT A 0.1%formate-water
AC$CHROMATOGRAPHY: SOLVENT B 0.1%formate-acetonitrile
MS$FOCUSED_ION: BASE_PEAK 174.034302
MS$FOCUSED_ION: PRECURSOR_M/Z 349.18
PK$SPLASH: splash10-00di-0900000000-da484f0362a8dca5127e
PK$NUM_PEAK: 6
PK$PEAK: m/z int. rel.int.
  131.084229 800.996948 144
  157.152191 7.998866 1
  174.034302 5537.751465 999
  174.953125 5.891831 1
  330.501282 6.003912 1
  331.212250 5.426887 1
//
