ACCESSION: MSBNK-NAIST-KNA00811
RECORD_TITLE: cis-Aconitic acid; LC-ESI-ITFT; MS2; m/z:369.01; NEG
DATE: 2016.01.19 (Created 2009.11.19, modified 2011.08.03)
AUTHORS: Takahashi H, Kanaya S, Ogasawara N, Graduate School of Information Science, NAIST
LICENSE: CC BY-SA
CH$NAME: cis-Aconitate
CH$NAME: cis-Aconitic acid
CH$COMPOUND_CLASS: Natural Product
CH$FORMULA: C6H6O6
CH$EXACT_MASS: 174.01644
CH$SMILES: OC(=O)CC(C(O)=O)=C([H])C(O)=O
CH$IUPAC: InChI=1S/C6H6O6/c7-4(8)1-3(6(11)12)2-5(9)10/h1H,2H2,(H,7,8)(H,9,10)(H,11,12)/b3-1-
CH$LINK: CAS 585-84-2
CH$LINK: CHEBI CHEBI:32805
CH$LINK: KEGG C00417
CH$LINK: KNAPSACK C00001177
CH$LINK: NIKKAJI J37.488A
CH$LINK: PUBCHEM CID:643757
CH$LINK: INCHIKEY GTZCVFVGUGFEME-IWQZZHSRSA-N
CH$LINK: COMPTOX DTXSID30883449
AC$INSTRUMENT: LTQ Orbitrap XL, Thermo Scientfic
AC$INSTRUMENT_TYPE: LC-ESI-ITFT
AC$MASS_SPECTROMETRY: MS_TYPE MS2
AC$MASS_SPECTROMETRY: ION_MODE NEGATIVE
AC$MASS_SPECTROMETRY: COLLISION_ENERGY 35eV
AC$MASS_SPECTROMETRY: IONIZATION ESI
AC$CHROMATOGRAPHY: COLUMN_NAME TOSOH TSKgel ODS-100V  5um Part no. 21456
AC$CHROMATOGRAPHY: FLOW_GRADIENT 0min:3%, 45min:97%, 50min:97%, 50.1:3%, 57min:3% (acetonitrile)
AC$CHROMATOGRAPHY: FLOW_RATE 0.5 ml/min
AC$CHROMATOGRAPHY: RETENTION_TIME 10.924285 min
AC$CHROMATOGRAPHY: SOLVENT A 0.1%formate-water
AC$CHROMATOGRAPHY: SOLVENT B 0.1%formate-acetonitrile
MS$FOCUSED_ION: BASE_PEAK 281.168152
MS$FOCUSED_ION: PRECURSOR_M/Z 369.01
PK$SPLASH: splash10-003r-0194000000-75d834c69fbfd0a2f7be
PK$NUM_PEAK: 8
PK$PEAK: m/z int. rel.int.
  128.937546 40.431828 125
  212.959534 14.747875 46
  281.168152 323.716156 999
  300.989441 5.704994 18
  306.776978 5.705577 18
  325.016876 135.302612 418
  351.183960 9.889834 31
  352.236908 8.528330 26
//
