ACCESSION: MSBNK-NAIST-KNA00818
RECORD_TITLE: AMP; LC-ESI-ITFT; MS2; m/z:346.05; NEG
DATE: 2016.01.19 (Created 2009.11.19, modified 2011.08.03)
AUTHORS: Takahashi H, Kanaya S, Ogasawara N, Graduate School of Information Science, NAIST
LICENSE: CC BY-SA
CH$NAME: AMP
CH$NAME: Adenosine 5'-monophosphate
CH$NAME: Adenylic acid
CH$NAME: Adenylate
CH$NAME: 5'-AMP
CH$NAME: 5'-Adenylic acid
CH$NAME: 5'-Adenosine monophosphate
CH$NAME: Adenosine 5'-phosphate
CH$COMPOUND_CLASS: Natural Product
CH$FORMULA: C10H14N5O7P
CH$EXACT_MASS: 347.06308
CH$SMILES: Nc(n3)c(n2)c(nc3)n(c2)[C@H](O1)[C@H](O)[C@H](O)[C@@H](COP(O)(O)=O)1
CH$IUPAC: InChI=1S/C10H14N5O7P/c11-8-5-9(13-2-12-8)15(3-14-5)10-7(17)6(16)4(22-10)1-21-23(18,19)20/h2-4,6-7,10,16-17H,1H2,(H2,11,12,13)(H2,18,19,20)/t4-,6-,7-,10-/m1/s1
CH$LINK: CAS 61-19-8
CH$LINK: CHEBI CHEBI:16027
CH$LINK: KEGG C00020
CH$LINK: KNAPSACK C00019347
CH$LINK: NIKKAJI J4.814C
CH$LINK: PUBCHEM CID:6083
CH$LINK: INCHIKEY UDMBCSSLTHHNCD-KQYNXXCUSA-N
CH$LINK: COMPTOX DTXSID5022560
AC$INSTRUMENT: LTQ Orbitrap XL, Thermo Scientfic
AC$INSTRUMENT_TYPE: LC-ESI-ITFT
AC$MASS_SPECTROMETRY: MS_TYPE MS2
AC$MASS_SPECTROMETRY: ION_MODE NEGATIVE
AC$MASS_SPECTROMETRY: COLLISION_ENERGY 35eV
AC$MASS_SPECTROMETRY: IONIZATION ESI
AC$CHROMATOGRAPHY: COLUMN_NAME TOSOH TSKgel ODS-100V  5um Part no. 21456
AC$CHROMATOGRAPHY: FLOW_GRADIENT 0min:3%, 45min:97%, 50min:97%, 50.1:3%, 57min:3% (acetonitrile)
AC$CHROMATOGRAPHY: FLOW_RATE 0.5 ml/min
AC$CHROMATOGRAPHY: RETENTION_TIME 8.869915 min
AC$CHROMATOGRAPHY: SOLVENT A 0.1%formate-water
AC$CHROMATOGRAPHY: SOLVENT B 0.1%formate-acetonitrile
MS$FOCUSED_ION: BASE_PEAK 211.013901
MS$FOCUSED_ION: PRECURSOR_M/Z 346.05
PK$SPLASH: splash10-03di-0190000000-948ec97ae442eda212cb
PK$NUM_PEAK: 8
PK$PEAK: m/z int. rel.int.
  122.957733 15.444098 1
  134.014603 273.488983 13
  138.951477 397.315369 19
  150.949829 2378.672363 114
  192.933167 1335.420044 64
  193.534805 39.051605 2
  211.013901 20764.001953 999
  248.169739 130.622223 6
//
