ACCESSION: MSBNK-NAIST-KNA00014
RECORD_TITLE: Hypotaurine; LC-ESI-ITFT; MS2; m/z:110.03; POS
DATE: 2016.01.19 (Created 2009.11.17, modified 2011.08.03)
AUTHORS: Takahashi H, Kanaya S, Ogasawara N, Graduate School of Information Science, NAIST
LICENSE: CC BY-SA
CH$NAME: Hypotaurine
CH$NAME: 2-Aminoethanesulfinic acid
CH$COMPOUND_CLASS: Natural Product
CH$FORMULA: C2H7NO2S
CH$EXACT_MASS: 109.01975
CH$SMILES: NCCS(O)=O
CH$IUPAC: InChI=1S/C2H7NO2S/c3-1-2-6(4)5/h1-3H2,(H,4,5)
CH$LINK: CAS 300-84-5
CH$LINK: CHEBI CHEBI:16668
CH$LINK: KEGG C00519
CH$LINK: NIKKAJI J11.604A
CH$LINK: PUBCHEM CID:107812
CH$LINK: INCHIKEY VVIUBCNYACGLLV-UHFFFAOYSA-N
CH$LINK: COMPTOX DTXSID8075380
AC$INSTRUMENT: LTQ Orbitrap XL, Thermo Scientfic
AC$INSTRUMENT_TYPE: LC-ESI-ITFT
AC$MASS_SPECTROMETRY: MS_TYPE MS2
AC$MASS_SPECTROMETRY: ION_MODE POSITIVE
AC$MASS_SPECTROMETRY: COLLISION_ENERGY 35eV
AC$MASS_SPECTROMETRY: IONIZATION ESI
AC$CHROMATOGRAPHY: COLUMN_NAME TOSOH TSKgel ODS-100V  5um Part no. 21456
AC$CHROMATOGRAPHY: FLOW_GRADIENT 0min:3%, 45min:97%, 50min:97%, 50.1:3%, 57min:3% (acetonitrile)
AC$CHROMATOGRAPHY: FLOW_RATE 0.5 ml/min
AC$CHROMATOGRAPHY: RETENTION_TIME 4.810467 min
AC$CHROMATOGRAPHY: SOLVENT A 0.1%formate-water
AC$CHROMATOGRAPHY: SOLVENT B 0.1%formate-acetonitrile
MS$FOCUSED_ION: BASE_PEAK 91.919632
MS$FOCUSED_ION: PRECURSOR_M/Z 110.03
PK$SPLASH: splash10-0006-9000000000-a34ee572b02492eaefef
PK$NUM_PEAK: 3
PK$PEAK: m/z int. rel.int.
  89.523788 216.117813 3
  91.919632 72865.031250 999
  98.438232 55.255341 1
//
