ACCESSION: MSBNK-NAIST-KNA00579
RECORD_TITLE: DOPA; LC-ESI-ITFT; MS2; m/z:393.13; NEG
DATE: 2016.01.19 (Created 2009.11.18, modified 2011.08.03)
AUTHORS: Takahashi H, Kanaya S, Ogasawara N, Graduate School of Information Science, NAIST
LICENSE: CC BY-SA
CH$NAME: 3,4-Dihydroxy-L-phenylalanine
CH$NAME: L-Dopa
CH$NAME: 3-Hydroxy-L-tyrosine
CH$NAME: L-beta-(3,4-Dihydroxyphenyl)alanine
CH$NAME: Levodopa
CH$NAME: Dihydroxy-L-phenylalanine
CH$NAME: DOPA
CH$COMPOUND_CLASS: Natural Product
CH$FORMULA: C9H11NO4
CH$EXACT_MASS: 197.06881
CH$SMILES: OC(=O)C([H])(N)Cc(c1)cc(O)c(O)c1
CH$IUPAC: InChI=1S/C9H11NO4/c10-6(9(13)14)3-5-1-2-7(11)8(12)4-5/h1-2,4,6,11-12H,3,10H2,(H,13,14)/t6-/m0/s1
CH$LINK: CAS 59-92-7
CH$LINK: CHEBI CHEBI:15765
CH$LINK: KEGG C00355
CH$LINK: KNAPSACK C00001357
CH$LINK: NIKKAJI J9.225H
CH$LINK: PUBCHEM CID:6047
CH$LINK: INCHIKEY WTDRDQBEARUVNC-LURJTMIESA-N
CH$LINK: COMPTOX DTXSID9023209
AC$INSTRUMENT: LTQ Orbitrap XL, Thermo Scientfic
AC$INSTRUMENT_TYPE: LC-ESI-ITFT
AC$MASS_SPECTROMETRY: MS_TYPE MS2
AC$MASS_SPECTROMETRY: ION_MODE NEGATIVE
AC$MASS_SPECTROMETRY: COLLISION_ENERGY 35eV
AC$MASS_SPECTROMETRY: IONIZATION ESI
AC$CHROMATOGRAPHY: COLUMN_NAME TOSOH TSKgel ODS-100V  5um Part no. 21456
AC$CHROMATOGRAPHY: FLOW_GRADIENT 0min:3%, 45min:97%, 50min:97%, 50.1:3%, 57min:3% (acetonitrile)
AC$CHROMATOGRAPHY: FLOW_RATE 0.5 ml/min
AC$CHROMATOGRAPHY: RETENTION_TIME 5.497272 min
AC$CHROMATOGRAPHY: SOLVENT A 0.1%formate-water
AC$CHROMATOGRAPHY: SOLVENT B 0.1%formate-acetonitrile
MS$FOCUSED_ION: BASE_PEAK 196.067017
MS$FOCUSED_ION: PRECURSOR_M/Z 393.13
PK$SPLASH: splash10-0002-0900000000-efc5dfd988dedf39f4f8
PK$NUM_PEAK: 5
PK$PEAK: m/z int. rel.int.
  135.018066 182.902145 17
  152.063629 103.956161 10
  179.031281 292.072144 28
  196.067017 10503.825195 999
  374.878265 11.574967 1
//
