ACCESSION: MSBNK-NAIST-KNA00046
RECORD_TITLE: L-Asparagine; LC-ESI-ITFT; MS2; m/z:133.06; POS
DATE: 2016.01.19 (Created 2009.11.17, modified 2011.08.03)
AUTHORS: Takahashi H, Kanaya S, Ogasawara N, Graduate School of Information Science, NAIST
LICENSE: CC BY-SA
CH$NAME: L-Asparagine
CH$NAME: 2-Aminosuccinamic acid
CH$COMPOUND_CLASS: Natural Product
CH$FORMULA: C4H8N2O3
CH$EXACT_MASS: 132.05349
CH$SMILES: NC(=O)C[C@@H](N)C(O)=O
CH$IUPAC: InChI=1S/C4H8N2O3/c5-2(4(8)9)1-3(6)7/h2H,1,5H2,(H2,6,7)(H,8,9)/t2-/m0/s1
CH$LINK: CAS 70-47-3
CH$LINK: CHEBI CHEBI:17196
CH$LINK: KEGG C00152
CH$LINK: KNAPSACK C00001341
CH$LINK: NIKKAJI J9.178B
CH$LINK: PUBCHEM CID:6267
CH$LINK: INCHIKEY DCXYFEDJOCDNAF-REOHCLBHSA-N
CH$LINK: COMPTOX DTXSID10883220
AC$INSTRUMENT: LTQ Orbitrap XL, Thermo Scientfic
AC$INSTRUMENT_TYPE: LC-ESI-ITFT
AC$MASS_SPECTROMETRY: MS_TYPE MS2
AC$MASS_SPECTROMETRY: ION_MODE POSITIVE
AC$MASS_SPECTROMETRY: COLLISION_ENERGY 35eV
AC$MASS_SPECTROMETRY: IONIZATION ESI
AC$CHROMATOGRAPHY: COLUMN_NAME TOSOH TSKgel ODS-100V  5um Part no. 21456
AC$CHROMATOGRAPHY: FLOW_GRADIENT 0min:3%, 45min:97%, 50min:97%, 50.1:3%, 57min:3% (acetonitrile)
AC$CHROMATOGRAPHY: FLOW_RATE 0.5 ml/min
AC$CHROMATOGRAPHY: RETENTION_TIME 4.584867 min
AC$CHROMATOGRAPHY: SOLVENT A 0.1%formate-water
AC$CHROMATOGRAPHY: SOLVENT B 0.1%formate-acetonitrile
MS$FOCUSED_ION: BASE_PEAK 87.000549
MS$FOCUSED_ION: PRECURSOR_M/Z 133.06
PK$SPLASH: splash10-000i-9000000000-0df05b2f1172c9a862e9
PK$NUM_PEAK: 7
PK$PEAK: m/z int. rel.int.
  70.015991 482.142975 2
  73.954369 1795.992432 6
  87.000549 314344.875000 999
  87.939270 9297.193359 30
  97.949005 1142.095947 4
  114.856674 5166.375488 16
  116.026550 23916.242188 76
//
