ACCESSION: MSBNK-NAIST-KNA00750
RECORD_TITLE: 6-Phospho-D-gluconic acid; LC-ESI-ITFT; MS2; m/z:275.02; NEG
DATE: 2016.01.19 (Created 2009.11.19, modified 2011.08.03)
AUTHORS: Takahashi H, Kanaya S, Ogasawara N, Graduate School of Information Science, NAIST
LICENSE: CC BY-SA
CH$NAME: 6-Phospho-D-gluconate
CH$NAME: 6-Phospho-D-gluconic acid
CH$COMPOUND_CLASS: Natural Product
CH$FORMULA: C6H13O10P
CH$EXACT_MASS: 276.02463
CH$SMILES: OC(=O)[C@H](O)[C@@H](O)[C@H](O)[C@H](O)COP(O)(O)=O
CH$IUPAC: InChI=1S/C6H13O10P/c7-2(1-16-17(13,14)15)3(8)4(9)5(10)6(11)12/h2-5,7-10H,1H2,(H,11,12)(H2,13,14,15)/t2-,3-,4+,5-/m1/s1
CH$LINK: CHEBI CHEBI:48928
CH$LINK: KEGG C00345
CH$LINK: PUBCHEM CID:91493
CH$LINK: INCHIKEY BIRSGZKFKXLSJQ-SQOUGZDYSA-N
CH$LINK: COMPTOX DTXSID00872623
AC$INSTRUMENT: LTQ Orbitrap XL, Thermo Scientfic
AC$INSTRUMENT_TYPE: LC-ESI-ITFT
AC$MASS_SPECTROMETRY: MS_TYPE MS2
AC$MASS_SPECTROMETRY: ION_MODE NEGATIVE
AC$MASS_SPECTROMETRY: COLLISION_ENERGY 35eV
AC$MASS_SPECTROMETRY: IONIZATION ESI
AC$CHROMATOGRAPHY: COLUMN_NAME TOSOH TSKgel ODS-100V  5um Part no. 21456
AC$CHROMATOGRAPHY: FLOW_GRADIENT 0min:3%, 45min:97%, 50min:97%, 50.1:3%, 57min:3% (acetonitrile)
AC$CHROMATOGRAPHY: FLOW_RATE 0.5 ml/min
AC$CHROMATOGRAPHY: RETENTION_TIME 6.998198 min
AC$CHROMATOGRAPHY: SOLVENT A 0.1%formate-water
AC$CHROMATOGRAPHY: SOLVENT B 0.1%formate-acetonitrile
MS$FOCUSED_ION: BASE_PEAK 256.973450
MS$FOCUSED_ION: PRECURSOR_M/Z 275.02
PK$SPLASH: splash10-0a4j-5090000000-6db5e52f38f29e35f42a
PK$NUM_PEAK: 9
PK$PEAK: m/z int. rel.int.
  78.949509 68.164032 34
  96.904968 1152.064941 577
  129.186020 9.015065 5
  159.011154 13.476637 7
  176.986435 160.285614 80
  199.050812 27.352005 14
  238.995422 115.919449 58
  256.973450 1995.573242 999
  257.591400 5.740686 3
//
