ACCESSION: MSBNK-NAIST-KNA00466
RECORD_TITLE: Spermine; LC-ESI-ITFT; MS2; m/z:203.22; POS
DATE: 2016.01.19 (Created 2009.11.18, modified 2011.08.03)
AUTHORS: Takahashi H, Kanaya S, Ogasawara N, Graduate School of Information Science, NAIST
LICENSE: CC BY-SA
CH$NAME: Spermine
CH$NAME: N,N'-Bis(3-aminopropyl)-1,4-butanediamine
CH$COMPOUND_CLASS: Natural Product
CH$FORMULA: C10H26N4
CH$EXACT_MASS: 202.21575
CH$SMILES: NCCCNCCCCNCCCN
CH$IUPAC: InChI=1S/C10H26N4/c11-5-3-9-13-7-1-2-8-14-10-4-6-12/h13-14H,1-12H2
CH$LINK: CAS 71-44-3
CH$LINK: CHEBI CHEBI:15746
CH$LINK: KEGG C00750
CH$LINK: KNAPSACK C00001432
CH$LINK: NIKKAJI J5.246I
CH$LINK: PUBCHEM CID:1103
CH$LINK: INCHIKEY PFNFFQXMRSDOHW-UHFFFAOYSA-N
CH$LINK: COMPTOX DTXSID9058781
AC$INSTRUMENT: LTQ Orbitrap XL, Thermo Scientfic
AC$INSTRUMENT_TYPE: LC-ESI-ITFT
AC$MASS_SPECTROMETRY: MS_TYPE MS2
AC$MASS_SPECTROMETRY: ION_MODE POSITIVE
AC$MASS_SPECTROMETRY: COLLISION_ENERGY 35eV
AC$MASS_SPECTROMETRY: IONIZATION ESI
AC$CHROMATOGRAPHY: COLUMN_NAME TOSOH TSKgel ODS-100V  5um Part no. 21456
AC$CHROMATOGRAPHY: FLOW_GRADIENT 0min:3%, 45min:97%, 50min:97%, 50.1:3%, 57min:3% (acetonitrile)
AC$CHROMATOGRAPHY: FLOW_RATE 0.5 ml/min
AC$CHROMATOGRAPHY: RETENTION_TIME 3.297842 min
AC$CHROMATOGRAPHY: SOLVENT A 0.1%formate-water
AC$CHROMATOGRAPHY: SOLVENT B 0.1%formate-acetonitrile
MS$FOCUSED_ION: BASE_PEAK 129.127045
MS$FOCUSED_ION: PRECURSOR_M/Z 203.22
PK$SPLASH: splash10-004i-0900000000-93e15f4592fe9bbeb367
PK$NUM_PEAK: 4
PK$PEAK: m/z int. rel.int.
  72.115952 1117.625732 3
  84.102036 1184.429932 3
  112.102722 52091.894531 128
  129.127045 407191.687500 999
//
