ACCESSION: MSBNK-NAIST-KNA00665
RECORD_TITLE: NADH; LC-ESI-ITFT; MS2; m/z:397.02; NEG
DATE: 2016.01.19 (Created 2009.11.19, modified 2011.08.03)
AUTHORS: Takahashi H, Kanaya S, Ogasawara N, Graduate School of Information Science, NAIST
LICENSE: CC BY-SA
CH$NAME: NADH
CH$NAME: DPNH
CH$COMPOUND_CLASS: Natural Product
CH$FORMULA: C21H29N7O14P2
CH$EXACT_MASS: 665.12477
CH$SMILES: NC(=O)C(C5)=CN(C=C5)[C@H](O1)[C@H](O)[C@H](O)[C@@H](COP(O)(=O)OP(O)(=O)OC[C@@H](O2)[C@@H](O)[C@@H](O)[C@@H]2n(c4)c(n3)c(n4)c(N)nc3)1
CH$IUPAC: InChI=1S/C21H29N7O14P2/c22-17-12-19(25-7-24-17)28(8-26-12)21-16(32)14(30)11(41-21)6-39-44(36,37)42-43(34,35)38-5-10-13(29)15(31)20(40-10)27-3-1-2-9(4-27)18(23)33/h1,3-4,7-8,10-11,13-16,20-21,29-32H,2,5-6H2,(H2,23,33)(H,34,35)(H,36,37)(H2,22,24,25)/t10-,11-,13-,14-,15-,16-,20-,21-/m1/s1
CH$LINK: CAS 58-68-4
CH$LINK: CHEBI CHEBI:16908
CH$LINK: KEGG C00004
CH$LINK: KNAPSACK C00019343
CH$LINK: NIKKAJI J213.546I
CH$LINK: PUBCHEM CID:439153
CH$LINK: INCHIKEY BOPGDPNILDQYTO-NNYOXOHSSA-N
CH$LINK: COMPTOX DTXSID30889320
AC$INSTRUMENT: LTQ Orbitrap XL, Thermo Scientfic
AC$INSTRUMENT_TYPE: LC-ESI-ITFT
AC$MASS_SPECTROMETRY: MS_TYPE MS2
AC$MASS_SPECTROMETRY: ION_MODE NEGATIVE
AC$MASS_SPECTROMETRY: COLLISION_ENERGY 35eV
AC$MASS_SPECTROMETRY: IONIZATION ESI
AC$CHROMATOGRAPHY: COLUMN_NAME TOSOH TSKgel ODS-100V  5um Part no. 21456
AC$CHROMATOGRAPHY: FLOW_GRADIENT 0min:3%, 45min:97%, 50min:97%, 50.1:3%, 57min:3% (acetonitrile)
AC$CHROMATOGRAPHY: FLOW_RATE 0.5 ml/min
AC$CHROMATOGRAPHY: RETENTION_TIME 9.530022 min
AC$CHROMATOGRAPHY: SOLVENT A 0.1%formate-water
AC$CHROMATOGRAPHY: SOLVENT B 0.1%formate-acetonitrile
MS$FOCUSED_ION: BASE_PEAK 299.068634
MS$FOCUSED_ION: PRECURSOR_M/Z 397.02
PK$SPLASH: splash10-054k-0970000000-b8bd289c8049c6c35705
PK$NUM_PEAK: 25
PK$PEAK: m/z int. rel.int.
  147.021912 21.487431 9
  158.840088 2396.714844 958
  163.050598 15.907557 6
  171.930176 6.442505 3
  174.882874 406.215546 162
  176.967346 1736.889038 695
  193.033798 19.401560 8
  213.094452 13.450857 5
  226.823151 5.871854 2
  230.903503 61.596375 25
  238.418579 5.873206 2
  245.080963 106.376427 43
  255.060547 52.147499 21
  256.014069 58.819359 24
  257.028381 55.448868 22
  269.200073 19.018856 8
  273.027710 687.471558 275
  281.091064 87.379883 35
  282.244690 21.804789 9
  299.068634 2498.223389 999
  300.268890 7.000803 3
  317.027161 118.044426 47
  354.098633 32.199947 13
  361.438019 4.747250 2
  379.122345 105.876984 42
//
