ACCESSION: MSBNK-NAIST-KNA00237
RECORD_TITLE: L-Glutamine; LC-ESI-ITFT; MS2; m/z:130.05; POS
DATE: 2016.01.19 (Created 2009.11.17, modified 2011.08.03)
AUTHORS: Takahashi H, Kanaya S, Ogasawara N, Graduate School of Information Science, NAIST
LICENSE: CC BY-SA
CH$NAME: L-Glutamine
CH$NAME: L-2-Aminoglutaramic acid
CH$COMPOUND_CLASS: Natural Product
CH$FORMULA: C5H10N2O3
CH$EXACT_MASS: 146.06914
CH$SMILES: NC(=O)CC[C@H](N)C(O)=O
CH$IUPAC: InChI=1S/C5H10N2O3/c6-3(5(9)10)1-2-4(7)8/h3H,1-2,6H2,(H2,7,8)(H,9,10)/t3-/m0/s1
CH$LINK: CAS 56-85-9
CH$LINK: CHEBI CHEBI:18050
CH$LINK: KEGG C00064
CH$LINK: KNAPSACK C00001359
CH$LINK: NIKKAJI J9.170G
CH$LINK: PUBCHEM CID:5961
CH$LINK: INCHIKEY ZDXPYRJPNDTMRX-VKHMYHEASA-N
CH$LINK: COMPTOX DTXSID1023100
AC$INSTRUMENT: LTQ Orbitrap XL, Thermo Scientfic
AC$INSTRUMENT_TYPE: LC-ESI-ITFT
AC$MASS_SPECTROMETRY: MS_TYPE MS2
AC$MASS_SPECTROMETRY: ION_MODE POSITIVE
AC$MASS_SPECTROMETRY: COLLISION_ENERGY 35eV
AC$MASS_SPECTROMETRY: IONIZATION ESI
AC$CHROMATOGRAPHY: COLUMN_NAME TOSOH TSKgel ODS-100V  5um Part no. 21456
AC$CHROMATOGRAPHY: FLOW_GRADIENT 0min:3%, 45min:97%, 50min:97%, 50.1:3%, 57min:3% (acetonitrile)
AC$CHROMATOGRAPHY: FLOW_RATE 0.5 ml/min
AC$CHROMATOGRAPHY: RETENTION_TIME 4.689653 min
AC$CHROMATOGRAPHY: SOLVENT A 0.1%formate-water
AC$CHROMATOGRAPHY: SOLVENT B 0.1%formate-acetonitrile
MS$FOCUSED_ION: BASE_PEAK 83.968094
MS$FOCUSED_ION: PRECURSOR_M/Z 130.05
PK$SPLASH: splash10-001i-9000000000-c1acfa3750a90d81ce15
PK$NUM_PEAK: 10
PK$PEAK: m/z int. rel.int.
  56.012260 16.966829 1
  69.109810 22.020273 1
  74.151398 29.696554 1
  83.968094 32850.625000 999
  84.935852 842.925537 26
  86.007385 31.702003 1
  87.082260 46.234955 1
  101.991257 3039.914063 92
  112.108597 131.996857 4
  113.032028 23.013762 1
//
