ACCESSION: MSBNK-NAIST-KNA00309
RECORD_TITLE: Inosine; LC-ESI-ITFT; MS2; m/z:137.05; POS
DATE: 2016.01.19 (Created 2009.11.18, modified 2011.08.03)
AUTHORS: Takahashi H, Kanaya S, Ogasawara N, Graduate School of Information Science, NAIST
LICENSE: CC BY-SA
CH$NAME: Inosine
CH$COMPOUND_CLASS: Natural Product
CH$FORMULA: C10H12N4O5
CH$EXACT_MASS: 268.08077
CH$SMILES: OC[C@@H](O1)[C@@H](O)[C@@H](O)[C@@H]1n(c3)c(N=2)c(n3)C(=O)NC2
CH$IUPAC: InChI=1S/C10H12N4O5/c15-1-4-6(16)7(17)10(19-4)14-3-13-5-8(14)11-2-12-9(5)18/h2-4,6-7,10,15-17H,1H2,(H,11,12,18)/t4-,6-,7-,10-/m1/s1
CH$LINK: CAS 58-63-9
CH$LINK: CHEBI CHEBI:17596
CH$LINK: KEGG C00294
CH$LINK: KNAPSACK C00019692
CH$LINK: NIKKAJI J1.388I
CH$LINK: PUBCHEM CID:135398641
CH$LINK: INCHIKEY UGQMRVRMYYASKQ-KQYNXXCUSA-N
CH$LINK: COMPTOX DTXSID2045993
AC$INSTRUMENT: LTQ Orbitrap XL, Thermo Scientfic
AC$INSTRUMENT_TYPE: LC-ESI-ITFT
AC$MASS_SPECTROMETRY: MS_TYPE MS2
AC$MASS_SPECTROMETRY: ION_MODE POSITIVE
AC$MASS_SPECTROMETRY: COLLISION_ENERGY 35eV
AC$MASS_SPECTROMETRY: IONIZATION ESI
AC$CHROMATOGRAPHY: COLUMN_NAME TOSOH TSKgel ODS-100V  5um Part no. 21456
AC$CHROMATOGRAPHY: FLOW_GRADIENT 0min:3%, 45min:97%, 50min:97%, 50.1:3%, 57min:3% (acetonitrile)
AC$CHROMATOGRAPHY: FLOW_RATE 0.5 ml/min
AC$CHROMATOGRAPHY: RETENTION_TIME 5.662408 min
AC$CHROMATOGRAPHY: SOLVENT A 0.1%formate-water
AC$CHROMATOGRAPHY: SOLVENT B 0.1%formate-acetonitrile
MS$FOCUSED_ION: BASE_PEAK 95.101669
MS$FOCUSED_ION: PRECURSOR_M/Z 137.05
PK$SPLASH: splash10-00l2-9300000000-65a24aadb3a2b262cacf
PK$NUM_PEAK: 17
PK$PEAK: m/z int. rel.int.
  57.008904 17.807983 88
  59.034492 3.945795 19
  67.030266 2.682937 13
  71.087921 6.690083 33
  81.077774 165.431488 815
  93.998810 43.227585 213
  95.101669 202.695511 999
  101.049225 2.451593 12
  104.876770 1.807695 9
  109.065002 16.892082 83
  109.982437 17.576841 87
  111.036148 2.243601 11
  119.056046 136.753021 674
  120.095657 2.464110 12
  121.578842 1.595950 8
  122.228531 2.717616 13
  137.033493 4.160320 21
//
