ACCESSION: MSBNK-NAIST-KNA00658
RECORD_TITLE: D-Ribose 5-phosphate; LC-ESI-ITFT; MS2; m/z:459.03; NEG
DATE: 2016.01.19 (Created 2009.11.19, modified 2011.08.03)
AUTHORS: Takahashi H, Kanaya S, Ogasawara N, Graduate School of Information Science, NAIST
LICENSE: CC BY-SA
CH$NAME: D-Ribose 5-phosphate
CH$NAME: Ribose 5-phosphate
CH$COMPOUND_CLASS: Natural Product
CH$FORMULA: C5H11O8P
CH$EXACT_MASS: 230.01915
CH$SMILES: OC(O1)[C@H](O)[C@H](O)[C@H]1COP(O)(O)=O
CH$IUPAC: InChI=1S/C5H11O8P/c6-3-2(1-12-14(9,10)11)13-5(8)4(3)7/h2-8H,1H2,(H2,9,10,11)/t2-,3-,4-,5?/m1/s1
CH$LINK: CAS 4300-28-1
CH$LINK: CHEBI CHEBI:17797
CH$LINK: KEGG C00117
CH$LINK: KNAPSACK C00007473
CH$LINK: NIKKAJI J205.693C
CH$LINK: PUBCHEM CID:439167
CH$LINK: INCHIKEY KTVPXOYAKDPRHY-SOOFDHNKSA-N
AC$INSTRUMENT: LTQ Orbitrap XL, Thermo Scientfic
AC$INSTRUMENT_TYPE: LC-ESI-ITFT
AC$MASS_SPECTROMETRY: MS_TYPE MS2
AC$MASS_SPECTROMETRY: ION_MODE NEGATIVE
AC$MASS_SPECTROMETRY: COLLISION_ENERGY 35eV
AC$MASS_SPECTROMETRY: IONIZATION ESI
AC$CHROMATOGRAPHY: COLUMN_NAME TOSOH TSKgel ODS-100V  5um Part no. 21456
AC$CHROMATOGRAPHY: FLOW_GRADIENT 0min:3%, 45min:97%, 50min:97%, 50.1:3%, 57min:3% (acetonitrile)
AC$CHROMATOGRAPHY: FLOW_RATE 0.5 ml/min
AC$CHROMATOGRAPHY: RETENTION_TIME 6.806757 min
AC$CHROMATOGRAPHY: SOLVENT A 0.1%formate-water
AC$CHROMATOGRAPHY: SOLVENT B 0.1%formate-acetonitrile
MS$FOCUSED_ION: BASE_PEAK 228.975464
MS$FOCUSED_ION: PRECURSOR_M/Z 459.03
PK$SPLASH: splash10-004i-0090000000-10949588537786dbae1e
PK$NUM_PEAK: 8
PK$PEAK: m/z int. rel.int.
  139.027939 45.679676 5
  168.994507 32.328239 3
  193.079132 24.744308 2
  211.114761 40.622791 4
  228.975464 10124.333984 999
  230.463959 5.723941 1
  308.899231 664.401733 66
  441.330048 7.480865 1
//
