ACCESSION: MSBNK-NAIST-KNA00661
RECORD_TITLE: L-Tyrosine; LC-ESI-ITFT; MS2; m/z:180.07; NEG
DATE: 2016.01.19 (Created 2009.11.19, modified 2011.08.03)
AUTHORS: Takahashi H, Kanaya S, Ogasawara N, Graduate School of Information Science, NAIST
LICENSE: CC BY-SA
CH$NAME: L-Tyrosine
CH$NAME: (S)-3-(p-Hydroxyphenyl)alanine
CH$NAME: (S)-2-Amino-3-(p-hydroxyphenyl)propionic acid
CH$NAME: Tyrosine
CH$COMPOUND_CLASS: Natural Product
CH$FORMULA: C9H11NO3
CH$EXACT_MASS: 181.07389
CH$SMILES: OC(=O)C(N)Cc(c1)ccc(O)c1
CH$IUPAC: InChI=1S/C9H11NO3/c10-8(9(12)13)5-6-1-3-7(11)4-2-6/h1-4,8,11H,5,10H2,(H,12,13)/t8-/m0/s1
CH$LINK: CAS 60-18-4
CH$LINK: CHEBI CHEBI:17895
CH$LINK: KEGG C00082
CH$LINK: KNAPSACK C00001397
CH$LINK: NIKKAJI J9.173A
CH$LINK: PUBCHEM CID:6057
CH$LINK: INCHIKEY OUYCCCASQSFEME-QMMMGPOBSA-N
CH$LINK: COMPTOX DTXSID1023730
AC$INSTRUMENT: LTQ Orbitrap XL, Thermo Scientfic
AC$INSTRUMENT_TYPE: LC-ESI-ITFT
AC$MASS_SPECTROMETRY: MS_TYPE MS2
AC$MASS_SPECTROMETRY: ION_MODE NEGATIVE
AC$MASS_SPECTROMETRY: COLLISION_ENERGY 35eV
AC$MASS_SPECTROMETRY: IONIZATION ESI
AC$CHROMATOGRAPHY: COLUMN_NAME TOSOH TSKgel ODS-100V  5um Part no. 21456
AC$CHROMATOGRAPHY: FLOW_GRADIENT 0min:3%, 45min:97%, 50min:97%, 50.1:3%, 57min:3% (acetonitrile)
AC$CHROMATOGRAPHY: FLOW_RATE 0.5 ml/min
AC$CHROMATOGRAPHY: RETENTION_TIME 5.744475 min
AC$CHROMATOGRAPHY: SOLVENT A 0.1%formate-water
AC$CHROMATOGRAPHY: SOLVENT B 0.1%formate-acetonitrile
MS$FOCUSED_ION: BASE_PEAK 163.012634
MS$FOCUSED_ION: PRECURSOR_M/Z 180.07
PK$SPLASH: splash10-03di-0900000000-972f236da42e07f9af17
PK$NUM_PEAK: 7
PK$PEAK: m/z int. rel.int.
  71.972084 22.597532 14
  74.222549 8.843417 6
  92.967697 173.590240 110
  106.165161 10.757707 7
  118.951080 234.197113 148
  136.034897 139.634079 88
  163.012634 1579.126221 999
//
