ACCESSION: MSBNK-NAIST-KNA00154
RECORD_TITLE: L-Ornithine; LC-ESI-ITFT; MS2; m/z:116.07; POS
DATE: 2016.01.19 (Created 2009.11.17, modified 2011.08.03)
AUTHORS: Takahashi H, Kanaya S, Ogasawara N, Graduate School of Information Science, NAIST
LICENSE: CC BY-SA
CH$NAME: L-Ornithine
CH$NAME: (S)-2,5-Diaminovaleric acid
CH$NAME: (S)-2,5-Diaminopentanoic acid
CH$NAME: (S)-2,5-Diaminopentanoate
CH$COMPOUND_CLASS: Natural Product
CH$FORMULA: C5H12N2O2
CH$EXACT_MASS: 132.08988
CH$SMILES: NCCC[C@H](N)C(O)=O
CH$IUPAC: InChI=1S/C5H12N2O2/c6-3-1-2-4(7)5(8)9/h4H,1-3,6-7H2,(H,8,9)/t4-/m0/s1
CH$LINK: CAS 70-26-8
CH$LINK: CHEBI CHEBI:15729
CH$LINK: KEGG C00077
CH$LINK: KNAPSACK C00001384
CH$LINK: NIKKAJI J9.177D
CH$LINK: PUBCHEM CID:6262
CH$LINK: INCHIKEY AHLPHDHHMVZTML-BYPYZUCNSA-N
CH$LINK: COMPTOX DTXSID00883219
AC$INSTRUMENT: LTQ Orbitrap XL, Thermo Scientfic
AC$INSTRUMENT_TYPE: LC-ESI-ITFT
AC$MASS_SPECTROMETRY: MS_TYPE MS2
AC$MASS_SPECTROMETRY: ION_MODE POSITIVE
AC$MASS_SPECTROMETRY: COLLISION_ENERGY 35eV
AC$MASS_SPECTROMETRY: IONIZATION ESI
AC$CHROMATOGRAPHY: COLUMN_NAME TOSOH TSKgel ODS-100V  5um Part no. 21456
AC$CHROMATOGRAPHY: FLOW_GRADIENT 0min:3%, 45min:97%, 50min:97%, 50.1:3%, 57min:3% (acetonitrile)
AC$CHROMATOGRAPHY: FLOW_RATE 0.5 ml/min
AC$CHROMATOGRAPHY: RETENTION_TIME 3.962947 min
AC$CHROMATOGRAPHY: SOLVENT A 0.1%formate-water
AC$CHROMATOGRAPHY: SOLVENT B 0.1%formate-acetonitrile
MS$FOCUSED_ION: BASE_PEAK 69.960800
MS$FOCUSED_ION: PRECURSOR_M/Z 116.07
PK$SPLASH: splash10-014i-9000000000-4d6ccc429f5155b24654
PK$NUM_PEAK: 5
PK$PEAK: m/z int. rel.int.
  69.960800 37714.277344 999
  70.923386 282.777283 7
  75.013527 66.536667 2
  88.024231 381.249420 10
  98.013565 144.486023 4
//
