ACCESSION: MSBNK-NAIST-KNA00458
RECORD_TITLE: L-(-)-Proline; LC-ESI-ITFT; MS2; m/z:231.13; POS
DATE: 2016.01.19 (Created 2009.11.18, modified 2011.08.03)
AUTHORS: Takahashi H, Kanaya S, Ogasawara N, Graduate School of Information Science, NAIST
LICENSE: CC BY-SA
CH$NAME: L-Proline
CH$NAME: 2-Pyrrolidinecarboxylic acid
CH$NAME: L-(-)-Proline
CH$COMPOUND_CLASS: Natural Product
CH$FORMULA: C5H9NO2
CH$EXACT_MASS: 115.06333
CH$SMILES: OC(=O)C([H])(C1)NCC1
CH$IUPAC: InChI=1S/C5H9NO2/c7-5(8)4-2-1-3-6-4/h4,6H,1-3H2,(H,7,8)/t4-/m0/s1
CH$LINK: CAS 147-85-3
CH$LINK: CHEBI CHEBI:17203
CH$LINK: KEGG C00148
CH$LINK: KNAPSACK C00001388
CH$LINK: NIKKAJI J9.117K
CH$LINK: PUBCHEM CID:145742
CH$LINK: INCHIKEY ONIBWKKTOPOVIA-BYPYZUCNSA-N
CH$LINK: COMPTOX DTXSID5044021
AC$INSTRUMENT: LTQ Orbitrap XL, Thermo Scientfic
AC$INSTRUMENT_TYPE: LC-ESI-ITFT
AC$MASS_SPECTROMETRY: MS_TYPE MS2
AC$MASS_SPECTROMETRY: ION_MODE POSITIVE
AC$MASS_SPECTROMETRY: COLLISION_ENERGY 35eV
AC$MASS_SPECTROMETRY: IONIZATION ESI
AC$CHROMATOGRAPHY: COLUMN_NAME TOSOH TSKgel ODS-100V  5um Part no. 21456
AC$CHROMATOGRAPHY: FLOW_GRADIENT 0min:3%, 45min:97%, 50min:97%, 50.1:3%, 57min:3% (acetonitrile)
AC$CHROMATOGRAPHY: FLOW_RATE 0.5 ml/min
AC$CHROMATOGRAPHY: RETENTION_TIME 5.188880 min
AC$CHROMATOGRAPHY: SOLVENT A 0.1%formate-water
AC$CHROMATOGRAPHY: SOLVENT B 0.1%formate-acetonitrile
MS$FOCUSED_ION: BASE_PEAK 116.008911
MS$FOCUSED_ION: PRECURSOR_M/Z 231.13
PK$SPLASH: splash10-014i-0900000000-61d583960651669fb9e6
PK$NUM_PEAK: 4
PK$PEAK: m/z int. rel.int.
  70.060623 45.299595 4
  116.008911 10248.094727 999
  187.052994 7.108963 1
  213.016846 19.153702 2
//
