ACCESSION: MSBNK-NAIST-KNA00506
RECORD_TITLE: L-(+)-Arginine; LC-ESI-ITFT; MS2; m/z:241.09; NEG
DATE: 2016.01.19 (Created 2009.11.18, modified 2011.08.03)
AUTHORS: Takahashi H, Kanaya S, Ogasawara N, Graduate School of Information Science, NAIST
LICENSE: CC BY-SA
CH$NAME: L-Arginine
CH$NAME: (S)-2-Amino-5-guanidinovaleric acid
CH$NAME: L-(+)-Arginine
CH$COMPOUND_CLASS: Natural Product
CH$FORMULA: C6H14N4O2
CH$EXACT_MASS: 174.11168
CH$SMILES: NC(=N)NCCC[C@H](N)C(O)=O
CH$IUPAC: InChI=1S/C6H14N4O2/c7-4(5(11)12)2-1-3-10-6(8)9/h4H,1-3,7H2,(H,11,12)(H4,8,9,10)/t4-/m0/s1
CH$LINK: CAS 74-79-3
CH$LINK: CHEBI CHEBI:16467
CH$LINK: KEGG C00062
CH$LINK: KNAPSACK C00001340
CH$LINK: NIKKAJI J9.182K
CH$LINK: PUBCHEM CID:6322
CH$LINK: INCHIKEY ODKSFYDXXFIFQN-BYPYZUCNSA-N
CH$LINK: COMPTOX DTXSID6041056
AC$INSTRUMENT: LTQ Orbitrap XL, Thermo Scientfic
AC$INSTRUMENT_TYPE: LC-ESI-ITFT
AC$MASS_SPECTROMETRY: MS_TYPE MS2
AC$MASS_SPECTROMETRY: ION_MODE NEGATIVE
AC$MASS_SPECTROMETRY: COLLISION_ENERGY 35eV
AC$MASS_SPECTROMETRY: IONIZATION ESI
AC$CHROMATOGRAPHY: COLUMN_NAME TOSOH TSKgel ODS-100V  5um Part no. 21456
AC$CHROMATOGRAPHY: FLOW_GRADIENT 0min:3%, 45min:97%, 50min:97%, 50.1:3%, 57min:3% (acetonitrile)
AC$CHROMATOGRAPHY: FLOW_RATE 0.5 ml/min
AC$CHROMATOGRAPHY: RETENTION_TIME 4.145835 min
AC$CHROMATOGRAPHY: SOLVENT A 0.1%formate-water
AC$CHROMATOGRAPHY: SOLVENT B 0.1%formate-acetonitrile
MS$FOCUSED_ION: BASE_PEAK 173.031540
MS$FOCUSED_ION: PRECURSOR_M/Z 241.09
PK$SPLASH: splash10-00di-0900000000-f666ab7e5354bce67a2e
PK$NUM_PEAK: 5
PK$PEAK: m/z int. rel.int.
  131.040131 64.746796 10
  173.031540 6234.551270 999
  195.076523 7.089939 1
  199.065811 39.059227 6
  224.104248 22.493065 4
//
