ACCESSION: MSBNK-NAIST-KNA00203
RECORD_TITLE: NAD+; LC-ESI-ITFT; MS2; m/z:664.12; POS
DATE: 2016.01.19 (Created 2009.11.17, modified 2011.08.03)
AUTHORS: Takahashi H, Kanaya S, Ogasawara N, Graduate School of Information Science, NAIST
LICENSE: CC BY-SA
CH$NAME: NAD+
CH$NAME: NAD
CH$NAME: Nicotinamide adenine dinucleotide
CH$NAME: DPN
CH$NAME: Diphosphopyridine nucleotide
CH$NAME: Nadide
CH$COMPOUND_CLASS: Natural Product
CH$FORMULA: [C21H28N7O14P2]+
CH$EXACT_MASS: 664.11695
CH$SMILES: C1=CC(=C[N+](=C1)[C@H]2[C@@H]([C@@H]([C@H](O2)COP(=O)(O)OP(=O)(O)OC[C@@H]3[C@H]([C@H]([C@@H](O3)N4C=NC5=C(N=CN=C54)N)O)O)O)O)C(=O)N
CH$IUPAC: InChI=1S/C21H27N7O14P2/c22-17-12-19(25-7-24-17)28(8-26-12)21-16(32)14(30)11(41-21)6-39-44(36,37)42-43(34,35)38-5-10-13(29)15(31)20(40-10)27-3-1-2-9(4-27)18(23)33/h1-4,7-8,10-11,13-16,20-21,29-32H,5-6H2,(H5-,22,23,24,25,33,34,35,36,37)/p+1/t10-,11-,13-,14-,15-,16-,20-,21-/m1/s1
CH$LINK: CAS 53-84-9
CH$LINK: CHEBI CHEBI:15846
CH$LINK: KEGG C00003
CH$LINK: KNAPSACK C00007256
CH$LINK: NIKKAJI J136.554A
CH$LINK: PUBCHEM CID:5893
CH$LINK: INCHIKEY BAWFJGJZGIEFAR-NNYOXOHSSA-O
AC$INSTRUMENT: LTQ Orbitrap XL, Thermo Scientfic
AC$INSTRUMENT_TYPE: LC-ESI-ITFT
AC$MASS_SPECTROMETRY: MS_TYPE MS2
AC$MASS_SPECTROMETRY: ION_MODE POSITIVE
AC$MASS_SPECTROMETRY: COLLISION_ENERGY 35eV
AC$MASS_SPECTROMETRY: IONIZATION ESI
AC$CHROMATOGRAPHY: COLUMN_NAME TOSOH TSKgel ODS-100V  5um Part no. 21456
AC$CHROMATOGRAPHY: FLOW_GRADIENT 0min:3%, 45min:97%, 50min:97%, 50.1:3%, 57min:3% (acetonitrile)
AC$CHROMATOGRAPHY: FLOW_RATE 0.5 ml/min
AC$CHROMATOGRAPHY: RETENTION_TIME 8.873013 min
AC$CHROMATOGRAPHY: SOLVENT A 0.1%formate-water
AC$CHROMATOGRAPHY: SOLVENT B 0.1%formate-acetonitrile
MS$FOCUSED_ION: BASE_PEAK 524.091675
MS$FOCUSED_ION: PRECURSOR_M/Z 664.12
PK$SPLASH: splash10-00dl-0000090000-d5bee11ebc0248e01135
PK$NUM_PEAK: 17
PK$PEAK: m/z int. rel.int.
  193.054749 103.071396 2
  215.869308 45.379013 1
  232.094589 3881.157227 57
  250.218964 183.561951 3
  312.128662 97.760490 1
  328.204620 47.125992 1
  330.132660 150.359619 2
  348.187195 546.335693 8
  371.084412 245.498322 4
  410.173706 675.435791 10
  428.110046 3087.307861 46
  444.165283 1005.603760 15
  452.241272 40.232040 1
  524.091675 67772.531250 999
  529.063965 404.231750 6
  542.055847 54639.480469 805
  542.762634 104.325752 2
//
