ACCESSION: MSBNK-NAIST-KNA00387
RECORD_TITLE: L-(-)-Phenylalanine; LC-ESI-ITFT; MS2; m/z:167.09; POS
DATE: 2016.01.19 (Created 2009.11.18, modified 2011.08.03)
AUTHORS: Takahashi H, Kanaya S, Ogasawara N, Graduate School of Information Science, NAIST
LICENSE: CC BY-SA
CH$NAME: L-Phenylalanine
CH$NAME: (S)-alpha-Amino-beta-phenylpropionic acid
CH$NAME: L-(-)-Phenylalanine
CH$COMPOUND_CLASS: Natural Product
CH$FORMULA: C9H11NO2
CH$EXACT_MASS: 165.07898
CH$SMILES: C1=CC=C(C=C1)C[C@@H](C(=O)O)N
CH$IUPAC: InChI=1S/C9H11NO2/c10-8(9(11)12)6-7-4-2-1-3-5-7/h1-5,8H,6,10H2,(H,11,12)/t8-/m0/s1
CH$LINK: CAS 63-91-2
CH$LINK: CHEBI CHEBI:17295
CH$LINK: KEGG C00079
CH$LINK: KNAPSACK C00001386
CH$LINK: NIKKAJI J9.175H
CH$LINK: PUBCHEM CID:6140
CH$LINK: INCHIKEY COLNVLDHVKWLRT-QMMMGPOBSA-N
CH$LINK: COMPTOX DTXSID4040763
AC$INSTRUMENT: LTQ Orbitrap XL, Thermo Scientfic
AC$INSTRUMENT_TYPE: LC-ESI-ITFT
AC$MASS_SPECTROMETRY: MS_TYPE MS2
AC$MASS_SPECTROMETRY: ION_MODE POSITIVE
AC$MASS_SPECTROMETRY: COLLISION_ENERGY 35eV
AC$MASS_SPECTROMETRY: IONIZATION ESI
AC$CHROMATOGRAPHY: COLUMN_NAME TOSOH TSKgel ODS-100V  5um Part no. 21456
AC$CHROMATOGRAPHY: FLOW_GRADIENT 0min:3%, 45min:97%, 50min:97%, 50.1:3%, 57min:3% (acetonitrile)
AC$CHROMATOGRAPHY: FLOW_RATE 0.5 ml/min
AC$CHROMATOGRAPHY: RETENTION_TIME 11.725802 min
AC$CHROMATOGRAPHY: SOLVENT A 0.1%formate-water
AC$CHROMATOGRAPHY: SOLVENT B 0.1%formate-acetonitrile
MS$FOCUSED_ION: BASE_PEAK 120.986328
MS$FOCUSED_ION: PRECURSOR_M/Z 167.09
PK$SPLASH: splash10-00di-0900000000-df5f72fe2bba91742427
PK$NUM_PEAK: 7
PK$PEAK: m/z int. rel.int.
  85.039253 9.408080 1
  103.186905 8.387278 1
  120.117477 2383.646729 149
  120.986328 15989.515625 999
  132.039261 86.523468 5
  149.151047 189.659775 12
  150.154419 897.048584 56
//
