ACCESSION: MSBNK-Env_Anal_Chem_U_Tuebingen-TUE00361
RECORD_TITLE: Guanylurea; LC-ESI-QTOF; MS2; CE: 10.0V; [M+H]+
DATE: 2015.11.27
AUTHORS: Lege S, Zwiener C, Environmental Analytical Chemistry (EAC), University of Tuebingen
LICENSE: CC BY
COPYRIGHT: Copyright (C) 2015, Environmental Analytical Chemistry (EAC), University of Tuebingen, Germany
COMMENT: CONFIDENCE Reference Standard (Level 1)
CH$NAME: Guanylurea
CH$COMPOUND_CLASS: N/A
CH$FORMULA: C2H6N4O
CH$EXACT_MASS: 102.05416
CH$SMILES: C(=NC(=O)N)(N)N
CH$IUPAC: InChI=1S/C2H6N4O/c3-1(4)6-2(5)7/h(H6,3,4,5,6,7)
CH$LINK: INCHIKEY SQSPRWMERUQXNE-UHFFFAOYSA-N
CH$LINK: CHEMSPIDER 8527
CH$LINK: COMPTOX DTXSID3043811
CH$LINK: PUBCHEM CID:8859
AC$INSTRUMENT: 6550 Q-TOF (Agilent Technologies)
AC$INSTRUMENT_TYPE: LC-ESI-QTOF
AC$MASS_SPECTROMETRY: MS_TYPE MS2
AC$MASS_SPECTROMETRY: ION_MODE POSITIVE
AC$MASS_SPECTROMETRY: COLLISION_ENERGY 10.0V
AC$MASS_SPECTROMETRY: RESOLUTION 12000 (m/z 120) - 26000 (m/z 1000)
AC$CHROMATOGRAPHY: COLUMN_NAME Flow injection
AC$CHROMATOGRAPHY: SOLVENT A AcN:H2O (50:50) + 0.1 % Acetic acid + 1mM Ammoniumacetate
MS$FOCUSED_ION: PRECURSOR_M/Z 103.06144
MS$FOCUSED_ION: PRECURSOR_TYPE [M+H]+
MS$DATA_PROCESSING: REMOVE_PEAK abs.int. < 50
MS$DATA_PROCESSING: REMOVE_PEAK rel.int. < 5
PK$SPLASH: splash10-03di-9000000000-39360ef4fca891bbb28b
PK$NUM_PEAK: 4
PK$PEAK: m/z int. rel.int.
  43.0287 3187 68
  60.0558 47030 999
  86.0349 6776 144
  103.0614 5380 114
//
