ACCESSION: MSBNK-Env_Anal_Chem_U_Tuebingen-TUE00122
RECORD_TITLE: Benzophenone-2; LC-ESI-QTOF; MS2; CE: 20.0V; [M+H]+
DATE: 2015.11.27
AUTHORS: Lege S, Zwiener C, Environmental Analytical Chemistry (EAC), University of Tuebingen
LICENSE: CC BY
COPYRIGHT: Copyright (C) 2015, Environmental Analytical Chemistry (EAC), University of Tuebingen, Germany
COMMENT: CONFIDENCE Reference Standard (Level 1)
CH$NAME: Benzophenone-2
CH$NAME: 2,2',4,4'-tetrahydroxybenzophenone
CH$COMPOUND_CLASS: N/A
CH$FORMULA: C13H10O5
CH$EXACT_MASS: 246.05282
CH$SMILES: c1cc(c(cc1O)O)C(=O)c2ccc(cc2O)O
CH$IUPAC: InChI=1S/C13H10O5/c14-7-1-3-9(11(16)5-7)13(18)10-4-2-8(15)6-12(10)17/h1-6,14-17H
CH$LINK: INCHIKEY WXNRYSGJLQFHBR-UHFFFAOYSA-N
CH$LINK: CHEMSPIDER 8253
CH$LINK: COMPTOX DTXSID5041306
CH$LINK: PUBCHEM CID:8571
AC$INSTRUMENT: 6550 Q-TOF (Agilent Technologies)
AC$INSTRUMENT_TYPE: LC-ESI-QTOF
AC$MASS_SPECTROMETRY: MS_TYPE MS2
AC$MASS_SPECTROMETRY: ION_MODE POSITIVE
AC$MASS_SPECTROMETRY: COLLISION_ENERGY 20.0V
AC$MASS_SPECTROMETRY: RESOLUTION 12000 (m/z 120) - 26000 (m/z 1000)
AC$CHROMATOGRAPHY: COLUMN_NAME Flow injection
AC$CHROMATOGRAPHY: SOLVENT A AcN:H2O (50:50) + 0.1 % Acetic acid + 1mM Ammoniumacetate
MS$FOCUSED_ION: PRECURSOR_M/Z 247.06010
MS$FOCUSED_ION: PRECURSOR_TYPE [M+H]+
MS$DATA_PROCESSING: REMOVE_PEAK abs.int. < 50
MS$DATA_PROCESSING: REMOVE_PEAK rel.int. < 5
PK$SPLASH: splash10-000i-0900000000-cde6cfbae52fdb374452
PK$NUM_PEAK: 8
PK$PEAK: m/z int. rel.int.
  42.0333 457 20
  81.0336 733 31
  104.9920 2232 96
  109.0272 147 6
  124.0867 3043 130
  137.0233 23339 999
  148.0865 134 6
  164.9207 564 24
//
