ACCESSION: MSBNK-Env_Anal_Chem_U_Tuebingen-TUE00152
RECORD_TITLE: Benzophenone-8; LC-ESI-QTOF; MS2; CE: 20.0V; [M+H]+
DATE: 2015.11.27
AUTHORS: Lege S, Zwiener C, Environmental Analytical Chemistry (EAC), University of Tuebingen
LICENSE: CC BY
COPYRIGHT: Copyright (C) 2015, Environmental Analytical Chemistry (EAC), University of Tuebingen, Germany
COMMENT: CONFIDENCE Reference Standard (Level 1)
CH$NAME: Benzophenone-8
CH$NAME: Dioxybenzone
CH$COMPOUND_CLASS: N/A
CH$FORMULA: C14H12O4
CH$EXACT_MASS: 244.07356
CH$SMILES: COc1ccc(c(c1)O)C(=O)c2ccccc2O
CH$IUPAC: InChI=1S/C14H12O4/c1-18-9-6-7-11(13(16)8-9)14(17)10-4-2-3-5-12(10)15/h2-8,15-16H,1H3
CH$LINK: INCHIKEY MEZZCSHVIGVWFI-UHFFFAOYSA-N
CH$LINK: CHEMSPIDER 8251
CH$LINK: COMPTOX DTXSID3022403
CH$LINK: PUBCHEM CID:8569
AC$INSTRUMENT: 6550 Q-TOF (Agilent Technologies)
AC$INSTRUMENT_TYPE: LC-ESI-QTOF
AC$MASS_SPECTROMETRY: MS_TYPE MS2
AC$MASS_SPECTROMETRY: ION_MODE POSITIVE
AC$MASS_SPECTROMETRY: COLLISION_ENERGY 20.0V
AC$MASS_SPECTROMETRY: RESOLUTION 12000 (m/z 120) - 26000 (m/z 1000)
AC$CHROMATOGRAPHY: COLUMN_NAME Flow injection
AC$CHROMATOGRAPHY: SOLVENT A AcN:H2O (50:50) + 0.1 % Acetic acid + 1mM Ammoniumacetate
MS$FOCUSED_ION: PRECURSOR_M/Z 245.08084
MS$FOCUSED_ION: PRECURSOR_TYPE [M+H]+
MS$DATA_PROCESSING: REMOVE_PEAK abs.int. < 50
MS$DATA_PROCESSING: REMOVE_PEAK rel.int. < 5
PK$SPLASH: splash10-00di-0900000000-47c83a7c750591adc5ae
PK$NUM_PEAK: 8
PK$PEAK: m/z int. rel.int.
  65.0380 419 26
  93.0333 560 35
  95.0480 244 15
  102.9684 365 23
  121.0284 15970 999
  123.0430 98 6
  151.0388 6944 434
  245.0813 218 14
//
