ACCESSION: MSBNK-Env_Anal_Chem_U_Tuebingen-TUE00167
RECORD_TITLE: Benzotriazole; LC-ESI-QTOF; MS2; CE: 40.0V; [M-H]-
DATE: 2015.11.27
AUTHORS: Lege S, Zwiener C, Environmental Analytical Chemistry (EAC), University of Tuebingen
LICENSE: CC BY
COPYRIGHT: Copyright (C) 2015, Environmental Analytical Chemistry (EAC), University of Tuebingen, Germany
COMMENT: CONFIDENCE Reference Standard (Level 1)
CH$NAME: Benzotriazole
CH$COMPOUND_CLASS: N/A
CH$FORMULA: C6H5N3
CH$EXACT_MASS: 119.04835
CH$SMILES: c1ccc2c(c1)[nH]nn2
CH$IUPAC: InChI=1S/C6H5N3/c1-2-4-6-5(3-1)7-9-8-6/h1-4H,(H,7,8,9)
CH$LINK: INCHIKEY QRUDEWIWKLJBPS-UHFFFAOYSA-N
CH$LINK: CHEMSPIDER 6950
CH$LINK: COMPTOX DTXSID6020147
CH$LINK: PUBCHEM CID:7220
AC$INSTRUMENT: 6550 Q-TOF (Agilent Technologies)
AC$INSTRUMENT_TYPE: LC-ESI-QTOF
AC$MASS_SPECTROMETRY: MS_TYPE MS2
AC$MASS_SPECTROMETRY: ION_MODE NEGATIVE
AC$MASS_SPECTROMETRY: COLLISION_ENERGY 40.0V
AC$MASS_SPECTROMETRY: RESOLUTION 12000 (m/z 120) - 26000 (m/z 1000)
AC$CHROMATOGRAPHY: COLUMN_NAME Flow injection
AC$CHROMATOGRAPHY: SOLVENT A AcN:H2O (50:50) + 0.1 % Acetic acid + 1mM Ammoniumacetate
MS$FOCUSED_ION: PRECURSOR_M/Z 118.04107
MS$FOCUSED_ION: PRECURSOR_TYPE [M-H]-
MS$DATA_PROCESSING: REMOVE_PEAK abs.int. < 50
MS$DATA_PROCESSING: REMOVE_PEAK rel.int. < 5
PK$SPLASH: splash10-0udi-9000000000-ba08f2ca031e44164696
PK$NUM_PEAK: 7
PK$PEAK: m/z int. rel.int.
  39.0233 693 23
  40.0186 1836 61
  49.0079 673 22
  50.0032 30079 999
  64.0190 1446 48
  90.0346 674 22
  118.0399 274 9
//
