ACCESSION: MSBNK-Env_Anal_Chem_U_Tuebingen-TUE00011
RECORD_TITLE: 2-Aminobenzimidazol; LC-ESI-QTOF; MS2; CE: 10.0V; [M+H]+
DATE: 2015.11.27
AUTHORS: Lege S, Zwiener C, Environmental Analytical Chemistry (EAC), University of Tuebingen
LICENSE: CC BY
COPYRIGHT: Copyright (C) 2015, Environmental Analytical Chemistry (EAC), University of Tuebingen, Germany
COMMENT: CONFIDENCE Reference Standard (Level 1)
CH$NAME: 2-Aminobenzimidazol
CH$COMPOUND_CLASS: N/A
CH$FORMULA: C7H7N3
CH$EXACT_MASS: 133.06400
CH$SMILES: c1ccc2c(c1)[nH]c(=N)[nH]2
CH$IUPAC: InChI=1S/C7H7N3/c8-7-9-5-3-1-2-4-6(5)10-7/h1-4H,(H3,8,9,10)
CH$LINK: INCHIKEY JWYUFVNJZUSCSM-UHFFFAOYSA-N
CH$LINK: CHEMSPIDER 13035
CH$LINK: COMPTOX DTXSID1024465
CH$LINK: PUBCHEM CID:13624
AC$INSTRUMENT: 6550 Q-TOF (Agilent Technologies)
AC$INSTRUMENT_TYPE: LC-ESI-QTOF
AC$MASS_SPECTROMETRY: MS_TYPE MS2
AC$MASS_SPECTROMETRY: ION_MODE POSITIVE
AC$MASS_SPECTROMETRY: COLLISION_ENERGY 10.0V
AC$MASS_SPECTROMETRY: RESOLUTION 12000 (m/z 120) - 26000 (m/z 1000)
AC$CHROMATOGRAPHY: COLUMN_NAME Flow injection
AC$CHROMATOGRAPHY: SOLVENT A AcN:H2O (50:50) + 0.1 % Acetic acid + 1mM Ammoniumacetate
MS$FOCUSED_ION: PRECURSOR_M/Z 134.07128
MS$FOCUSED_ION: PRECURSOR_TYPE [M+H]+
MS$DATA_PROCESSING: REMOVE_PEAK abs.int. < 50
MS$DATA_PROCESSING: REMOVE_PEAK rel.int. < 5
PK$SPLASH: splash10-001i-0900000000-b988732d4c15fb2d8fe0
PK$NUM_PEAK: 2
PK$PEAK: m/z int. rel.int.
  92.0495 5520 16
  134.0713 342374 999
//
