ACCESSION: MSBNK-Env_Anal_Chem_U_Tuebingen-TUE00832
RECORD_TITLE: Benzyldiethylamine; LC-ESI-QTOF; MS2; CE: 20.0V; [M+H]+
DATE: 2019.01.15
AUTHORS: Lege S, Zwiener C, Environmental Analytical Chemistry (EAC), University of Tuebingen
LICENSE: CC BY
COPYRIGHT: Copyright (C) 2019, Environmental Analytical Chemistry (EAC), University of Tuebingen, Germany
COMMENT: CONFIDENCE Reference Standard (Level 1)
CH$NAME: Benzyldiethylamine
CH$COMPOUND_CLASS: N/A
CH$FORMULA: C11H17N
CH$EXACT_MASS: 163.13610
CH$SMILES: CCN(CC)Cc1ccccc1
CH$IUPAC: InChI=1S/C11H17N/c1-3-12(4-2)10-11-8-6-5-7-9-11/h5-9H,3-4,10H2,1-2H3
CH$LINK: INCHIKEY ZWRDBWDXRLPESY-UHFFFAOYSA-N
CH$LINK: CHEMSPIDER 55154
CH$LINK: COMPTOX DTXSID6073237
CH$LINK: PUBCHEM CID:61211
AC$INSTRUMENT: 6550 QTOF (Agilent Technologies)
AC$INSTRUMENT_TYPE: LC-ESI-QTOF
AC$MASS_SPECTROMETRY: MS_TYPE MS2
AC$MASS_SPECTROMETRY: ION_MODE POSITIVE
AC$MASS_SPECTROMETRY: COLLISION_ENERGY 20.0V
AC$MASS_SPECTROMETRY: RESOLUTION 13000 (m/z 118) - 26000 (m/z 922)
AC$CHROMATOGRAPHY: COLUMN_NAME Flow injection
AC$CHROMATOGRAPHY: SOLVENT A AcN:H2O (50:50) + 0.1 % Acetic acid + 1mM Ammoniumacetate
MS$FOCUSED_ION: PRECURSOR_M/Z 164.14338
MS$FOCUSED_ION: PRECURSOR_TYPE [M+H]+
MS$DATA_PROCESSING: REMOVE_PEAK abs.int. < 50
MS$DATA_PROCESSING: REMOVE_PEAK rel.int. < 5
PK$SPLASH: splash10-0006-9000000000-ed403b7a1c18b9a9b38e
PK$NUM_PEAK: 4
PK$PEAK: m/z int. rel.int.
  65.0384 10733 24
  72.0805 18168 41
  81.9371 3116 7
  91.0540 442143 999
//
