ACCESSION: MSBNK-NaToxAq-NA001498
RECORD_TITLE: 2-O-Methyladenosine; LC-ESI-ITFT; MS2; CE: 65%; R=15000; [M+H]+
DATE: 2019.07.31
AUTHORS: Tobias Schulze, Vaidotas Kisielius, Xiaomeng Liang, Mulatu Yohannes Nanusha, Martin Krauss, Helmholtz Centre for Environmental Research GmbH - UFZ, Leipzig, Germany and University of Copenhagen (UCPH), Denmark
LICENSE: CC BY
COPYRIGHT: Copyright (C) 2019
COMMENT: CONFIDENCE Reference Standard (Level 1)
COMMENT: INTERNAL_ID 5
CH$NAME: 2-O-Methyladenosine
CH$COMPOUND_CLASS: N/A; Environmental Standard
CH$FORMULA: C11H15N5O4
CH$EXACT_MASS: 281.1124
CH$SMILES: COC1C(O)C(CO)OC1N1C=NC2=C(N)N=CN=C12
CH$IUPAC: InChI=1S/C11H15N5O4/c1-19-8-7(18)5(2-17)20-11(8)16-4-15-6-9(12)13-3-14-10(6)16/h3-5,7-8,11,17-18H,2H2,1H3,(H2,12,13,14)
CH$LINK: INCHIKEY FPUGCISOLXNPPC-UHFFFAOYSA-N
CH$LINK: PUBCHEM CID:317398
CH$LINK: COMPTOX DTXSID40312038
AC$INSTRUMENT: LTQ Orbitrap XL Thermo Scientific
AC$INSTRUMENT_TYPE: LC-ESI-ITFT
AC$MASS_SPECTROMETRY: MS_TYPE MS2
AC$MASS_SPECTROMETRY: ION_MODE POSITIVE
AC$MASS_SPECTROMETRY: IONIZATION ESI
AC$MASS_SPECTROMETRY: FRAGMENTATION_MODE CID
AC$MASS_SPECTROMETRY: COLLISION_ENERGY 65 % (nominal)
AC$MASS_SPECTROMETRY: RESOLUTION 15000
AC$CHROMATOGRAPHY: COLUMN_NAME Kinetex Evo C18 2.6 um 50x2.1 mm, Phenomenex
AC$CHROMATOGRAPHY: FLOW_GRADIENT 95/5 at 0 min, 95/5 at 1 min, 0/100 at 13 min, 0/100 at 24 min, 95/5 at 24.3 min, 95/5/0 at 32 min
AC$CHROMATOGRAPHY: FLOW_RATE 300 uL/min
AC$CHROMATOGRAPHY: RETENTION_TIME 0.722 min
AC$CHROMATOGRAPHY: SOLVENT A water with 0.1% formic acid
AC$CHROMATOGRAPHY: SOLVENT B methanol with 0.1% formic acid
MS$FOCUSED_ION: BASE_PEAK 128.1432
MS$FOCUSED_ION: PRECURSOR_M/Z 282.1197
MS$FOCUSED_ION: PRECURSOR_TYPE [M+H]+
MS$DATA_PROCESSING: RECALIBRATE loess on assigned fragments and MS1
MS$DATA_PROCESSING: REANALYZE Peaks with additional N2/O included
MS$DATA_PROCESSING: WHOLE RMassBank 2.12.0
PK$SPLASH: splash10-000i-0900000000-76add7d53e7aad5d2c3a
PK$ANNOTATION: m/z tentative_formula formula_count mass error(ppm)
  119.0354 C5H3N4+ 1 119.0352 1.77
  136.0619 C5H6N5+ 1 136.0618 0.95
PK$NUM_PEAK: 2
PK$PEAK: m/z int. rel.int.
  119.0354 2092.9 2
  136.0619 858550.9 999
//
