ACCESSION: MSBNK-NaToxAq-NA002662
RECORD_TITLE: Papaverin; LC-ESI-ITFT; MS2; CE: 35%; R=15000; [M+H]+
DATE: 2020.02.21
AUTHORS: Tobias Schulze, Martin Krauss, Helmholtz Centre for Environmental Research GmbH - UFZ, Leipzig, Germany
LICENSE: CC0
COPYRIGHT: Copyright (C) 2020 by Helmholtz Centre for Environmental Research GmbH - UFZ, Leipzig, Germany
COMMENT: CONFIDENCE Reference Standard (Level 1)
COMMENT: INTERNAL_ID 2252
CH$NAME: Papaverin
CH$NAME: Papaverine
CH$NAME: 1-[(3,4-dimethoxyphenyl)methyl]-6,7-dimethoxyisoquinoline
CH$COMPOUND_CLASS: N/A; Environmental Standard
CH$FORMULA: C20H21NO4
CH$EXACT_MASS: 339.1471
CH$SMILES: COC1=C(C=C(C=C1)CC2=NC=CC3=CC(=C(C=C32)OC)OC)OC
CH$IUPAC: InChI=1S/C20H21NO4/c1-22-17-6-5-13(10-18(17)23-2)9-16-15-12-20(25-4)19(24-3)11-14(15)7-8-21-16/h5-8,10-12H,9H2,1-4H3
CH$LINK: CAS 58-74-2
CH$LINK: CHEBI CHEBI:28241
CH$LINK: KEGG C06533
CH$LINK: PUBCHEM CID:4680
CH$LINK: INCHIKEY XQYZDYMELSJDRZ-UHFFFAOYSA-N
CH$LINK: CHEMSPIDER 4518
CH$LINK: COMPTOX DTXSID4023418
AC$INSTRUMENT: LTQ Orbitrap XL Thermo Scientific
AC$INSTRUMENT_TYPE: LC-ESI-ITFT
AC$MASS_SPECTROMETRY: MS_TYPE MS2
AC$MASS_SPECTROMETRY: ION_MODE POSITIVE
AC$MASS_SPECTROMETRY: IONIZATION ESI
AC$MASS_SPECTROMETRY: FRAGMENTATION_MODE HCD
AC$MASS_SPECTROMETRY: COLLISION_ENERGY 35% (nominal)
AC$MASS_SPECTROMETRY: RESOLUTION 15000
AC$CHROMATOGRAPHY: COLUMN_NAME Kinetex Evo C18 2.6 um 50x2.1 mm, Phenomenex
AC$CHROMATOGRAPHY: FLOW_GRADIENT 95/5 at 0 min, 95/5 at 1 min, 0/100 at 13 min, 0/100 at 24 min, 95/5 at 24.3 min, 95/5/0 at 32 min
AC$CHROMATOGRAPHY: FLOW_RATE 300 uL/min
AC$CHROMATOGRAPHY: RETENTION_TIME 7.598 min
AC$CHROMATOGRAPHY: SOLVENT A water with 0.1% formic acid
AC$CHROMATOGRAPHY: SOLVENT B methanol with 0.1% formic acid
MS$FOCUSED_ION: BASE_PEAK 340.1542
MS$FOCUSED_ION: PRECURSOR_M/Z 340.1543
MS$FOCUSED_ION: PRECURSOR_TYPE [M+H]+
MS$DATA_PROCESSING: RECALIBRATE loess on assigned fragments and MS1
MS$DATA_PROCESSING: REANALYZE Peaks with additional N2/O included
MS$DATA_PROCESSING: WHOLE RMassBank 2.14.1
PK$SPLASH: splash10-0006-0019000000-145395dcf16a359168a1
PK$ANNOTATION: m/z tentative_formula formula_count mass error(ppm)
  202.0862 C12H12NO2+ 1 202.0863 -0.35
  295.1205 C18H17NO3+ 1 295.1203 0.6
  296.1282 C18H18NO3+ 1 296.1281 0.14
  310.1071 C18H16NO4+ 1 310.1074 -0.91
  324.1228 C19H18NO4+ 1 324.123 -0.68
  325.1309 C19H19NO4+ 1 325.1309 0.13
  340.1541 C20H22NO4+ 1 340.1543 -0.6
PK$NUM_PEAK: 7
PK$PEAK: m/z int. rel.int.
  202.0862 383620.9 138
  295.1205 4790.9 1
  296.1282 13404.8 4
  310.1071 4001.4 1
  324.1228 66701.1 24
  325.1309 81272.3 29
  340.1541 2760872.2 999
//
