ACCESSION: MSBNK-NaToxAq-NA003545
RECORD_TITLE: Hordenine; LC-ESI-ITFT; MS2; CE: 90%; R=15000; [M+H]+
DATE: 2020.02.22
AUTHORS: Tobias Schulze, Martin Krauss, Helmholtz Centre for Environmental Research GmbH - UFZ, Leipzig, Germany
LICENSE: CC0
COPYRIGHT: Copyright (C) 2020 by Helmholtz Centre for Environmental Research GmbH - UFZ, Leipzig, Germany
COMMENT: CONFIDENCE Reference Standard (Level 1)
COMMENT: INTERNAL_ID 2289
CH$NAME: Hordenine
CH$NAME: 4-[2-(dimethylamino)ethyl]phenol
CH$COMPOUND_CLASS: N/A; Environmental Standard
CH$FORMULA: C10H15NO
CH$EXACT_MASS: 165.1154
CH$SMILES: CN(C)CCc1ccc(cc1)O
CH$IUPAC: InChI=1S/C10H15NO/c1-11(2)8-7-9-3-5-10(12)6-4-9/h3-6,12H,7-8H2,1-2H3
CH$LINK: CAS 539-15-1
CH$LINK: CHEBI CHEBI:5764
CH$LINK: KEGG C06199
CH$LINK: PUBCHEM CID:68313
CH$LINK: INCHIKEY KUBCEEMXQZUPDQ-UHFFFAOYSA-N
CH$LINK: CHEMSPIDER 61609
CH$LINK: COMPTOX DTXSID2046096
AC$INSTRUMENT: LTQ Orbitrap XL Thermo Scientific
AC$INSTRUMENT_TYPE: LC-ESI-ITFT
AC$MASS_SPECTROMETRY: MS_TYPE MS2
AC$MASS_SPECTROMETRY: ION_MODE POSITIVE
AC$MASS_SPECTROMETRY: IONIZATION ESI
AC$MASS_SPECTROMETRY: FRAGMENTATION_MODE HCD
AC$MASS_SPECTROMETRY: COLLISION_ENERGY 90% (nominal)
AC$MASS_SPECTROMETRY: RESOLUTION 15000
AC$CHROMATOGRAPHY: COLUMN_NAME Kinetex Evo C18 2.6 um 50x2.1 mm, Phenomenex
AC$CHROMATOGRAPHY: FLOW_GRADIENT 95/5 at 0 min, 95/5 at 1 min, 0/100 at 13 min, 0/100 at 24 min, 95/5 at 24.3 min, 95/5/0 at 32 min
AC$CHROMATOGRAPHY: FLOW_RATE 300 uL/min
AC$CHROMATOGRAPHY: RETENTION_TIME 0.547 min
AC$CHROMATOGRAPHY: SOLVENT A water with 0.1% formic acid
AC$CHROMATOGRAPHY: SOLVENT B methanol with 0.1% formic acid
MS$FOCUSED_ION: BASE_PEAK 143.0014
MS$FOCUSED_ION: PRECURSOR_M/Z 166.1226
MS$FOCUSED_ION: PRECURSOR_TYPE [M+H]+
MS$DATA_PROCESSING: RECALIBRATE loess on assigned fragments and MS1
MS$DATA_PROCESSING: REANALYZE Peaks with additional N2/O included
MS$DATA_PROCESSING: WHOLE RMassBank 2.14.1
PK$SPLASH: splash10-0fkc-5900000000-21a601db06d60ed77353
PK$ANNOTATION: m/z tentative_formula formula_count mass error(ppm)
  77.0386 C6H5+ 1 77.0386 0.22
  91.0542 C7H7+ 1 91.0542 -0.04
  93.0699 C7H9+ 1 93.0699 -0.16
  95.0491 C6H7O+ 1 95.0491 -0.64
  103.0542 C8H7+ 1 103.0542 -0.18
  121.0648 C8H9O+ 1 121.0648 -0.08
PK$NUM_PEAK: 6
PK$PEAK: m/z int. rel.int.
  77.0386 71466.9 269
  91.0542 87318.6 329
  93.0699 109660.4 414
  95.0491 7276 27
  103.0542 167822 633
  121.0648 264539 999
//
