ACCESSION: MSBNK-NaToxAq-NA001564
RECORD_TITLE: 4-Phenyl-3-buten-2-one; LC-ESI-ITFT; MS2; CE: 75%; R=15000; [M+H]+
DATE: 2019.07.31
AUTHORS: Tobias Schulze, Vaidotas Kisielius, Xiaomeng Liang, Mulatu Yohannes Nanusha, Martin Krauss, Helmholtz Centre for Environmental Research GmbH - UFZ, Leipzig, Germany and University of Copenhagen (UCPH), Denmark
LICENSE: CC BY
COPYRIGHT: Copyright (C) 2019
COMMENT: CONFIDENCE Reference Standard (Level 1)
COMMENT: INTERNAL_ID 6
CH$NAME: 4-Phenyl-3-buten-2-one
CH$COMPOUND_CLASS: N/A; Environmental Standard
CH$FORMULA: C10H10O
CH$EXACT_MASS: 146.0732
CH$SMILES: CC(=O)\C=C\C1=CC=CC=C1
CH$IUPAC: InChI=1S/C10H10O/c1-9(11)7-8-10-5-3-2-4-6-10/h2-8H,1H3/b8-7+
CH$LINK: INCHIKEY BWHOZHOGCMHOBV-BQYQJAHWSA-N
CH$LINK: PUBCHEM CID:637759
CH$LINK: COMPTOX DTXSID1031626
AC$INSTRUMENT: LTQ Orbitrap XL Thermo Scientific
AC$INSTRUMENT_TYPE: LC-ESI-ITFT
AC$MASS_SPECTROMETRY: MS_TYPE MS2
AC$MASS_SPECTROMETRY: ION_MODE POSITIVE
AC$MASS_SPECTROMETRY: IONIZATION ESI
AC$MASS_SPECTROMETRY: FRAGMENTATION_MODE HCD
AC$MASS_SPECTROMETRY: COLLISION_ENERGY 75 % (nominal)
AC$MASS_SPECTROMETRY: RESOLUTION 15000
AC$CHROMATOGRAPHY: COLUMN_NAME Kinetex Evo C18 2.6 um 50x2.1 mm, Phenomenex
AC$CHROMATOGRAPHY: FLOW_GRADIENT 95/5 at 0 min, 95/5 at 1 min, 0/100 at 13 min, 0/100 at 24 min, 95/5 at 24.3 min, 95/5/0 at 32 min
AC$CHROMATOGRAPHY: FLOW_RATE 300 uL/min
AC$CHROMATOGRAPHY: RETENTION_TIME 9.231 min
AC$CHROMATOGRAPHY: SOLVENT A water with 0.1% formic acid
AC$CHROMATOGRAPHY: SOLVENT B methanol with 0.1% formic acid
MS$FOCUSED_ION: BASE_PEAK 147.0804
MS$FOCUSED_ION: PRECURSOR_M/Z 147.0804
MS$FOCUSED_ION: PRECURSOR_TYPE [M+H]+
MS$DATA_PROCESSING: RECALIBRATE loess on assigned fragments and MS1
MS$DATA_PROCESSING: REANALYZE Peaks with additional N2/O included
MS$DATA_PROCESSING: WHOLE RMassBank 2.12.0
PK$SPLASH: splash10-004i-0900000000-e43f9247fc811864ddc9
PK$ANNOTATION: m/z tentative_formula formula_count mass error(ppm)
  69.0334 C4H5O+ 1 69.0335 -0.82
  79.0542 C6H7+ 1 79.0542 -0.62
  91.0542 C7H7+ 1 91.0542 -0.27
  103.0542 C8H7+ 1 103.0542 -0.11
  105.0335 C7H5O+ 1 105.0335 0.49
  105.0698 C8H9+ 1 105.0699 -0.9
  107.049 C7H7O+ 1 107.0491 -1.15
  115.0542 C9H7+ 1 115.0542 0.03
  117.0698 C9H9+ 1 117.0699 -0.77
  119.049 C8H7O+ 1 119.0491 -1.2
  119.0855 C9H11+ 1 119.0855 -0.18
  127.0541 C10H7+ 1 127.0542 -1.07
  128.062 C10H8+ 1 128.0621 -0.24
  129.0698 C10H9+ 1 129.0699 -0.83
  132.057 C9H8O+ 1 132.057 0.05
  145.0647 C10H9O+ 1 145.0648 -0.84
  147.0804 C10H11O+ 1 147.0804 -0.61
PK$NUM_PEAK: 17
PK$PEAK: m/z int. rel.int.
  69.0334 3117.5 6
  79.0542 11480.1 23
  91.0542 50520.3 105
  103.0542 11106.5 23
  105.0335 2817.6 5
  105.0698 9294.5 19
  107.049 4943.9 10
  115.0542 2882.3 5
  117.0698 9505.3 19
  119.049 4029.1 8
  119.0855 11364.6 23
  127.0541 5035.2 10
  128.062 255326.7 530
  129.0698 480628.1 999
  132.057 7632.7 15
  145.0647 13169.4 27
  147.0804 86541.2 179
//
