ACCESSION: MSBNK-NaToxAq-NA001587
RECORD_TITLE: Bergapten/Heraclin; LC-ESI-ITFT; MS2; CE: 70%; R=15000; [M+H]+
DATE: 2019.07.31
AUTHORS: Tobias Schulze, Vaidotas Kisielius, Xiaomeng Liang, Mulatu Yohannes Nanusha, Martin Krauss, Helmholtz Centre for Environmental Research GmbH - UFZ, Leipzig, Germany and University of Copenhagen (UCPH), Denmark
LICENSE: CC BY
COPYRIGHT: Copyright (C) 2019
COMMENT: CONFIDENCE Reference Standard (Level 1)
COMMENT: INTERNAL_ID 10
CH$NAME: Bergapten/Heraclin
CH$COMPOUND_CLASS: N/A; Environmental Standard
CH$FORMULA: C12H8O4
CH$EXACT_MASS: 216.0423
CH$SMILES: COC1=C2C=COC2=CC2=C1C=CC(=O)O2
CH$IUPAC: InChI=1S/C12H8O4/c1-14-12-7-2-3-11(13)16-10(7)6-9-8(12)4-5-15-9/h2-6H,1H3
CH$LINK: INCHIKEY BGEBZHIAGXMEMV-UHFFFAOYSA-N
CH$LINK: PUBCHEM CID:2355
CH$LINK: COMPTOX DTXSID1025560
AC$INSTRUMENT: LTQ Orbitrap XL Thermo Scientific
AC$INSTRUMENT_TYPE: LC-ESI-ITFT
AC$MASS_SPECTROMETRY: MS_TYPE MS2
AC$MASS_SPECTROMETRY: ION_MODE POSITIVE
AC$MASS_SPECTROMETRY: IONIZATION ESI
AC$MASS_SPECTROMETRY: FRAGMENTATION_MODE CID
AC$MASS_SPECTROMETRY: COLLISION_ENERGY 70 % (nominal)
AC$MASS_SPECTROMETRY: RESOLUTION 15000
AC$CHROMATOGRAPHY: COLUMN_NAME Kinetex Evo C18 2.6 um 50x2.1 mm, Phenomenex
AC$CHROMATOGRAPHY: FLOW_GRADIENT 95/5 at 0 min, 95/5 at 1 min, 0/100 at 13 min, 0/100 at 24 min, 95/5 at 24.3 min, 95/5/0 at 32 min
AC$CHROMATOGRAPHY: FLOW_RATE 300 uL/min
AC$CHROMATOGRAPHY: RETENTION_TIME 9.965 min
AC$CHROMATOGRAPHY: SOLVENT A water with 0.1% formic acid
AC$CHROMATOGRAPHY: SOLVENT B methanol with 0.1% formic acid
MS$FOCUSED_ION: BASE_PEAK 217.0493
MS$FOCUSED_ION: PRECURSOR_M/Z 217.0495
MS$FOCUSED_ION: PRECURSOR_TYPE [M+H]+
MS$DATA_PROCESSING: RECALIBRATE loess on assigned fragments and MS1
MS$DATA_PROCESSING: REANALYZE Peaks with additional N2/O included
MS$DATA_PROCESSING: WHOLE RMassBank 2.12.0
PK$SPLASH: splash10-0udi-0290000000-9c4d5caa0eaefed2dbec
PK$ANNOTATION: m/z tentative_formula formula_count mass error(ppm)
  115.0542 C9H7+ 1 115.0542 -0.24
  117.0699 C9H9+ 1 117.0699 -0.18
  131.049 C9H7O+ 1 131.0491 -0.76
  133.065 C9H9O+ 1 133.0648 1.21
  143.0491 C10H7O+ 1 143.0491 -0.12
  145.0648 C10H9O+ 1 145.0648 0.21
  158.0361 C10H6O2+ 1 158.0362 -0.62
  161.0597 C10H9O2+ 1 161.0597 -0.22
  171.0436 C11H7O2+ 1 171.0441 -2.9
  173.0597 C11H9O2+ 1 173.0597 0.14
  174.0315 C10H6O3+ 1 174.0311 2.29
  189.0546 C11H9O3+ 1 189.0546 -0.04
  199.0387 C12H7O3+ 1 199.039 -1.12
  202.026 C11H6O4+ 1 202.0261 -0.26
PK$NUM_PEAK: 14
PK$PEAK: m/z int. rel.int.
  115.0542 516244.9 21
  117.0699 550843.8 23
  131.049 47585.9 2
  133.065 76240 3
  143.0491 174287.6 7
  145.0648 421578.9 17
  158.0361 162449 6
  161.0597 461580.4 19
  171.0436 34181.6 1
  173.0597 3621926 153
  174.0315 86295.2 3
  189.0546 550577.9 23
  199.0387 28018 1
  202.026 23611472 999
//
