ACCESSION: MSBNK-NaToxAq-NA000734
RECORD_TITLE: Retrorsine; LC-ESI-ITFT; MS2; CE: 85%; R=15000; [M+H]+
DATE: 2019.02.28
AUTHORS: Tobias Schulze, Jawameer Hama, Hubert Schupke, Martin Krauss, Helmholtz Centre for Environmental Research GmbH - UFZ, Leipzig, Germany and University of Copenhagen (UCPH), Denmark
LICENSE: CC BY
COPYRIGHT: Copyright (C) 2019
COMMENT: CONFIDENCE Reference Standard (Level 1)
COMMENT: INTERNAL_ID 167
CH$NAME: Retrorsine
CH$NAME: beta-Longilobine
CH$NAME: (1R,4Z,6R,7S,17R)-4-ethylidene-7-hydroxy-7-(hydroxymethyl)-6-methyl-2,9-dioxa-14-azatricyclo[9.5.1.0^{14,17}]heptadec-11-ene-3,8-dione
CH$COMPOUND_CLASS: N/A; Environmental Standard
CH$FORMULA: C18H25NO6
CH$EXACT_MASS: 351.1682
CH$SMILES: C\C=C1\C[C@@H](C)[C@](O)(CO)C(=O)OCC2=CCN3CC[C@@H](OC1=O)[C@@H]23
CH$IUPAC: InChI=1S/C18H25NO6/c1-3-12-8-11(2)18(23,10-20)17(22)24-9-13-4-6-19-7-5-14(15(13)19)25-16(12)21/h3-4,11,14-15,20,23H,5-10H2,1-2H3/b12-3-/t11-,14-,15-,18-/m1/s1
CH$LINK: CAS 480-54-6
CH$LINK: CHEBI CHEBI:8822
CH$LINK: KEGG C10364
CH$LINK: PUBCHEM CID:5281743
CH$LINK: INCHIKEY BCJMNZRQJAVDLD-CQRYIUNCSA-N
CH$LINK: CHEMSPIDER 10202249
CH$LINK: COMPTOX DTXSID6021242
AC$INSTRUMENT: LTQ Orbitrap XL Thermo Scientific
AC$INSTRUMENT_TYPE: LC-ESI-ITFT
AC$MASS_SPECTROMETRY: MS_TYPE MS2
AC$MASS_SPECTROMETRY: ION_MODE POSITIVE
AC$MASS_SPECTROMETRY: IONIZATION ESI
AC$MASS_SPECTROMETRY: FRAGMENTATION_MODE CID
AC$MASS_SPECTROMETRY: COLLISION_ENERGY 85 % (nominal)
AC$MASS_SPECTROMETRY: RESOLUTION 15000
AC$CHROMATOGRAPHY: COLUMN_NAME Kinetex Evo C18 2.6 um 50x2.1 mm, Phenomenex
AC$CHROMATOGRAPHY: FLOW_GRADIENT 95/5 at 0 min, 95/5 at 1 min, 0/100 at 13 min, 0/100 at 24 min, 95/5 at 24.3 min, 95/5 at 32 min
AC$CHROMATOGRAPHY: FLOW_RATE 300 uL/min
AC$CHROMATOGRAPHY: RETENTION_TIME 2.486 min
AC$CHROMATOGRAPHY: SOLVENT A water with 0.1% formic acid
AC$CHROMATOGRAPHY: SOLVENT B methanol with 0.1% formic acid
MS$FOCUSED_ION: BASE_PEAK 61.0394
MS$FOCUSED_ION: PRECURSOR_M/Z 352.1755
MS$FOCUSED_ION: PRECURSOR_TYPE [M+H]+
MS$DATA_PROCESSING: RECALIBRATE loess on assigned fragments and MS1
MS$DATA_PROCESSING: REANALYZE Peaks with additional N2/O included
MS$DATA_PROCESSING: WHOLE RMassBank 2.11.0
PK$SPLASH: splash10-00di-0319000000-ec41e9c7135c72e5fd86
PK$ANNOTATION: m/z tentative_formula formula_count mass error(ppm)
  103.0542 C8H7+ 1 103.0542 0.08
  118.0652 C8H8N+ 1 118.0651 0.43
  120.0808 C8H10N+ 1 120.0808 0.37
  122.0964 C8H12N+ 1 122.0964 -0.47
  138.0914 C8H12NO+ 1 138.0913 0.48
  140.1071 C8H14NO+ 1 140.107 0.99
  151.0753 C9H11O2+ 1 151.0754 -0.56
  169.0858 C9H13O3+ 1 169.0859 -0.65
  220.1334 C13H18NO2+ 1 220.1332 0.71
  242.1537 C16H20NO+ 1 242.1539 -1.16
  258.1498 C16H20NO2+ 1 258.1489 3.56
  276.1595 C16H22NO3+ 1 276.1594 0.13
  290.1748 C17H24NO3+ 1 290.1751 -0.84
  294.1712 C16H24NO4+ 1 294.17 4.05
  304.1543 C17H22NO4+ 1 304.1543 -0.01
  306.1699 C17H24NO4+ 1 306.17 -0.27
  308.1855 C17H26NO4+ 1 308.1856 -0.52
  322.1651 C17H24NO5+ 1 322.1649 0.74
  324.1807 C17H26NO5+ 1 324.1805 0.4
  334.1642 C18H24NO5+ 1 334.1649 -1.97
PK$NUM_PEAK: 20
PK$PEAK: m/z int. rel.int.
  103.0542 2481.1 12
  118.0652 4198.1 21
  120.0808 52950.4 274
  122.0964 4237.5 21
  138.0914 29947.6 155
  140.1071 2634.3 13
  151.0753 4743.6 24
  169.0858 2342.5 12
  220.1334 5235.1 27
  242.1537 1825.8 9
  258.1498 2201 11
  276.1595 38841.2 201
  290.1748 5871.4 30
  294.1712 2695.7 13
  304.1543 4179.6 21
  306.1699 11459.1 59
  308.1855 3914.6 20
  322.1651 50435.3 261
  324.1807 192774.5 999
  334.1642 1504.7 7
//
