ACCESSION: MSBNK-NaToxAq-NA000181
RECORD_TITLE: 4-Hydroxycoumarin; LC-ESI-ITFT; MS2; CE: 80%; R=15000; [M+H]+
DATE: 2018.08.29
AUTHORS: Tobias Schulze, Hubert Schupke, Martin Krauss, Department of Effect-Directed Analysis, Helmholtz Centre for Environmental Research GmbH - UFZ, Leipzig, Germany
LICENSE: CC BY
COPYRIGHT: Copyright (C) 2018
COMMENT: CONFIDENCE Reference Standard (Level 1)
COMMENT: NaToxAq - Natural Toxins and Drinking Water Quality - From Source to Tap (https://natoxaq.ku.dk)
CH$NAME: 4-Hydroxycoumarin
CH$NAME: 4-hydroxychromen-2-one
CH$COMPOUND_CLASS: N/A; Environmental Standard
CH$FORMULA: C9H6O3
CH$EXACT_MASS: 162.0317
CH$SMILES: OC1=CC(=O)OC2=CC=CC=C12
CH$IUPAC: InChI=1S/C9H6O3/c10-7-5-9(11)12-8-4-2-1-3-6(7)8/h1-5,10H
CH$LINK: CAS 1076-38-6
CH$LINK: CHEBI CHEBI:40070
CH$LINK: KEGG C20414
CH$LINK: PUBCHEM CID:54682930
CH$LINK: INCHIKEY VXIXUWQIVKSKSA-UHFFFAOYSA-N
CH$LINK: CHEMSPIDER 10254753
CH$LINK: COMPTOX DTXSID8061472
AC$INSTRUMENT: LTQ Orbitrap XL Thermo Scientific
AC$INSTRUMENT_TYPE: LC-ESI-ITFT
AC$MASS_SPECTROMETRY: MS_TYPE MS2
AC$MASS_SPECTROMETRY: ION_MODE POSITIVE
AC$MASS_SPECTROMETRY: IONIZATION ESI
AC$MASS_SPECTROMETRY: FRAGMENTATION_MODE HCD
AC$MASS_SPECTROMETRY: COLLISION_ENERGY 80 % (nominal)
AC$MASS_SPECTROMETRY: RESOLUTION 15000
AC$CHROMATOGRAPHY: COLUMN_NAME Kinetex Evo C18 2.6 um 50x2.1 mm, Phenomenex
AC$CHROMATOGRAPHY: FLOW_GRADIENT 95/5 at 0 min, 95/5 at 1 min, 0/100 at 13 min, 0/100 at 24 min, 95/5 at 24.3 min, 95/5 at 32 min
AC$CHROMATOGRAPHY: FLOW_RATE 300 uL/min
AC$CHROMATOGRAPHY: RETENTION_TIME 7.999 min
AC$CHROMATOGRAPHY: SOLVENT A water with 0.1% formic acid
AC$CHROMATOGRAPHY: SOLVENT B methanol with 0.1% formic acid
MS$FOCUSED_ION: BASE_PEAK 163.0392
MS$FOCUSED_ION: PRECURSOR_M/Z 163.039
MS$FOCUSED_ION: PRECURSOR_TYPE [M+H]+
MS$DATA_PROCESSING: RECALIBRATE loess on assigned fragments and MS1
MS$DATA_PROCESSING: REANALYZE Peaks with additional N2/O included
MS$DATA_PROCESSING: WHOLE RMassBank 2.9.1
PK$SPLASH: splash10-00di-5900000000-241595b99c133d538d93
PK$ANNOTATION: m/z tentative_formula formula_count mass error(ppm)
  65.0383 C5H5+ 1 65.0386 -4.19
  67.0541 C5H7+ 1 67.0542 -1.32
  68.9969 C3HO2+ 1 68.9971 -3.47
  77.0384 C6H5+ 1 77.0386 -2.04
  79.0541 C6H7+ 1 79.0542 -1.45
  89.0385 C7H5+ 1 89.0386 -0.54
  91.0542 C7H7+ 1 91.0542 -0.59
  93.0334 C6H5O+ 1 93.0335 -0.64
  95.0491 C6H7O+ 1 95.0491 -0.55
  101.0385 C8H5+ 1 101.0386 -1.06
  105.0447 C6H5N2+ 1 105.0447 -0.13
  107.0491 C7H7O+ 1 107.0491 -0.38
  111.0441 C6H7O2+ 1 111.0441 0.17
  119.0491 C8H7O+ 1 119.0491 0.07
  121.0283 C7H5O2+ 1 121.0284 -0.69
  121.0393 C6H5N2O+ 1 121.0396 -2.54
  129.0446 C8H5N2+ 1 129.0447 -0.89
  139.0389 C7H7O3+ 1 139.039 -0.62
  145.0282 C9H5O2+ 1 145.0284 -1.67
  163.0388 C9H7O3+ 1 163.039 -1.24
PK$NUM_PEAK: 20
PK$PEAK: m/z int. rel.int.
  65.0383 151678.4 72
  67.0541 2230.2 1
  68.9969 349995.2 168
  77.0384 63361.2 30
  79.0541 72329.8 34
  89.0385 12195.7 5
  91.0542 676952.4 325
  93.0334 148183.8 71
  95.0491 345697.1 166
  101.0385 2443.4 1
  105.0447 22886.2 11
  107.0491 35163 16
  111.0441 19621.8 9
  119.0491 62702.8 30
  121.0283 2076702.4 999
  121.0393 130373.9 62
  129.0446 17790.7 8
  139.0389 13786.1 6
  145.0282 14193.3 6
  163.0388 711117.6 342
//
