ACCESSION: MSBNK-NaToxAq-NA000303
RECORD_TITLE: Lupinine; LC-ESI-ITFT; MS2; CE: 65%; R=15000; [M+H]+
DATE: 2019.02.28
AUTHORS: Tobias Schulze, Jawameer Hama, Hubert Schupke, Martin Krauss, Helmholtz Centre for Environmental Research GmbH - UFZ, Leipzig, Germany and University of Copenhagen (UCPH), Denmark
LICENSE: CC BY
COPYRIGHT: Copyright (C) 2019
COMMENT: CONFIDENCE Reference Standard (Level 1)
COMMENT: INTERNAL_ID 26
CH$NAME: Lupinine
CH$NAME: [(1R,9aR)-2,3,4,6,7,8,9,9a-octahydro-1H-quinolizin-1-yl]methanol
CH$COMPOUND_CLASS: N/A; Environmental Standard
CH$FORMULA: C10H19NO
CH$EXACT_MASS: 169.1467
CH$SMILES: OC[C@@H]1CCCN2CCCC[C@H]12
CH$IUPAC: InChI=1S/C10H19NO/c12-8-9-4-3-7-11-6-2-1-5-10(9)11/h9-10,12H,1-8H2/t9-,10+/m0/s1
CH$LINK: CAS 486-70-4
CH$LINK: CHEBI CHEBI:28012
CH$LINK: KEGG C10773
CH$LINK: PUBCHEM CID:91461
CH$LINK: INCHIKEY HDVAWXXJVMJBAR-VHSXEESVSA-N
CH$LINK: CHEMSPIDER 82587
CH$LINK: COMPTOX DTXSID00197565
AC$INSTRUMENT: LTQ Orbitrap XL Thermo Scientific
AC$INSTRUMENT_TYPE: LC-ESI-ITFT
AC$MASS_SPECTROMETRY: MS_TYPE MS2
AC$MASS_SPECTROMETRY: ION_MODE POSITIVE
AC$MASS_SPECTROMETRY: IONIZATION ESI
AC$MASS_SPECTROMETRY: FRAGMENTATION_MODE HCD
AC$MASS_SPECTROMETRY: COLLISION_ENERGY 65 % (nominal)
AC$MASS_SPECTROMETRY: RESOLUTION 15000
AC$CHROMATOGRAPHY: COLUMN_NAME Synergi Polar RP, 2.5 um 100x3.0 mm, Phenomenex
AC$CHROMATOGRAPHY: FLOW_GRADIENT 95/5/0 at 0 min, 95/5/0 at 2 min, 5/95/0 at 8 min, 5/80/15 at 12 min, 5/25/70 at 19 min, 3/2/95 at 19.5 min, 3/2/95 at 22 min, 95/5/0 at 23 min, 95/5/0 at 28 min
AC$CHROMATOGRAPHY: FLOW_RATE 400 uL/min
AC$CHROMATOGRAPHY: RETENTION_TIME 3.877 min
AC$CHROMATOGRAPHY: SOLVENT A water with 0.1% formic acid
AC$CHROMATOGRAPHY: SOLVENT B methanol with 0.1% formic acid
MS$FOCUSED_ION: BASE_PEAK 236.0739
MS$FOCUSED_ION: PRECURSOR_M/Z 170.1539
MS$FOCUSED_ION: PRECURSOR_TYPE [M+H]+
MS$DATA_PROCESSING: RECALIBRATE loess on assigned fragments and MS1
MS$DATA_PROCESSING: REANALYZE Peaks with additional N2/O included
MS$DATA_PROCESSING: WHOLE RMassBank 2.11.0
PK$SPLASH: splash10-00di-0900000000-f603fc11f36b0da31d65
PK$ANNOTATION: m/z tentative_formula formula_count mass error(ppm)
  84.0807 C5H10N+ 1 84.0808 -0.46
  98.0965 C6H12N+ 1 98.0964 1.07
  124.112 C8H14N+ 1 124.1121 -0.59
  137.12 C9H15N+ 1 137.1199 0.54
  152.1434 C10H18N+ 1 152.1434 0.08
  170.154 C10H20NO+ 1 170.1539 0.2
PK$NUM_PEAK: 6
PK$PEAK: m/z int. rel.int.
  84.0807 2110.8 2
  98.0965 2751.8 3
  124.112 6229.1 7
  137.12 1218.3 1
  152.1434 60454.4 73
  170.154 819439.7 999
//
