ACCESSION: MSBNK-NaToxAq-NA002817
RECORD_TITLE: Atropine; LC-ESI-ITFT; MS2; CE: 50%; R=15000; [M+H]+
DATE: 2020.02.21
AUTHORS: Tobias Schulze, Martin Krauss, Helmholtz Centre for Environmental Research GmbH - UFZ, Leipzig, Germany
LICENSE: CC0
COPYRIGHT: Copyright (C) 2020 by Helmholtz Centre for Environmental Research GmbH - UFZ, Leipzig, Germany
COMMENT: CONFIDENCE Reference Standard (Level 1)
COMMENT: INTERNAL_ID 2292
CH$NAME: Atropine
CH$COMPOUND_CLASS: N/A; Environmental Standard
CH$FORMULA: C17H23NO3
CH$EXACT_MASS: 289.1678
CH$SMILES: CN1[C@@H]2CC[C@H]1C[C@H](C2)OC(=O)C(CO)c3ccccc3
CH$IUPAC: InChI=1S/C17H23NO3/c1-18-13-7-8-14(18)10-15(9-13)21-17(20)16(11-19)12-5-3-2-4-6-12/h2-6,13-16,19H,7-11H2,1H3/t13-,14+,15+,16?
CH$LINK: CAS 51-55-8
CH$LINK: CHEBI CHEBI:16684
CH$LINK: KEGG C01479
CH$LINK: INCHIKEY RKUNBYITZUJHSG-SPUOUPEWSA-N
CH$LINK: CHEMSPIDER 10194105
CH$LINK: COMPTOX DTXSID4020113
AC$INSTRUMENT: LTQ Orbitrap XL Thermo Scientific
AC$INSTRUMENT_TYPE: LC-ESI-ITFT
AC$MASS_SPECTROMETRY: MS_TYPE MS2
AC$MASS_SPECTROMETRY: ION_MODE POSITIVE
AC$MASS_SPECTROMETRY: IONIZATION ESI
AC$MASS_SPECTROMETRY: FRAGMENTATION_MODE HCD
AC$MASS_SPECTROMETRY: COLLISION_ENERGY 50% (nominal)
AC$MASS_SPECTROMETRY: RESOLUTION 15000
AC$CHROMATOGRAPHY: COLUMN_NAME Kinetex Evo C18 2.6 um 50x2.1 mm, Phenomenex
AC$CHROMATOGRAPHY: FLOW_GRADIENT 95/5 at 0 min, 95/5 at 1 min, 0/100 at 13 min, 0/100 at 24 min, 95/5 at 24.3 min, 95/5/0 at 32 min
AC$CHROMATOGRAPHY: FLOW_RATE 300 uL/min
AC$CHROMATOGRAPHY: RETENTION_TIME 2.859 min
AC$CHROMATOGRAPHY: SOLVENT A water with 0.1% formic acid
AC$CHROMATOGRAPHY: SOLVENT B methanol with 0.1% formic acid
MS$FOCUSED_ION: BASE_PEAK 143.0016
MS$FOCUSED_ION: PRECURSOR_M/Z 290.1751
MS$FOCUSED_ION: PRECURSOR_TYPE [M+H]+
MS$DATA_PROCESSING: RECALIBRATE loess on assigned fragments and MS1
MS$DATA_PROCESSING: REANALYZE Peaks with additional N2/O included
MS$DATA_PROCESSING: WHOLE RMassBank 2.14.1
PK$SPLASH: splash10-00dl-2950000000-83ba55b797f8489799c5
PK$ANNOTATION: m/z tentative_formula formula_count mass error(ppm)
  67.0542 C5H7+ 1 67.0542 -0.71
  70.0648 C4H8N+ 1 70.0651 -4.68
  77.0386 C6H5+ 1 77.0386 -0.07
  82.0651 C5H8N+ 1 82.0651 -0.6
  83.073 C5H9N+ 1 83.073 1.04
  91.0542 C7H7+ 1 91.0542 -0.27
  93.0699 C7H9+ 1 93.0699 -0.14
  95.0855 C7H11+ 1 95.0855 -0.72
  96.0807 C6H10N+ 1 96.0808 -1.09
  98.0967 C6H12N+ 1 98.0964 2.56
  121.0648 C8H9O+ 1 121.0648 -0.32
  124.1121 C8H14N+ 1 124.1121 -0.16
  125.1198 C8H15N+ 1 125.1199 -1.01
  142.1226 C8H16NO+ 1 142.1226 -0.59
  260.1649 C16H22NO2+ 1 260.1645 1.42
  290.1751 C17H24NO3+ 1 290.1751 -0.01
PK$NUM_PEAK: 16
PK$PEAK: m/z int. rel.int.
  67.0542 2023 4
  70.0648 1243.3 2
  77.0386 3325 7
  82.0651 3481.9 8
  83.073 1614.5 3
  91.0542 14201.1 33
  93.0699 91993.9 217
  95.0855 5918 13
  96.0807 2562.9 6
  98.0967 2002.5 4
  121.0648 7653.6 18
  124.1121 422380.8 999
  125.1198 8005.9 18
  142.1226 7148.9 16
  260.1649 8096.2 19
  290.1751 245946 581
//
