ACCESSION: MSBNK-NaToxAq-NA003570
RECORD_TITLE: Lycopsamine N-oxide; LC-ESI-ITFT; MS2; CE: 90%; R=15000; [M+H]+
DATE: 2020.02.22
AUTHORS: Tobias Schulze, Martin Krauss, Helmholtz Centre for Environmental Research GmbH - UFZ, Leipzig, Germany
LICENSE: CC0
COPYRIGHT: Copyright (C) 2020 by Helmholtz Centre for Environmental Research GmbH - UFZ, Leipzig, Germany
COMMENT: CONFIDENCE Reference Standard (Level 1)
COMMENT: INTERNAL_ID 2294
CH$NAME: Lycopsamine N-oxide
CH$NAME: [(7R,8R)-7-hydroxy-4-oxido-5,6,7,8-tetrahydro-3H-pyrrolizin-4-ium-1-yl]methyl (2S)-2-hydroxy-2-[(1S)-1-hydroxyethyl]-3-methylbutanoate
CH$COMPOUND_CLASS: N/A; Environmental Standard
CH$FORMULA: C15H25NO6
CH$EXACT_MASS: 315.1682
CH$SMILES: C[C@@H]([C@@](C(C)C)(C(=O)OCC1=CC[N+]2([C@H]1[C@@H](CC2)O)[O-])O)O
CH$IUPAC: InChI=1S/C15H25NO6/c1-9(2)15(20,10(3)17)14(19)22-8-11-4-6-16(21)7-5-12(18)13(11)16/h4,9-10,12-13,17-18,20H,5-8H2,1-3H3/t10-,12+,13+,15-,16?/m0/s1
CH$LINK: PUBCHEM CID:340067
CH$LINK: INCHIKEY DNAWGBOKUFFVMB-FVZLBROTSA-N
CH$LINK: CHEMSPIDER 301478
AC$INSTRUMENT: LTQ Orbitrap XL Thermo Scientific
AC$INSTRUMENT_TYPE: LC-ESI-ITFT
AC$MASS_SPECTROMETRY: MS_TYPE MS2
AC$MASS_SPECTROMETRY: ION_MODE POSITIVE
AC$MASS_SPECTROMETRY: IONIZATION ESI
AC$MASS_SPECTROMETRY: FRAGMENTATION_MODE HCD
AC$MASS_SPECTROMETRY: COLLISION_ENERGY 90% (nominal)
AC$MASS_SPECTROMETRY: RESOLUTION 15000
AC$CHROMATOGRAPHY: COLUMN_NAME Kinetex Evo C18 2.6 um 50x2.1 mm, Phenomenex
AC$CHROMATOGRAPHY: FLOW_GRADIENT 95/5 at 0 min, 95/5 at 1 min, 0/100 at 13 min, 0/100 at 24 min, 95/5 at 24.3 min, 95/5/0 at 32 min
AC$CHROMATOGRAPHY: FLOW_RATE 300 uL/min
AC$CHROMATOGRAPHY: RETENTION_TIME 1.285 min
AC$CHROMATOGRAPHY: SOLVENT A water with 0.1% formic acid
AC$CHROMATOGRAPHY: SOLVENT B methanol with 0.1% formic acid
MS$FOCUSED_ION: BASE_PEAK 143.0014
MS$FOCUSED_ION: PRECURSOR_M/Z 316.1755
MS$FOCUSED_ION: PRECURSOR_TYPE [M+H]+
MS$DATA_PROCESSING: RECALIBRATE loess on assigned fragments and MS1
MS$DATA_PROCESSING: REANALYZE Peaks with additional N2/O included
MS$DATA_PROCESSING: WHOLE RMassBank 2.14.1
PK$SPLASH: splash10-0006-9800000000-a7af49e54cfda27a4d2b
PK$ANNOTATION: m/z tentative_formula formula_count mass error(ppm)
  67.0416 C4H5N+ 1 67.0417 -0.65
  67.0542 C5H7+ 1 67.0542 -1.04
  68.0494 C4H6N+ 1 68.0495 -0.75
  70.0649 C4H8N+ 1 70.0651 -2.92
  73.0649 C4H9O+ 1 73.0648 0.89
  79.0542 C6H7+ 1 79.0542 -0.15
  80.0495 C5H6N+ 1 80.0495 0.32
  81.0573 C5H7N+ 1 81.0573 -0.49
  81.0698 C6H9+ 1 81.0699 -0.34
  82.0413 C5H6O+ 1 82.0413 0.18
  82.0651 C5H8N+ 1 82.0651 -0.17
  83.0491 C5H7O+ 1 83.0491 -0.07
  84.0444 C4H6NO+ 1 84.0444 -0.18
  84.0807 C5H10N+ 1 84.0808 -0.46
  92.0495 C6H6N+ 1 92.0495 0.8
  93.0573 C6H7N+ 1 93.0573 0.28
  94.0651 C6H8N+ 1 94.0651 -0.05
  95.0728 C6H9N+ 1 95.073 -1.1
  96.0444 C5H6NO+ 1 96.0444 0.27
  96.0807 C6H10N+ 1 96.0808 -0.85
  98.0601 C5H8NO+ 1 98.06 0.91
  102.0549 C4H8NO2+ 1 102.055 -0.87
  106.0651 C7H8N+ 1 106.0651 -0.13
  108.0808 C7H10N+ 1 108.0808 -0.11
  109.0648 C7H9O+ 1 109.0648 0.09
  110.0601 C6H8NO+ 1 110.06 0.26
  111.0679 C6H9NO+ 1 111.0679 -0.01
  112.0756 C6H10NO+ 1 112.0757 -1.22
  118.0651 C8H8N+ 1 118.0651 -0.62
  120.0808 C8H10N+ 1 120.0808 0.37
  124.0758 C7H10NO+ 1 124.0757 0.77
  126.0912 C7H12NO+ 1 126.0913 -1.29
  128.0707 C6H10NO2+ 1 128.0706 0.6
  136.0757 C8H10NO+ 1 136.0757 0.18
  137.0836 C8H11NO+ 1 137.0835 0.84
  138.0914 C8H12NO+ 1 138.0913 0.17
  140.0704 C7H10NO2+ 1 140.0706 -1.2
  142.0861 C7H12NO2+ 1 142.0863 -1.41
  154.0864 C8H12NO2+ 1 154.0863 0.68
  155.0941 C8H13NO2+ 1 155.0941 0.37
  172.0969 C8H14NO3+ 1 172.0968 0.29
PK$NUM_PEAK: 41
PK$PEAK: m/z int. rel.int.
  67.0416 1335.4 8
  67.0542 6332.1 38
  68.0494 8908.8 54
  70.0649 1310.6 8
  73.0649 3457.7 21
  79.0542 2145.5 13
  80.0495 46593.9 286
  81.0573 5121.5 31
  81.0698 5259.4 32
  82.0413 7730.3 47
  82.0651 10725.6 65
  83.0491 15267.7 93
  84.0444 1572 9
  84.0807 1288.5 7
  92.0495 3453.3 21
  93.0573 87797.3 538
  94.0651 162746.2 999
  95.0728 2486.2 15
  96.0444 4955.2 30
  96.0807 3261.1 20
  98.0601 6060 37
  102.0549 6880.5 42
  106.0651 16721.1 102
  108.0808 14678.9 90
  109.0648 1949.8 11
  110.0601 10588.9 64
  111.0679 118328.6 726
  112.0756 5842.5 35
  118.0651 2142.2 13
  120.0808 1561.4 9
  124.0758 5639.1 34
  126.0912 2070.6 12
  128.0707 6082.5 37
  136.0757 28837.7 177
  137.0836 10165.1 62
  138.0914 47545.2 291
  140.0704 2401.7 14
  142.0861 1536.1 9
  154.0864 7910.3 48
  155.0941 10696 65
  172.0969 70624.3 433
//
