ACCESSION: MSBNK-NaToxAq-NA001549
RECORD_TITLE: (+)-Sparteine; LC-ESI-ITFT; MS2; CE: 75%; R=15000; [M+H]+
DATE: 2019.07.31
AUTHORS: Tobias Schulze, Vaidotas Kisielius, Xiaomeng Liang, Mulatu Yohannes Nanusha, Martin Krauss, Helmholtz Centre for Environmental Research GmbH - UFZ, Leipzig, Germany and University of Copenhagen (UCPH), Denmark
LICENSE: CC BY
COPYRIGHT: Copyright (C) 2019
COMMENT: CONFIDENCE Reference Standard (Level 1)
COMMENT: INTERNAL_ID 3
CH$NAME: (+)-Sparteine
CH$COMPOUND_CLASS: N/A; Environmental Standard
CH$FORMULA: C15H26N2
CH$EXACT_MASS: 234.2096
CH$SMILES: C1CCN2C[C@H]3C[C@@H]([C@H]2C1)CN4[C@H]3CCCC4
CH$IUPAC: InChI=1S/C15H26N2/c1-3-7-16-11-13-9-12(14(16)5-1)10-17-8-4-2-6-15(13)17/h12-15H,1-11H2/t12-,13-,14-,15+/m1/s1
CH$LINK: INCHIKEY SLRCCWJSBJZJBV-TUVASFSCSA-N
CH$LINK: PUBCHEM CID:7014
AC$INSTRUMENT: LTQ Orbitrap XL Thermo Scientific
AC$INSTRUMENT_TYPE: LC-ESI-ITFT
AC$MASS_SPECTROMETRY: MS_TYPE MS2
AC$MASS_SPECTROMETRY: ION_MODE POSITIVE
AC$MASS_SPECTROMETRY: IONIZATION ESI
AC$MASS_SPECTROMETRY: FRAGMENTATION_MODE HCD
AC$MASS_SPECTROMETRY: COLLISION_ENERGY 75 % (nominal)
AC$MASS_SPECTROMETRY: RESOLUTION 15000
AC$CHROMATOGRAPHY: COLUMN_NAME Kinetex Evo C18 2.6 um 50x2.1 mm, Phenomenex
AC$CHROMATOGRAPHY: FLOW_GRADIENT 95/5 at 0 min, 95/5 at 1 min, 0/100 at 13 min, 0/100 at 24 min, 95/5 at 24.3 min, 95/5/0 at 32 min
AC$CHROMATOGRAPHY: FLOW_RATE 300 uL/min
AC$CHROMATOGRAPHY: RETENTION_TIME 0.538 min
AC$CHROMATOGRAPHY: SOLVENT A water with 0.1% formic acid
AC$CHROMATOGRAPHY: SOLVENT B methanol with 0.1% formic acid
MS$FOCUSED_ION: BASE_PEAK 235.2164
MS$FOCUSED_ION: PRECURSOR_M/Z 235.2169
MS$FOCUSED_ION: PRECURSOR_TYPE [M+H]+
MS$DATA_PROCESSING: RECALIBRATE loess on assigned fragments and MS1
MS$DATA_PROCESSING: REANALYZE Peaks with additional N2/O included
MS$DATA_PROCESSING: WHOLE RMassBank 2.12.0
PK$SPLASH: splash10-000j-5090000000-a1ccb905e1866cf749f0
PK$ANNOTATION: m/z tentative_formula formula_count mass error(ppm)
  70.0651 C4H8N+ 1 70.0651 0.08
  84.0808 C5H10N+ 1 84.0808 -0.27
  96.0808 C6H10N+ 1 96.0808 0.55
  98.0964 C6H12N+ 1 98.0964 -0.33
  124.1119 C8H14N+ 1 124.1121 -1.64
  134.0963 C9H12N+ 1 134.0964 -0.66
  138.1281 C9H16N+ 1 138.1277 2.66
  150.1276 C10H16N+ 1 150.1277 -1.06
  152.1436 C10H18N+ 1 152.1434 1.44
  190.1598 C13H20N+ 1 190.159 3.84
  233.2011 C15H25N2+ 1 233.2012 -0.34
  235.2167 C15H27N2+ 1 235.2169 -0.87
PK$NUM_PEAK: 12
PK$PEAK: m/z int. rel.int.
  70.0651 20367.1 7
  84.0808 53936.6 19
  96.0808 22904.6 8
  98.0964 1972917.1 713
  124.1119 8702.7 3
  134.0963 54235.9 19
  138.1281 6543.1 2
  150.1276 24377.5 8
  152.1436 28751.5 10
  190.1598 7664.9 2
  233.2011 579084.4 209
  235.2167 2762090 999
//
