ACCESSION: MSBNK-NaToxAq-NA003692
RECORD_TITLE: Vincamin; LC-ESI-ITFT; MS2; CE: 100%; R=15000; [M+H]+
DATE: 2020.02.22
AUTHORS: Tobias Schulze, Martin Krauss, Helmholtz Centre for Environmental Research GmbH - UFZ, Leipzig, Germany
LICENSE: CC0
COPYRIGHT: Copyright (C) 2020 by Helmholtz Centre for Environmental Research GmbH - UFZ, Leipzig, Germany
COMMENT: CONFIDENCE Reference Standard (Level 1)
COMMENT: INTERNAL_ID 2327
CH$NAME: Vincamin
CH$NAME: Vincamine
CH$NAME: methyl (15S,17S,19S)-15-ethyl-17-hydroxy-1,11-diazapentacyclo[9.6.2.02,7.08,18.015,19]nonadeca-2,4,6,8(18)-tetraene-17-carboxylate
CH$COMPOUND_CLASS: N/A; Environmental Standard
CH$FORMULA: C21H26N2O3
CH$EXACT_MASS: 354.1943
CH$SMILES: CC[C@@]12CCCN3[C@@H]1C4=C(CC3)C5=CC=CC=C5N4[C@](C2)(C(=O)OC)O
CH$IUPAC: InChI=1S/C21H26N2O3/c1-3-20-10-6-11-22-12-9-15-14-7-4-5-8-16(14)23(17(15)18(20)22)21(25,13-20)19(24)26-2/h4-5,7-8,18,25H,3,6,9-13H2,1-2H3/t18-,20+,21+/m1/s1
CH$LINK: CAS 1617-90-9
CH$LINK: CHEBI CHEBI:9985
CH$LINK: KEGG D08677
CH$LINK: PUBCHEM CID:15376
CH$LINK: INCHIKEY RXPRRQLKFXBCSJ-GIVPXCGWSA-N
CH$LINK: CHEMSPIDER 14635
CH$LINK: COMPTOX DTXSID9040134
AC$INSTRUMENT: LTQ Orbitrap XL Thermo Scientific
AC$INSTRUMENT_TYPE: LC-ESI-ITFT
AC$MASS_SPECTROMETRY: MS_TYPE MS2
AC$MASS_SPECTROMETRY: ION_MODE POSITIVE
AC$MASS_SPECTROMETRY: IONIZATION ESI
AC$MASS_SPECTROMETRY: FRAGMENTATION_MODE HCD
AC$MASS_SPECTROMETRY: COLLISION_ENERGY 100% (nominal)
AC$MASS_SPECTROMETRY: RESOLUTION 15000
AC$CHROMATOGRAPHY: COLUMN_NAME Kinetex Evo C18 2.6 um 50x2.1 mm, Phenomenex
AC$CHROMATOGRAPHY: FLOW_GRADIENT 95/5 at 0 min, 95/5 at 1 min, 0/100 at 13 min, 0/100 at 24 min, 95/5 at 24.3 min, 95/5/0 at 32 min
AC$CHROMATOGRAPHY: FLOW_RATE 300 uL/min
AC$CHROMATOGRAPHY: RETENTION_TIME 6.603 min
AC$CHROMATOGRAPHY: SOLVENT A water with 0.1% formic acid
AC$CHROMATOGRAPHY: SOLVENT B methanol with 0.1% formic acid
MS$FOCUSED_ION: BASE_PEAK 355.2016
MS$FOCUSED_ION: PRECURSOR_M/Z 355.2016
MS$FOCUSED_ION: PRECURSOR_TYPE [M+H]+
MS$DATA_PROCESSING: RECALIBRATE loess on assigned fragments and MS1
MS$DATA_PROCESSING: REANALYZE Peaks with additional N2/O included
MS$DATA_PROCESSING: WHOLE RMassBank 2.14.1
PK$SPLASH: splash10-0mi6-2790000000-368edd33d5483524f87a
PK$ANNOTATION: m/z tentative_formula formula_count mass error(ppm)
  55.0544 C4H7+ 1 55.0542 2.99
  67.0542 C5H7+ 1 67.0542 -0.47
  68.0494 C4H6N+ 1 68.0495 -1.43
  69.0699 C5H9+ 1 69.0699 0.32
  70.0651 C4H8N+ 1 70.0651 -0.31
  77.0386 C6H5+ 1 77.0386 -0.08
  79.0542 C6H7+ 1 79.0542 -0.06
  80.0496 C5H6N+ 1 80.0495 0.98
  81.0335 C5H5O+ 1 81.0335 0.52
  81.0699 C6H9+ 1 81.0699 0.23
  82.0652 C5H8N+ 1 82.0651 0.85
  83.0491 C5H7O+ 1 83.0491 0.03
  84.0811 C5H10N+ 1 84.0808 4.07
  91.0542 C7H7+ 1 91.0542 0.13
  93.0572 C6H7N+ 1 93.0573 -1.03
  93.0699 C7H9+ 1 93.0699 0.58
  94.0651 C6H8N+ 1 94.0651 -0.3
  95.0491 C6H7O+ 1 95.0491 -0.16
  95.073 C6H9N+ 1 95.073 0.34
  95.0855 C7H11+ 1 95.0855 -0.01
  96.0808 C6H10N+ 1 96.0808 -0.05
  98.0963 C6H12N+ 1 98.0964 -1.59
  103.0543 C8H7+ 1 103.0542 0.26
  105.0447 C6H5N2+ 1 105.0447 -0.26
  105.0698 C8H9+ 1 105.0699 -0.46
  106.0653 C7H8N+ 1 106.0651 1.74
  107.0856 C8H11+ 1 107.0855 0.63
  108.0806 C7H10N+ 1 108.0808 -1.31
  109.0651 C7H9O+ 1 109.0648 2.68
  109.0885 C7H11N+ 1 109.0886 -0.73
  110.0964 C7H12N+ 1 110.0964 -0.02
  111.104 C7H13N+ 1 111.1043 -1.87
  112.1119 C7H14N+ 1 112.1121 -1.23
  115.0542 C9H7+ 1 115.0542 -0.62
  117.0572 C8H7N+ 1 117.0573 -1.09
  117.0698 C9H9+ 1 117.0699 -0.33
  118.0651 C8H8N+ 1 118.0651 -0.42
  119.0604 C7H7N2+ 1 119.0604 0.06
  119.073 C8H9N+ 1 119.073 0.17
  120.0808 C8H10N+ 1 120.0808 0.49
  122.0599 C7H8NO+ 1 122.06 -1.42
  122.0965 C8H12N+ 1 122.0964 0.26
  123.0804 C8H11O+ 1 123.0804 -0.43
  123.1039 C8H13N+ 1 123.1043 -2.71
  124.0756 C7H10NO+ 1 124.0757 -0.4
  124.1121 C8H14N+ 1 124.1121 -0.04
  128.0495 C9H6N+ 1 128.0495 0.56
  128.0619 C10H8+ 1 128.0621 -1.25
  129.0699 C10H9+ 1 129.0699 0.07
  130.0651 C9H8N+ 1 130.0651 -0.37
  131.0728 C9H9N+ 1 131.073 -0.95
  132.0807 C9H10N+ 1 132.0808 -0.36
  133.0651 C9H9O+ 1 133.0648 2.21
  134.0964 C9H12N+ 1 134.0964 0.11
  135.0808 C9H11O+ 1 135.0804 2.53
  136.0758 C8H10NO+ 1 136.0757 0.51
  141.0696 C11H9+ 1 141.0699 -1.68
  142.0655 C10H8N+ 1 142.0651 2.64
  143.073 C10H9N+ 1 143.073 0.06
  144.0808 C10H10N+ 1 144.0808 -0.16
  146.0595 C9H8NO+ 1 146.06 -3.46
  146.0961 C10H12N+ 1 146.0964 -2.37
  152.0622 C12H8+ 1 152.0621 0.76
  152.1071 C9H14NO+ 1 152.107 0.74
  153.0699 C12H9+ 1 153.0699 0.15
  154.0652 C11H8N+ 1 154.0651 0.75
  155.0604 C10H7N2+ 1 155.0604 -0.03
  155.073 C11H9N+ 1 155.073 0.15
  156.0808 C11H10N+ 1 156.0808 0.24
  157.0885 C11H11N+ 1 157.0886 -0.55
  158.0963 C11H12N+ 1 158.0964 -0.74
  165.07 C13H9+ 1 165.0699 0.61
  166.0653 C12H8N+ 1 166.0651 0.8
  166.0774 C13H10+ 1 166.0777 -1.69
  167.073 C12H9N+ 1 167.073 0.24
  168.0808 C12H10N+ 1 168.0808 0.15
  169.0763 C11H9N2+ 1 169.076 1.33
  169.0888 C12H11N+ 1 169.0886 1.32
  170.0598 C11H8NO+ 1 170.06 -1.52
  170.0964 C12H12N+ 1 170.0964 -0.22
  178.0651 C13H8N+ 1 178.0651 0.1
  178.0777 C14H10+ 1 178.0777 -0.17
  179.0732 C13H9N+ 1 179.073 1.63
  179.0855 C14H11+ 1 179.0855 -0.18
  180.0808 C13H10N+ 1 180.0808 0.18
  181.0762 C12H9N2+ 1 181.076 0.78
  181.0888 C13H11N+ 1 181.0886 0.85
  181.1008 C14H13+ 1 181.1012 -1.87
  182.0963 C13H12N+ 1 182.0964 -0.67
  183.0925 C12H11N2+ 1 183.0917 4.6
  184.1122 C13H14N+ 1 184.1121 0.74
  190.0651 C14H8N+ 1 190.0651 -0.04
  191.0729 C14H9N+ 1 191.073 -0.2
  191.0851 C15H11+ 1 191.0855 -2.06
  192.0808 C14H10N+ 1 192.0808 0.03
  192.0929 C15H12+ 1 192.0934 -2.45
  193.0886 C14H11N+ 1 193.0886 -0.13
  194.0965 C14H12N+ 1 194.0964 0.49
  195.0916 C13H11N2+ 1 195.0917 -0.6
  195.1045 C14H13N+ 1 195.1043 1.27
  196.0753 C13H10NO+ 1 196.0757 -2.12
  196.1122 C14H14N+ 1 196.1121 0.63
  202.0772 C16H10+ 1 202.0777 -2.69
  203.0728 C15H9N+ 1 203.073 -0.72
  204.0807 C15H10N+ 1 204.0808 -0.42
  205.0887 C15H11N+ 1 205.0886 0.31
  206.0965 C15H12N+ 1 206.0964 0.16
  207.1043 C15H13N+ 1 207.1043 0.37
  208.0754 C14H10NO+ 1 208.0757 -1.43
  208.112 C15H14N+ 1 208.1121 -0.3
  209.1078 C14H13N2+ 1 209.1073 2.04
  209.1204 C15H15N+ 1 209.1199 2.17
  210.092 C14H12NO+ 1 210.0913 3.07
  210.1282 C15H16N+ 1 210.1277 2.16
  211.1234 C14H15N2+ 1 211.123 2.01
  216.0802 C16H10N+ 1 216.0808 -2.69
  217.0885 C16H11N+ 1 217.0886 -0.29
  218.0964 C16H12N+ 1 218.0964 -0.08
  219.0926 C15H11N2+ 1 219.0917 4.03
  219.1046 C16H13N+ 1 219.1043 1.44
  220.1121 C16H14N+ 1 220.1121 0.05
  221.1207 C16H15N+ 1 221.1199 3.7
  222.0914 C15H12NO+ 1 222.0913 0.21
  222.1277 C16H16N+ 1 222.1277 -0.17
  223.1228 C15H15N2+ 1 223.123 -0.92
  224.1436 C16H18N+ 1 224.1434 0.98
  230.0961 C17H12N+ 1 230.0964 -1.27
  231.1044 C17H13N+ 1 231.1043 0.78
  232.112 C17H14N+ 1 232.1121 -0.34
  233.1081 C16H13N2+ 1 233.1073 3.4
  233.12 C17H15N+ 1 233.1199 0.31
  234.0915 C16H12NO+ 1 234.0913 0.67
  234.1277 C17H16N+ 1 234.1277 -0.21
  236.0708 C15H10NO2+ 1 236.0706 0.83
  236.1076 C16H14NO+ 1 236.107 2.41
  237.0792 C15H11NO2+ 1 237.0784 3.2
  237.1385 C16H17N2+ 1 237.1386 -0.72
  238.0861 C15H12NO2+ 1 238.0863 -0.66
  239.0952 C15H13NO2+ 1 239.0941 4.64
  247.1229 C17H15N2+ 1 247.123 -0.14
  248.1438 C18H18N+ 1 248.1434 1.51
  249.0786 C16H11NO2+ 1 249.0784 0.72
  249.1382 C17H17N2+ 1 249.1386 -1.79
  250.0863 C16H12NO2+ 1 250.0863 0.17
  251.0939 C16H13NO2+ 1 251.0941 -0.56
  252.102 C16H14NO2+ 1 252.1019 0.54
  253.1109 C16H15NO2+ 1 253.1097 4.76
  262.0867 C17H12NO2+ 1 262.0863 1.71
  263.0939 C17H13NO2+ 1 263.0941 -0.55
  264.1018 C17H14NO2+ 1 264.1019 -0.49
  265.1103 C17H15NO2+ 1 265.1097 2.22
  266.1175 C17H16NO2+ 1 266.1176 -0.25
  275.0943 C18H13NO2+ 1 275.0941 0.75
  276.1016 C18H14NO2+ 1 276.1019 -1.06
  277.1103 C18H15NO2+ 1 277.1097 2.2
  278.1174 C18H16NO2+ 1 278.1176 -0.71
  279.1254 C18H17NO2+ 1 279.1254 0.12
  280.1329 C18H18NO2+ 1 280.1332 -1.24
  290.1178 C19H16NO2+ 1 290.1176 0.99
  292.1323 C19H18NO2+ 1 292.1332 -3.07
  307.1446 C19H19N2O2+ 1 307.1441 1.65
PK$NUM_PEAK: 161
PK$PEAK: m/z int. rel.int.
  55.0544 1454.5 12
  67.0542 19957.2 170
  68.0494 3027.5 25
  69.0699 1341.4 11
  70.0651 10065.7 85
  77.0386 5363.8 45
  79.0542 16883.6 144
  80.0496 3934.1 33
  81.0335 2572.1 21
  81.0699 9314.1 79
  82.0652 2899.6 24
  83.0491 10649.4 90
  84.0811 2242.5 19
  91.0542 24935.3 212
  93.0572 1804 15
  93.0699 12367.5 105
  94.0651 7708.6 65
  95.0491 2853.9 24
  95.073 4149.3 35
  95.0855 35819.4 305
  96.0808 6564.5 56
  98.0963 2658.8 22
  103.0543 7552.4 64
  105.0447 4173.5 35
  105.0698 16659.3 142
  106.0653 3728.4 31
  107.0856 6276.8 53
  108.0806 6220.7 53
  109.0651 1227.6 10
  109.0885 3424.6 29
  110.0964 20040 170
  111.104 1543.4 13
  112.1119 2466.2 21
  115.0542 13280.6 113
  117.0572 6413.6 54
  117.0698 24377.5 207
  118.0651 5702.6 48
  119.0604 1187.1 10
  119.073 4026.4 34
  120.0808 3011.6 25
  122.0599 2545.3 21
  122.0965 4567.8 38
  123.0804 5785.2 49
  123.1039 1838.1 15
  124.0756 4635.4 39
  124.1121 13744.9 117
  128.0495 4844.8 41
  128.0619 4540.3 38
  129.0699 8279.9 70
  130.0651 17899.2 152
  131.0728 5136.6 43
  132.0807 4356.6 37
  133.0651 1173.1 10
  134.0964 9723.5 82
  135.0808 1273 10
  136.0758 2815 24
  141.0696 2056.2 17
  142.0655 2764.9 23
  143.073 30313.6 258
  144.0808 117089.5 999
  146.0595 1587.5 13
  146.0961 1392.6 11
  152.0622 1874.5 15
  152.1071 6950.1 59
  153.0699 1249.9 10
  154.0652 6761.6 57
  155.0604 10859.8 92
  155.073 3982.9 33
  156.0808 10529 89
  157.0885 4847.8 41
  158.0963 4877.8 41
  165.07 5635.5 48
  166.0653 2944.4 25
  166.0774 2570.3 21
  167.073 14849.2 126
  168.0808 14996 127
  169.0763 1599.5 13
  169.0888 2754 23
  170.0598 2649.4 22
  170.0964 4136.1 35
  178.0651 1536.6 13
  178.0777 6527.9 55
  179.0732 3670 31
  179.0855 5524.5 47
  180.0808 27539.6 234
  181.0762 1487.6 12
  181.0888 11342.8 96
  181.1008 1667 14
  182.0963 8759.2 74
  183.0925 1888.9 16
  184.1122 1368.8 11
  190.0651 4174.3 35
  191.0729 15853.9 135
  191.0851 2499.6 21
  192.0808 16545.8 141
  192.0929 1420.5 12
  193.0886 30516 260
  194.0965 22155.1 189
  195.0916 1894.1 16
  195.1045 5531 47
  196.0753 1320.1 11
  196.1122 4255.8 36
  202.0772 1628.4 13
  203.0728 1746 14
  204.0807 49081.1 418
  205.0887 32091 273
  206.0965 41155.5 351
  207.1043 15769.6 134
  208.0754 2606.9 22
  208.112 20894.3 178
  209.1078 3897.2 33
  209.1204 2855.7 24
  210.092 1035.7 8
  210.1282 2556.7 21
  211.1234 1000.4 8
  216.0802 2445 20
  217.0885 18556.6 158
  218.0964 36943.7 315
  219.0926 4600.9 39
  219.1046 18581.4 158
  220.1121 30272.9 258
  221.1207 4709 40
  222.0914 2607.4 22
  222.1277 12026.3 102
  223.1228 5153.5 43
  224.1436 1787.1 15
  230.0961 4384.7 37
  231.1044 2722.3 23
  232.112 10158.6 86
  233.1081 2867.2 24
  233.12 2871.6 24
  234.0915 1733.2 14
  234.1277 12230.3 104
  236.0708 2048.1 17
  236.1076 1766.6 15
  237.0792 2391.2 20
  237.1385 2840.1 24
  238.0861 30983.3 264
  239.0952 5666.9 48
  247.1229 6753.4 57
  248.1438 2355.6 20
  249.0786 3149.1 26
  249.1382 1774.2 15
  250.0863 20744 176
  251.0939 45347.1 386
  252.102 29883.2 254
  253.1109 5509.1 47
  262.0867 3339.7 28
  263.0939 5578.6 47
  264.1018 95791.2 817
  265.1103 17774.6 151
  266.1175 40247.8 343
  275.0943 1443.2 12
  276.1016 6529.1 55
  277.1103 1937.3 16
  278.1174 35851.8 305
  279.1254 3988.8 34
  280.1329 9122.2 77
  290.1178 4850 41
  292.1323 8645.9 73
  307.1446 2082.8 17
//
