ACCESSION: MSBNK-NaToxAq-NA001550
RECORD_TITLE: (+)-Sparteine; LC-ESI-ITFT; MS2; CE: 60%; R=15000; [M+H]+
DATE: 2019.07.31
AUTHORS: Tobias Schulze, Vaidotas Kisielius, Xiaomeng Liang, Mulatu Yohannes Nanusha, Martin Krauss, Helmholtz Centre for Environmental Research GmbH - UFZ, Leipzig, Germany and University of Copenhagen (UCPH), Denmark
LICENSE: CC BY
COPYRIGHT: Copyright (C) 2019
COMMENT: CONFIDENCE Reference Standard (Level 1)
COMMENT: INTERNAL_ID 3
CH$NAME: (+)-Sparteine
CH$COMPOUND_CLASS: N/A; Environmental Standard
CH$FORMULA: C15H26N2
CH$EXACT_MASS: 234.2096
CH$SMILES: C1CCN2C[C@H]3C[C@@H]([C@H]2C1)CN4[C@H]3CCCC4
CH$IUPAC: InChI=1S/C15H26N2/c1-3-7-16-11-13-9-12(14(16)5-1)10-17-8-4-2-6-15(13)17/h12-15H,1-11H2/t12-,13-,14-,15+/m1/s1
CH$LINK: INCHIKEY SLRCCWJSBJZJBV-TUVASFSCSA-N
CH$LINK: PUBCHEM CID:7014
AC$INSTRUMENT: LTQ Orbitrap XL Thermo Scientific
AC$INSTRUMENT_TYPE: LC-ESI-ITFT
AC$MASS_SPECTROMETRY: MS_TYPE MS2
AC$MASS_SPECTROMETRY: ION_MODE POSITIVE
AC$MASS_SPECTROMETRY: IONIZATION ESI
AC$MASS_SPECTROMETRY: FRAGMENTATION_MODE CID
AC$MASS_SPECTROMETRY: COLLISION_ENERGY 60 % (nominal)
AC$MASS_SPECTROMETRY: RESOLUTION 15000
AC$CHROMATOGRAPHY: COLUMN_NAME Kinetex Evo C18 2.6 um 50x2.1 mm, Phenomenex
AC$CHROMATOGRAPHY: FLOW_GRADIENT 95/5 at 0 min, 95/5 at 1 min, 0/100 at 13 min, 0/100 at 24 min, 95/5 at 24.3 min, 95/5/0 at 32 min
AC$CHROMATOGRAPHY: FLOW_RATE 300 uL/min
AC$CHROMATOGRAPHY: RETENTION_TIME 0.538 min
AC$CHROMATOGRAPHY: SOLVENT A water with 0.1% formic acid
AC$CHROMATOGRAPHY: SOLVENT B methanol with 0.1% formic acid
MS$FOCUSED_ION: BASE_PEAK 235.2164
MS$FOCUSED_ION: PRECURSOR_M/Z 235.2169
MS$FOCUSED_ION: PRECURSOR_TYPE [M+H]+
MS$DATA_PROCESSING: RECALIBRATE loess on assigned fragments and MS1
MS$DATA_PROCESSING: REANALYZE Peaks with additional N2/O included
MS$DATA_PROCESSING: WHOLE RMassBank 2.12.0
PK$SPLASH: splash10-0002-9200000000-141cfe42f44577b82592
PK$ANNOTATION: m/z tentative_formula formula_count mass error(ppm)
  70.065 C4H8N+ 1 70.0651 -1.88
  84.0808 C5H10N+ 1 84.0808 0.18
  96.0808 C6H10N+ 1 96.0808 -0.17
  98.0963 C6H12N+ 1 98.0964 -0.88
  110.0963 C7H12N+ 1 110.0964 -1.37
  124.1116 C8H14N+ 1 124.1121 -3.67
  134.0963 C9H12N+ 1 134.0964 -0.89
  136.1119 C9H14N+ 1 136.1121 -0.99
  138.1274 C9H16N+ 1 138.1277 -2.09
  150.1276 C10H16N+ 1 150.1277 -0.95
  152.1433 C10H18N+ 1 152.1434 -0.37
  164.143 C11H18N+ 1 164.1434 -2.16
  190.1589 C13H20N+ 1 190.159 -0.65
  204.1746 C14H22N+ 1 204.1747 -0.35
PK$NUM_PEAK: 14
PK$PEAK: m/z int. rel.int.
  70.065 50029.6 6
  84.0808 39810.3 5
  96.0808 82984.1 11
  98.0963 7300510.5 999
  110.0963 28318.4 3
  124.1116 56574.4 7
  134.0963 1184364.8 162
  136.1119 21711.2 2
  138.1274 63265 8
  150.1276 136633.3 18
  152.1433 160495.3 21
  164.143 59488.2 8
  190.1589 119061.4 16
  204.1746 19598.9 2
//
