ACCESSION: MSBNK-NaToxAq-NA001465
RECORD_TITLE: Coniferaldehyde; LC-ESI-ITFT; MS2; CE: 55%; R=15000; [M+H]+
DATE: 2019.07.31
AUTHORS: Tobias Schulze, Vaidotas Kisielius, Xiaomeng Liang, Mulatu Yohannes Nanusha, Martin Krauss, Helmholtz Centre for Environmental Research GmbH - UFZ, Leipzig, Germany and University of Copenhagen (UCPH), Denmark
LICENSE: CC BY
COPYRIGHT: Copyright (C) 2019
COMMENT: CONFIDENCE Reference Standard (Level 1)
COMMENT: INTERNAL_ID 13
CH$NAME: Coniferaldehyde
CH$COMPOUND_CLASS: N/A; Environmental Standard
CH$FORMULA: C10H10O3
CH$EXACT_MASS: 178.0630
CH$SMILES: COC1=CC(\C=C\C=O)=CC=C1O
CH$IUPAC: InChI=1S/C10H10O3/c1-13-10-7-8(3-2-6-11)4-5-9(10)12/h2-7,12H,1H3/b3-2+
CH$LINK: INCHIKEY DKZBBWMURDFHNE-NSCUHMNNSA-N
CH$LINK: PUBCHEM CID:5280536
CH$LINK: COMPTOX DTXSID10174685
AC$INSTRUMENT: LTQ Orbitrap XL Thermo Scientific
AC$INSTRUMENT_TYPE: LC-ESI-ITFT
AC$MASS_SPECTROMETRY: MS_TYPE MS2
AC$MASS_SPECTROMETRY: ION_MODE POSITIVE
AC$MASS_SPECTROMETRY: IONIZATION ESI
AC$MASS_SPECTROMETRY: FRAGMENTATION_MODE CID
AC$MASS_SPECTROMETRY: COLLISION_ENERGY 55 % (nominal)
AC$MASS_SPECTROMETRY: RESOLUTION 15000
AC$CHROMATOGRAPHY: COLUMN_NAME Kinetex Evo C18 2.6 um 50x2.1 mm, Phenomenex
AC$CHROMATOGRAPHY: FLOW_GRADIENT 95/5 at 0 min, 95/5 at 1 min, 0/100 at 13 min, 0/100 at 24 min, 95/5 at 24.3 min, 95/5/0 at 32 min
AC$CHROMATOGRAPHY: FLOW_RATE 300 uL/min
AC$CHROMATOGRAPHY: RETENTION_TIME 7.512 min
AC$CHROMATOGRAPHY: SOLVENT A water with 0.1% formic acid
AC$CHROMATOGRAPHY: SOLVENT B methanol with 0.1% formic acid
MS$FOCUSED_ION: BASE_PEAK 179.0702
MS$FOCUSED_ION: PRECURSOR_M/Z 179.0703
MS$FOCUSED_ION: PRECURSOR_TYPE [M+H]+
MS$DATA_PROCESSING: RECALIBRATE loess on assigned fragments and MS1
MS$DATA_PROCESSING: REANALYZE Peaks with additional N2/O included
MS$DATA_PROCESSING: WHOLE RMassBank 2.12.0
PK$SPLASH: splash10-03dj-0900000000-562b09b9914f125e3aa0
PK$ANNOTATION: m/z tentative_formula formula_count mass error(ppm)
  55.0177 C3H3O+ 1 55.0178 -1.93
  91.0542 C7H7+ 1 91.0542 0.11
  95.0493 C6H7O+ 1 95.0491 1.26
  105.07 C8H9+ 1 105.0699 0.76
  115.0544 C9H7+ 1 115.0542 1.31
  119.0493 C8H7O+ 1 119.0491 1.04
  123.0442 C7H7O2+ 1 123.0441 0.92
  133.0649 C9H9O+ 1 133.0648 0.9
  135.0442 C8H7O2+ 1 135.0441 1.19
  137.06 C8H9O2+ 1 137.0597 2.3
  147.0442 C9H7O2+ 1 147.0441 1.01
  149.0593 C9H9O2+ 1 149.0597 -2.65
  151.0755 C9H11O2+ 1 151.0754 1.23
  161.0599 C10H9O2+ 1 161.0597 1.02
  164.0468 C9H8O3+ 1 164.0468 0.04
PK$NUM_PEAK: 15
PK$PEAK: m/z int. rel.int.
  55.0177 5625.7 8
  91.0542 1758.6 2
  95.0493 6890.7 10
  105.07 19186.6 28
  115.0544 6269.3 9
  119.0493 21623.5 32
  123.0442 19821.2 29
  133.0649 81798.9 121
  135.0442 5228.3 7
  137.06 5908.8 8
  147.0442 665099.7 987
  149.0593 2824.7 4
  151.0755 11124.1 16
  161.0599 672529.9 999
  164.0468 1526.9 2
//
