ACCESSION: MSBNK-NaToxAq-NA003625
RECORD_TITLE: Umbelliferone; LC-ESI-ITFT; MS2; CE: 90%; R=15000; [M+H]+
DATE: 2020.02.22
AUTHORS: Tobias Schulze, Martin Krauss, Helmholtz Centre for Environmental Research GmbH - UFZ, Leipzig, Germany
LICENSE: CC0
COPYRIGHT: Copyright (C) 2020 by Helmholtz Centre for Environmental Research GmbH - UFZ, Leipzig, Germany
COMMENT: CONFIDENCE Reference Standard (Level 1)
COMMENT: INTERNAL_ID 2311
CH$NAME: Umbelliferone
CH$NAME: 7-hydroxychromen-2-one
CH$COMPOUND_CLASS: N/A; Environmental Standard
CH$FORMULA: C9H6O3
CH$EXACT_MASS: 162.0317
CH$SMILES: c1cc(cc2c1ccc(=O)o2)O
CH$IUPAC: InChI=1S/C9H6O3/c10-7-3-1-6-2-4-9(11)12-8(6)5-7/h1-5,10H
CH$LINK: CAS 93-35-6
CH$LINK: CHEBI CHEBI:27510
CH$LINK: KEGG C09315
CH$LINK: PUBCHEM CID:5281426
CH$LINK: INCHIKEY ORHBXUUXSCNDEV-UHFFFAOYSA-N
CH$LINK: CHEMSPIDER 4444774
CH$LINK: COMPTOX DTXSID5052626
AC$INSTRUMENT: LTQ Orbitrap XL Thermo Scientific
AC$INSTRUMENT_TYPE: LC-ESI-ITFT
AC$MASS_SPECTROMETRY: MS_TYPE MS2
AC$MASS_SPECTROMETRY: ION_MODE POSITIVE
AC$MASS_SPECTROMETRY: IONIZATION ESI
AC$MASS_SPECTROMETRY: FRAGMENTATION_MODE HCD
AC$MASS_SPECTROMETRY: COLLISION_ENERGY 90% (nominal)
AC$MASS_SPECTROMETRY: RESOLUTION 15000
AC$CHROMATOGRAPHY: COLUMN_NAME Kinetex Evo C18 2.6 um 50x2.1 mm, Phenomenex
AC$CHROMATOGRAPHY: FLOW_GRADIENT 95/5 at 0 min, 95/5 at 1 min, 0/100 at 13 min, 0/100 at 24 min, 95/5 at 24.3 min, 95/5/0 at 32 min
AC$CHROMATOGRAPHY: FLOW_RATE 300 uL/min
AC$CHROMATOGRAPHY: RETENTION_TIME 6.195 min
AC$CHROMATOGRAPHY: SOLVENT A water with 0.1% formic acid
AC$CHROMATOGRAPHY: SOLVENT B methanol with 0.1% formic acid
MS$FOCUSED_ION: BASE_PEAK 116.9859
MS$FOCUSED_ION: PRECURSOR_M/Z 163.039
MS$FOCUSED_ION: PRECURSOR_TYPE [M+H]+
MS$DATA_PROCESSING: RECALIBRATE loess on assigned fragments and MS1
MS$DATA_PROCESSING: REANALYZE Peaks with additional N2/O included
MS$DATA_PROCESSING: WHOLE RMassBank 2.14.1
PK$SPLASH: splash10-0a4i-3900000000-a68f16c74a90b40deff8
PK$ANNOTATION: m/z tentative_formula formula_count mass error(ppm)
  65.0386 C5H5+ 1 65.0386 0.68
  77.0386 C6H5+ 1 77.0386 0.41
  79.0542 C6H7+ 1 79.0542 0.04
  91.0542 C7H7+ 1 91.0542 0.13
  95.0493 C6H7O+ 1 95.0491 1.85
  107.0491 C7H7O+ 1 107.0491 0
  119.0491 C8H7O+ 1 119.0491 -0.17
  135.0444 C8H7O2+ 1 135.0441 2.37
  163.039 C9H7O3+ 1 163.039 0.24
PK$NUM_PEAK: 9
PK$PEAK: m/z int. rel.int.
  65.0386 2407.5 20
  77.0386 12733.5 108
  79.0542 6482.8 55
  91.0542 26875.5 229
  95.0493 1983 16
  107.0491 117049.8 999
  119.0491 7039.3 60
  135.0444 2802.5 23
  163.039 10318.9 88
//
