ACCESSION: MSBNK-NaToxAq-NA001421
RECORD_TITLE: (+)-Sparteine; LC-ESI-ITFT; MS2; CE: 80%; R=15000; [M+H]+
DATE: 2019.07.31
AUTHORS: Tobias Schulze, Vaidotas Kisielius, Xiaomeng Liang, Mulatu Yohannes Nanusha, Martin Krauss, Helmholtz Centre for Environmental Research GmbH - UFZ, Leipzig, Germany and University of Copenhagen (UCPH), Denmark
LICENSE: CC BY
COPYRIGHT: Copyright (C) 2019
COMMENT: CONFIDENCE Reference Standard (Level 1)
COMMENT: INTERNAL_ID 3
CH$NAME: (+)-Sparteine
CH$COMPOUND_CLASS: N/A; Environmental Standard
CH$FORMULA: C15H26N2
CH$EXACT_MASS: 234.2096
CH$SMILES: C1CCN2C[C@H]3C[C@@H]([C@H]2C1)CN4[C@H]3CCCC4
CH$IUPAC: InChI=1S/C15H26N2/c1-3-7-16-11-13-9-12(14(16)5-1)10-17-8-4-2-6-15(13)17/h12-15H,1-11H2/t12-,13-,14-,15+/m1/s1
CH$LINK: INCHIKEY SLRCCWJSBJZJBV-TUVASFSCSA-N
CH$LINK: PUBCHEM CID:7014
AC$INSTRUMENT: LTQ Orbitrap XL Thermo Scientific
AC$INSTRUMENT_TYPE: LC-ESI-ITFT
AC$MASS_SPECTROMETRY: MS_TYPE MS2
AC$MASS_SPECTROMETRY: ION_MODE POSITIVE
AC$MASS_SPECTROMETRY: IONIZATION ESI
AC$MASS_SPECTROMETRY: FRAGMENTATION_MODE HCD
AC$MASS_SPECTROMETRY: COLLISION_ENERGY 80 % (nominal)
AC$MASS_SPECTROMETRY: RESOLUTION 15000
AC$CHROMATOGRAPHY: COLUMN_NAME Kinetex Evo C18 2.6 um 50x2.1 mm, Phenomenex
AC$CHROMATOGRAPHY: FLOW_GRADIENT 95/5 at 0 min, 95/5 at 1 min, 0/100 at 13 min, 0/100 at 24 min, 95/5 at 24.3 min, 95/5/0 at 32 min
AC$CHROMATOGRAPHY: FLOW_RATE 300 uL/min
AC$CHROMATOGRAPHY: RETENTION_TIME 0.556 min
AC$CHROMATOGRAPHY: SOLVENT A water with 0.1% formic acid
AC$CHROMATOGRAPHY: SOLVENT B methanol with 0.1% formic acid
MS$FOCUSED_ION: BASE_PEAK 235.2166
MS$FOCUSED_ION: PRECURSOR_M/Z 235.2169
MS$FOCUSED_ION: PRECURSOR_TYPE [M+H]+
MS$DATA_PROCESSING: RECALIBRATE loess on assigned fragments and MS1
MS$DATA_PROCESSING: REANALYZE Peaks with additional N2/O included
MS$DATA_PROCESSING: WHOLE RMassBank 2.12.0
PK$SPLASH: splash10-000j-7090000000-529cefe4c2ecf6ed69a4
PK$ANNOTATION: m/z tentative_formula formula_count mass error(ppm)
  70.0651 C4H8N+ 1 70.0651 -0.63
  84.0807 C5H10N+ 1 84.0808 -0.53
  96.0806 C6H10N+ 1 96.0808 -1.78
  98.0964 C6H12N+ 1 98.0964 -0.6
  110.0963 C7H12N+ 1 110.0964 -1.41
  124.112 C8H14N+ 1 124.1121 -0.8
  134.0964 C9H12N+ 1 134.0964 -0.16
  150.1277 C10H16N+ 1 150.1277 0.03
  152.1433 C10H18N+ 1 152.1434 -0.69
  164.1429 C11H18N+ 1 164.1434 -2.62
  190.1587 C13H20N+ 1 190.159 -1.53
  233.2011 C15H25N2+ 1 233.2012 -0.38
  235.2167 C15H27N2+ 1 235.2169 -0.83
PK$NUM_PEAK: 13
PK$PEAK: m/z int. rel.int.
  70.0651 17790.8 9
  84.0807 49628.1 27
  96.0806 11433.2 6
  98.0964 1674500 934
  110.0963 5140.2 2
  124.112 10986 6
  134.0964 35898.7 20
  150.1277 22320.5 12
  152.1433 38326.1 21
  164.1429 4234 2
  190.1587 4932.2 2
  233.2011 400855.2 223
  235.2167 1790114.2 999
//
