ACCESSION: MSBNK-NaToxAq-NA002513
RECORD_TITLE: (-)-Scopolamine; LC-ESI-ITFT; MS2; CE: 20%; R=15000; [M+H]+
DATE: 2020.02.21
AUTHORS: Tobias Schulze, Martin Krauss, Helmholtz Centre for Environmental Research GmbH - UFZ, Leipzig, Germany
LICENSE: CC0
COPYRIGHT: Copyright (C) 2020 by Helmholtz Centre for Environmental Research GmbH - UFZ, Leipzig, Germany
COMMENT: CONFIDENCE Reference Standard (Level 1)
COMMENT: INTERNAL_ID 2318
CH$NAME: (-)-Scopolamine
CH$COMPOUND_CLASS: N/A; Environmental Standard
CH$FORMULA: C17H21NO4
CH$EXACT_MASS: 303.1471
CH$SMILES: CN1[C@@H]2C[C@H](C[C@H]1[C@H]3[C@@H]2O3)OC(=O)[C@H](CO)c4ccccc4
CH$IUPAC: InChI=1S/C17H21NO4/c1-18-13-7-11(8-14(18)16-15(13)22-16)21-17(20)12(9-19)10-5-3-2-4-6-10/h2-6,11-16,19H,7-9H2,1H3/t11-,12-,13-,14+,15-,16+/m1/s1
CH$LINK: CAS 51-34-3
CH$LINK: CHEBI CHEBI:16794
CH$LINK: INCHIKEY STECJAGHUSJQJN-FWXGHANASA-N
CH$LINK: CHEMSPIDER 10194106
CH$LINK: COMPTOX DTXSID6023573
AC$INSTRUMENT: LTQ Orbitrap XL Thermo Scientific
AC$INSTRUMENT_TYPE: LC-ESI-ITFT
AC$MASS_SPECTROMETRY: MS_TYPE MS2
AC$MASS_SPECTROMETRY: ION_MODE POSITIVE
AC$MASS_SPECTROMETRY: IONIZATION ESI
AC$MASS_SPECTROMETRY: FRAGMENTATION_MODE HCD
AC$MASS_SPECTROMETRY: COLLISION_ENERGY 20% (nominal)
AC$MASS_SPECTROMETRY: RESOLUTION 15000
AC$CHROMATOGRAPHY: COLUMN_NAME Kinetex Evo C18 2.6 um 50x2.1 mm, Phenomenex
AC$CHROMATOGRAPHY: FLOW_GRADIENT 95/5 at 0 min, 95/5 at 1 min, 0/100 at 13 min, 0/100 at 24 min, 95/5 at 24.3 min, 95/5/0 at 32 min
AC$CHROMATOGRAPHY: FLOW_RATE 300 uL/min
AC$CHROMATOGRAPHY: RETENTION_TIME 1.127 min
AC$CHROMATOGRAPHY: SOLVENT A water with 0.1% formic acid
AC$CHROMATOGRAPHY: SOLVENT B methanol with 0.1% formic acid
MS$FOCUSED_ION: BASE_PEAK 304.154
MS$FOCUSED_ION: PRECURSOR_M/Z 304.1543
MS$FOCUSED_ION: PRECURSOR_TYPE [M+H]+
MS$DATA_PROCESSING: RECALIBRATE loess on assigned fragments and MS1
MS$DATA_PROCESSING: REANALYZE Peaks with additional N2/O included
MS$DATA_PROCESSING: WHOLE RMassBank 2.14.1
PK$SPLASH: splash10-0udi-0409000000-4ba0dbbb6186fece2a28
PK$ANNOTATION: m/z tentative_formula formula_count mass error(ppm)
  110.0964 C7H12N+ 1 110.0964 -0.26
  121.0648 C8H9O+ 1 121.0648 -0.23
  138.0913 C8H12NO+ 1 138.0913 0.05
  156.102 C8H14NO2+ 1 156.1019 0.44
  304.1545 C17H22NO4+ 1 304.1543 0.38
PK$NUM_PEAK: 5
PK$PEAK: m/z int. rel.int.
  110.0964 3451.8 6
  121.0648 13824.8 25
  138.0913 116409.3 212
  156.102 138687.1 253
  304.1545 546243.2 999
//
