ACCESSION: MSBNK-NaToxAq-NA002473
RECORD_TITLE: Echimidine N-oxide; LC-ESI-ITFT; MS2; CE: 30%; R=15000; [M+H]+
DATE: 2020.02.21
AUTHORS: Tobias Schulze, Martin Krauss, Helmholtz Centre for Environmental Research GmbH - UFZ, Leipzig, Germany
LICENSE: CC0
COPYRIGHT: Copyright (C) 2020 by Helmholtz Centre for Environmental Research GmbH - UFZ, Leipzig, Germany
COMMENT: CONFIDENCE Reference Standard (Level 1)
COMMENT: INTERNAL_ID 2305
CH$NAME: Echimidine N-oxide
CH$NAME: [(7R,8R)-7-[(Z)-2-methylbut-2-enoyl]oxy-4-oxido-5,6,7,8-tetrahydro-3H-pyrrolizin-4-ium-1-yl]methyl (2R)-2,3-dihydroxy-2-[(1S)-1-hydroxyethyl]-3-methylbutanoate
CH$COMPOUND_CLASS: N/A; Environmental Standard
CH$FORMULA: C20H31NO8
CH$EXACT_MASS: 413.2050
CH$SMILES: C/C=C(/C)\C(=O)O[C@@H]1CC[N+]2([C@@H]1C(=CC2)COC(=O)[C@@]([C@H](C)O)(C(C)(C)O)O)[O-]
CH$IUPAC: InChI=1S/C20H31NO8/c1-6-12(2)17(23)29-15-8-10-21(27)9-7-14(16(15)21)11-28-18(24)20(26,13(3)22)19(4,5)25/h6-7,13,15-16,22,25-26H,8-11H2,1-5H3/b12-6-/t13-,15+,16+,20-,21?/m0/s1
CH$LINK: PUBCHEM CID:76334042
CH$LINK: INCHIKEY KDJGEXAPDZNXSD-KCFAIRMISA-N
CH$LINK: CHEMSPIDER 31146616
AC$INSTRUMENT: LTQ Orbitrap XL Thermo Scientific
AC$INSTRUMENT_TYPE: LC-ESI-ITFT
AC$MASS_SPECTROMETRY: MS_TYPE MS2
AC$MASS_SPECTROMETRY: ION_MODE POSITIVE
AC$MASS_SPECTROMETRY: IONIZATION ESI
AC$MASS_SPECTROMETRY: FRAGMENTATION_MODE HCD
AC$MASS_SPECTROMETRY: COLLISION_ENERGY 30% (nominal)
AC$MASS_SPECTROMETRY: RESOLUTION 15000
AC$CHROMATOGRAPHY: COLUMN_NAME Kinetex Evo C18 2.6 um 50x2.1 mm, Phenomenex
AC$CHROMATOGRAPHY: FLOW_GRADIENT 95/5 at 0 min, 95/5 at 1 min, 0/100 at 13 min, 0/100 at 24 min, 95/5 at 24.3 min, 95/5/0 at 32 min
AC$CHROMATOGRAPHY: FLOW_RATE 300 uL/min
AC$CHROMATOGRAPHY: RETENTION_TIME 6.587 min
AC$CHROMATOGRAPHY: SOLVENT A water with 0.1% formic acid
AC$CHROMATOGRAPHY: SOLVENT B methanol with 0.1% formic acid
MS$FOCUSED_ION: BASE_PEAK 414.2123
MS$FOCUSED_ION: PRECURSOR_M/Z 414.2122
MS$FOCUSED_ION: PRECURSOR_TYPE [M+H]+
MS$DATA_PROCESSING: RECALIBRATE loess on assigned fragments and MS1
MS$DATA_PROCESSING: REANALYZE Peaks with additional N2/O included
MS$DATA_PROCESSING: WHOLE RMassBank 2.14.1
PK$SPLASH: splash10-03di-0002900000-7911fbbd3f5b4eac453d
PK$ANNOTATION: m/z tentative_formula formula_count mass error(ppm)
  254.1386 C13H20NO4+ 1 254.1387 -0.42
  338.1599 C17H24NO6+ 1 338.1598 0.11
  352.1753 C18H26NO6+ 1 352.1755 -0.36
  356.1706 C17H26NO7+ 1 356.1704 0.73
  396.2017 C20H30NO7+ 1 396.2017 0.13
  414.2125 C20H32NO8+ 1 414.2122 0.7
PK$NUM_PEAK: 6
PK$PEAK: m/z int. rel.int.
  254.1386 21100.6 61
  338.1599 11962 34
  352.1753 32140.3 93
  356.1706 7102.3 20
  396.2017 32996.7 96
  414.2125 342026.9 999
//
