ACCESSION: MSBNK-NaToxAq-NA002200
RECORD_TITLE: Ptaquiloside; LC-ESI-ITFT; MS2; CE: 50%; R=15000; [M+Na]+
DATE: 2019.07.31
AUTHORS: Tobias Schulze, Vaidotas Kisielius, Xiaomeng Liang, Mulatu Yohannes Nanusha, Martin Krauss, Helmholtz Centre for Environmental Research GmbH - UFZ, Leipzig, Germany and University of Copenhagen (UCPH), Denmark
LICENSE: CC BY
COPYRIGHT: Copyright (C) 2019
COMMENT: CONFIDENCE Reference Standard (Level 1)
COMMENT: INTERNAL_ID 30
CH$NAME: Ptaquiloside
CH$NAME: (2R,3aR,7S,7aR)-7-hydroxy-2,5,7-trimethyl-3a-[(2S,3R,4S,5S,6R)-3,4,5-trihydroxy-6-(hydroxymethyl)oxan-2-yl]oxyspiro[3,7a-dihydro-2H-indene-6,1`-cyclopropane]-1-one
CH$COMPOUND_CLASS: N/A; Environmental Standard
CH$FORMULA: C20H30O8
CH$EXACT_MASS: 398.1941
CH$SMILES: C[C@@H]1C[C@]2(C=C(C3(CC3)[C@@]([C@H]2C1=O)(C)O)C)O[C@H]4[C@@H]([C@H]([C@@H]([C@H](O4)CO)O)O)O
CH$IUPAC: InChI=1S/C20H30O8/c1-9-6-20(28-17-15(25)14(24)13(23)11(8-21)27-17)7-10(2)19(4-5-19)18(3,26)16(20)12(9)22/h7,9,11,13-17,21,23-26H,4-6,8H2,1-3H3/t9-,11-,13-,14+,15-,16-,17+,18+,20-/m1/s1
CH$LINK: PUBCHEM CID:13962857
CH$LINK: INCHIKEY GPHSJPVUEZFIDE-YVPLJZHISA-N
CH$LINK: CHEMSPIDER 10312775
CH$LINK: COMPTOX DTXSID20892005
AC$INSTRUMENT: LTQ Orbitrap XL Thermo Scientific
AC$INSTRUMENT_TYPE: LC-ESI-ITFT
AC$MASS_SPECTROMETRY: MS_TYPE MS2
AC$MASS_SPECTROMETRY: ION_MODE POSITIVE
AC$MASS_SPECTROMETRY: IONIZATION ESI
AC$MASS_SPECTROMETRY: FRAGMENTATION_MODE CID
AC$MASS_SPECTROMETRY: COLLISION_ENERGY 50 % (nominal)
AC$MASS_SPECTROMETRY: RESOLUTION 15000
AC$CHROMATOGRAPHY: COLUMN_NAME Kinetex Evo C18 2.6 um 50x2.1 mm, Phenomenex
AC$CHROMATOGRAPHY: FLOW_GRADIENT 95/5 at 0 min, 95/5 at 1 min, 0/100 at 13 min, 0/100 at 24 min, 95/5 at 24.3 min, 95/5/0 at 32 min
AC$CHROMATOGRAPHY: FLOW_RATE 300 uL/min
AC$CHROMATOGRAPHY: RETENTION_TIME 8.577 min
AC$CHROMATOGRAPHY: SOLVENT A water with 0.1% formic acid
AC$CHROMATOGRAPHY: SOLVENT B methanol with 0.1% formic acid
MS$FOCUSED_ION: BASE_PEAK 149.0117
MS$FOCUSED_ION: PRECURSOR_M/Z 421.1833
MS$FOCUSED_ION: PRECURSOR_TYPE [M+Na]+
MS$DATA_PROCESSING: RECALIBRATE loess on assigned fragments and MS1
MS$DATA_PROCESSING: REANALYZE Peaks with additional N2/O included
MS$DATA_PROCESSING: WHOLE RMassBank 2.12.0
PK$SPLASH: splash10-0006-0090000000-9e86d462a034d42ab27e
PK$ANNOTATION: m/z tentative_formula formula_count mass error(ppm)
  158.2096 C4H30O5+ 1 158.2088 4.91
  203.0524 C6H12NaO6+ 1 203.0526 -1.05
  223.1095 C14H16NaO+ 1 223.1093 0.64
  241.1199 C14H18NaO2+ 1 241.1199 -0.13
PK$NUM_PEAK: 4
PK$PEAK: m/z int. rel.int.
  158.2096 2296.7 11
  203.0524 42051.8 205
  223.1095 31736.9 155
  241.1199 203983.7 999
//
