ACCESSION: MSBNK-NaToxAq-NA000165
RECORD_TITLE: Piperine; LC-ESI-ITFT; MS2; CE: 95%; R=15000; [M+H]+
DATE: 2018.08.29
AUTHORS: Tobias Schulze, Hubert Schupke, Martin Krauss, Department of Effect-Directed Analysis, Helmholtz Centre for Environmental Research GmbH - UFZ, Leipzig, Germany
LICENSE: CC BY
COPYRIGHT: Copyright (C) 2018
COMMENT: CONFIDENCE Reference Standard (Level 1)
COMMENT: NaToxAq - Natural Toxins and Drinking Water Quality - From Source to Tap (https://natoxaq.ku.dk)
CH$NAME: Piperine
CH$NAME: (2E,4E)-5-(1,3-benzodioxol-5-yl)-1-piperidin-1-ylpenta-2,4-dien-1-one
CH$COMPOUND_CLASS: N/A; Environmental Standard
CH$FORMULA: C17H19NO3
CH$EXACT_MASS: 285.1365
CH$SMILES: O=C(\C=C\C=C\C1=CC2=C(OCO2)C=C1)N1CCCCC1
CH$IUPAC: InChI=1S/C17H19NO3/c19-17(18-10-4-1-5-11-18)7-3-2-6-14-8-9-15-16(12-14)21-13-20-15/h2-3,6-9,12H,1,4-5,10-11,13H2/b6-2+,7-3+
CH$LINK: CAS 94-62-2
CH$LINK: CHEBI CHEBI:28821
CH$LINK: KEGG C03882
CH$LINK: PUBCHEM CID:638024
CH$LINK: INCHIKEY MXXWOMGUGJBKIW-YPCIICBESA-N
CH$LINK: CHEMSPIDER 553590
CH$LINK: COMPTOX DTXSID3021805
AC$INSTRUMENT: LTQ Orbitrap XL Thermo Scientific
AC$INSTRUMENT_TYPE: LC-ESI-ITFT
AC$MASS_SPECTROMETRY: MS_TYPE MS2
AC$MASS_SPECTROMETRY: ION_MODE POSITIVE
AC$MASS_SPECTROMETRY: IONIZATION ESI
AC$MASS_SPECTROMETRY: FRAGMENTATION_MODE CID
AC$MASS_SPECTROMETRY: COLLISION_ENERGY 95 % (nominal)
AC$MASS_SPECTROMETRY: RESOLUTION 15000
AC$CHROMATOGRAPHY: COLUMN_NAME Kinetex Evo C18 2.6 um 50x2.1 mm, Phenomenex
AC$CHROMATOGRAPHY: FLOW_GRADIENT 95/5 at 0 min, 95/5 at 1 min, 0/100 at 13 min, 0/100 at 24 min, 95/5 at 24.3 min, 95/5 at 32 min
AC$CHROMATOGRAPHY: FLOW_RATE 300 uL/min
AC$CHROMATOGRAPHY: RETENTION_TIME 11.797 min
AC$CHROMATOGRAPHY: SOLVENT A water with 0.1% formic acid
AC$CHROMATOGRAPHY: SOLVENT B methanol with 0.1% formic acid
MS$FOCUSED_ION: BASE_PEAK 286.1441
MS$FOCUSED_ION: PRECURSOR_M/Z 286.1438
MS$FOCUSED_ION: PRECURSOR_TYPE [M+H]+
MS$DATA_PROCESSING: RECALIBRATE loess on assigned fragments and MS1
MS$DATA_PROCESSING: REANALYZE Peaks with additional N2/O included
MS$DATA_PROCESSING: WHOLE RMassBank 2.9.1
PK$SPLASH: splash10-0udi-0190000000-292c8ab7ddfcc3d001ae
PK$ANNOTATION: m/z tentative_formula formula_count mass error(ppm)
  84.0806 C5H10N+ 1 84.0808 -2.44
  86.0962 C5H12N+ 1 86.0964 -2.11
  112.0756 C6H10NO+ 1 112.0757 -0.49
  115.0543 C9H7+ 1 115.0542 0.78
  134.096 C9H12N+ 1 134.0964 -2.99
  135.0439 C8H7O2+ 1 135.0441 -1.3
  143.049 C10H7O+ 1 143.0491 -1.11
  150.0912 C9H12NO+ 1 150.0913 -1.15
  151.0988 C9H13NO+ 1 151.0992 -2.26
  159.0436 C10H7O2+ 1 159.0441 -2.8
  171.0438 C11H7O2+ 1 171.0441 -1.25
  173.0594 C11H9O2+ 1 173.0597 -1.54
  185.096 C13H13O+ 1 185.0961 -0.58
  201.0544 C12H9O3+ 1 201.0546 -1.25
  203.0701 C12H11O3+ 1 203.0703 -0.95
  215.1064 C14H15O2+ 1 215.1067 -1.01
PK$NUM_PEAK: 16
PK$PEAK: m/z int. rel.int.
  84.0806 9665.8 1
  86.0962 9433.3 1
  112.0756 33193.5 5
  115.0543 27402.2 4
  134.096 6875.9 1
  135.0439 333863.2 52
  143.049 53888.8 8
  150.0912 32922.6 5
  151.0988 20845.4 3
  159.0436 12594.8 1
  171.0438 73838.3 11
  173.0594 140439.6 21
  185.096 9092.5 1
  201.0544 6390000 999
  203.0701 18044.1 2
  215.1064 35669.2 5
//
