ACCESSION: MSBNK-NaToxAq-NA000959
RECORD_TITLE: Coniferaldehyde; LC-ESI-ITFT; MS2; CE: 30%; R=15000; [M+H]+
DATE: 2019.07.31
AUTHORS: Tobias Schulze, Vaidotas Kisielius, Xiaomeng Liang, Mulatu Yohannes Nanusha, Martin Krauss, Helmholtz Centre for Environmental Research GmbH - UFZ, Leipzig, Germany and University of Copenhagen (UCPH), Denmark
LICENSE: CC BY
COPYRIGHT: Copyright (C) 2019
COMMENT: CONFIDENCE Reference Standard (Level 1)
COMMENT: INTERNAL_ID 13
CH$NAME: Coniferaldehyde
CH$COMPOUND_CLASS: N/A; Environmental Standard
CH$FORMULA: C10H10O3
CH$EXACT_MASS: 178.0630
CH$SMILES: COC1=CC(\C=C\C=O)=CC=C1O
CH$IUPAC: InChI=1S/C10H10O3/c1-13-10-7-8(3-2-6-11)4-5-9(10)12/h2-7,12H,1H3/b3-2+
CH$LINK: INCHIKEY DKZBBWMURDFHNE-NSCUHMNNSA-N
CH$LINK: PUBCHEM CID:5280536
CH$LINK: COMPTOX DTXSID10174685
AC$INSTRUMENT: LTQ Orbitrap XL Thermo Scientific
AC$INSTRUMENT_TYPE: LC-ESI-ITFT
AC$MASS_SPECTROMETRY: MS_TYPE MS2
AC$MASS_SPECTROMETRY: ION_MODE POSITIVE
AC$MASS_SPECTROMETRY: IONIZATION ESI
AC$MASS_SPECTROMETRY: FRAGMENTATION_MODE CID
AC$MASS_SPECTROMETRY: COLLISION_ENERGY 30 % (nominal)
AC$MASS_SPECTROMETRY: RESOLUTION 15000
AC$CHROMATOGRAPHY: COLUMN_NAME Kinetex Evo C18 2.6 um 50x2.1 mm, Phenomenex
AC$CHROMATOGRAPHY: FLOW_GRADIENT 95/5 at 0 min, 95/5 at 1 min, 0/100 at 13 min, 0/100 at 24 min, 95/5 at 24.3 min, 95/5/0 at 32 min
AC$CHROMATOGRAPHY: FLOW_RATE 300 uL/min
AC$CHROMATOGRAPHY: RETENTION_TIME 7.483 min
AC$CHROMATOGRAPHY: SOLVENT A water with 0.1% formic acid
AC$CHROMATOGRAPHY: SOLVENT B methanol with 0.1% formic acid
MS$FOCUSED_ION: BASE_PEAK 179.0701
MS$FOCUSED_ION: PRECURSOR_M/Z 179.0703
MS$FOCUSED_ION: PRECURSOR_TYPE [M+H]+
MS$DATA_PROCESSING: RECALIBRATE loess on assigned fragments and MS1
MS$DATA_PROCESSING: REANALYZE Peaks with additional N2/O included
MS$DATA_PROCESSING: WHOLE RMassBank 2.12.0
PK$SPLASH: splash10-01ot-0900000000-05d8223b6e7932ad7e63
PK$ANNOTATION: m/z tentative_formula formula_count mass error(ppm)
  55.0177 C3H3O+ 1 55.0178 -2.3
  95.0492 C6H7O+ 1 95.0491 1.12
  105.0699 C8H9+ 1 105.0699 0.68
  115.0543 C9H7+ 1 115.0542 0.65
  119.0493 C8H7O+ 1 119.0491 1.27
  123.0442 C7H7O2+ 1 123.0441 0.83
  133.0649 C9H9O+ 1 133.0648 0.82
  135.0442 C8H7O2+ 1 135.0441 0.97
  137.0599 C8H9O2+ 1 137.0597 1.27
  147.0441 C9H7O2+ 1 147.0441 0.59
  151.0755 C9H11O2+ 1 151.0754 0.66
  161.0598 C10H9O2+ 1 161.0597 0.35
  179.0704 C10H11O3+ 1 179.0703 0.47
PK$NUM_PEAK: 13
PK$PEAK: m/z int. rel.int.
  55.0177 7233.9 9
  95.0492 8474.7 11
  105.0699 21720.8 28
  115.0543 6838.2 9
  119.0493 25333.8 33
  123.0442 24885.3 32
  133.0649 90915.2 120
  135.0442 6651.5 8
  137.0599 6904.1 9
  147.0441 754875.2 999
  151.0755 15122.6 20
  161.0598 752716.6 996
  179.0704 361996.8 479
//
