ACCESSION: MSBNK-NaToxAq-NA002743
RECORD_TITLE: Intermedine N-oxide; LC-ESI-ITFT; MS2; CE: 55%; R=15000; [M+H]+
DATE: 2020.02.21
AUTHORS: Tobias Schulze, Martin Krauss, Helmholtz Centre for Environmental Research GmbH - UFZ, Leipzig, Germany
LICENSE: CC0
COPYRIGHT: Copyright (C) 2020 by Helmholtz Centre for Environmental Research GmbH - UFZ, Leipzig, Germany
COMMENT: CONFIDENCE Reference Standard (Level 1)
COMMENT: INTERNAL_ID 2272
CH$NAME: Intermedine N-oxide
CH$NAME: [(7R,8R)-7-hydroxy-4-oxido-5,6,7,8-tetrahydro-3H-pyrrolizin-4-ium-1-yl]methyl (2S)-2-hydroxy-2-[(1R)-1-hydroxyethyl]-3-methylbutanoate
CH$COMPOUND_CLASS: N/A; Environmental Standard
CH$FORMULA: C15H25NO6
CH$EXACT_MASS: 315.1682
CH$SMILES: C[C@H]([C@@](C(C)C)(C(=O)OCC1=CC[N+]2([C@H]1[C@@H](CC2)O)[O-])O)O
CH$IUPAC: InChI=1S/C15H25NO6/c1-9(2)15(20,10(3)17)14(19)22-8-11-4-6-16(21)7-5-12(18)13(11)16/h4,9-10,12-13,17-18,20H,5-8H2,1-3H3/t10-,12-,13-,15+,16?/m1/s1
CH$LINK: PUBCHEM CID:340066
CH$LINK: INCHIKEY DNAWGBOKUFFVMB-JXSDSIQZSA-N
CH$LINK: CHEMSPIDER 301477
AC$INSTRUMENT: LTQ Orbitrap XL Thermo Scientific
AC$INSTRUMENT_TYPE: LC-ESI-ITFT
AC$MASS_SPECTROMETRY: MS_TYPE MS2
AC$MASS_SPECTROMETRY: ION_MODE POSITIVE
AC$MASS_SPECTROMETRY: IONIZATION ESI
AC$MASS_SPECTROMETRY: FRAGMENTATION_MODE HCD
AC$MASS_SPECTROMETRY: COLLISION_ENERGY 55% (nominal)
AC$MASS_SPECTROMETRY: RESOLUTION 15000
AC$CHROMATOGRAPHY: COLUMN_NAME Kinetex Evo C18 2.6 um 50x2.1 mm, Phenomenex
AC$CHROMATOGRAPHY: FLOW_GRADIENT 95/5 at 0 min, 95/5 at 1 min, 0/100 at 13 min, 0/100 at 24 min, 95/5 at 24.3 min, 95/5/0 at 32 min
AC$CHROMATOGRAPHY: FLOW_RATE 300 uL/min
AC$CHROMATOGRAPHY: RETENTION_TIME 1.204 min
AC$CHROMATOGRAPHY: SOLVENT A water with 0.1% formic acid
AC$CHROMATOGRAPHY: SOLVENT B methanol with 0.1% formic acid
MS$FOCUSED_ION: BASE_PEAK 143.0015
MS$FOCUSED_ION: PRECURSOR_M/Z 316.1755
MS$FOCUSED_ION: PRECURSOR_TYPE [M+H]+
MS$DATA_PROCESSING: RECALIBRATE loess on assigned fragments and MS1
MS$DATA_PROCESSING: REANALYZE Peaks with additional N2/O included
MS$DATA_PROCESSING: WHOLE RMassBank 2.14.1
PK$SPLASH: splash10-00dr-1901000000-f5a973e076b40192c8cb
PK$ANNOTATION: m/z tentative_formula formula_count mass error(ppm)
  68.0492 C4H6N+ 1 68.0495 -3.42
  80.0494 C5H6N+ 1 80.0495 -0.99
  81.0699 C6H9+ 1 81.0699 -0.26
  82.0413 C5H6O+ 1 82.0413 0.02
  82.065 C5H8N+ 1 82.0651 -0.98
  83.0492 C5H7O+ 1 83.0491 0.38
  93.0573 C6H7N+ 1 93.0573 0.38
  94.0652 C6H8N+ 1 94.0651 0.37
  98.0598 C5H8NO+ 1 98.06 -2.02
  100.076 C5H10NO+ 1 100.0757 3.1
  108.0807 C7H10N+ 1 108.0808 -0.59
  109.0649 C7H9O+ 1 109.0648 0.59
  110.0602 C6H8NO+ 1 110.06 1.02
  111.0679 C6H9NO+ 1 111.0679 0.26
  112.0758 C6H10NO+ 1 112.0757 0.81
  136.0757 C8H10NO+ 1 136.0757 -0.14
  137.0837 C8H11NO+ 1 137.0835 1.09
  138.0913 C8H12NO+ 1 138.0913 -0.03
  154.0862 C8H12NO2+ 1 154.0863 -0.21
  155.0941 C8H13NO2+ 1 155.0941 0.27
  172.0969 C8H14NO3+ 1 172.0968 0.37
  226.1437 C12H20NO3+ 1 226.1438 -0.39
  272.15 C13H22NO5+ 1 272.1492 2.81
  298.1652 C15H24NO5+ 1 298.1649 0.94
  316.1755 C15H26NO6+ 1 316.1755 -0.02
PK$NUM_PEAK: 25
PK$PEAK: m/z int. rel.int.
  68.0492 1602.9 9
  80.0494 2509.4 14
  81.0699 1017.7 5
  82.0413 3076.8 17
  82.065 2429.2 14
  83.0492 3219.3 18
  93.0573 19955.6 115
  94.0652 17996 104
  98.0598 2429.7 14
  100.076 1304.3 7
  108.0807 5518.3 31
  109.0649 2268.5 13
  110.0602 2974.4 17
  111.0679 9143.6 53
  112.0758 5079.1 29
  136.0757 24731.8 143
  137.0837 7758.8 44
  138.0913 95372.4 552
  154.0862 16665.6 96
  155.0941 28824.1 167
  172.0969 172346.8 999
  226.1437 5317.2 30
  272.15 2662.3 15
  298.1652 2105.9 12
  316.1755 81000.9 469
//
