ACCESSION: MSBNK-NaToxAq-NA001266
RECORD_TITLE: (+)-Lupanine; LC-ESI-ITFT; MS2; CE: 55%; R=15000; [M+H]+
DATE: 2019.07.31
AUTHORS: Tobias Schulze, Vaidotas Kisielius, Xiaomeng Liang, Mulatu Yohannes Nanusha, Martin Krauss, Helmholtz Centre for Environmental Research GmbH - UFZ, Leipzig, Germany and University of Copenhagen (UCPH), Denmark
LICENSE: CC BY
COPYRIGHT: Copyright (C) 2019
COMMENT: CONFIDENCE Reference Standard (Level 1)
COMMENT: INTERNAL_ID 29
CH$NAME: (+)-Lupanine
CH$COMPOUND_CLASS: N/A; Environmental Standard
CH$FORMULA: C15H24N2O
CH$EXACT_MASS: 248.1889
CH$SMILES: C1CCN2CC3CC(C2C1)CN4C3CCCC4=O
CH$IUPAC: InChI=1S/C15H24N2O/c18-15-6-3-5-14-11-8-12(10-17(14)15)13-4-1-2-7-16(13)9-11/h11-14H,1-10H2
CH$LINK: INCHIKEY JYIJIIVLEOETIQ-UHFFFAOYSA-N
CH$LINK: PUBCHEM CID:119201
AC$INSTRUMENT: LTQ Orbitrap XL Thermo Scientific
AC$INSTRUMENT_TYPE: LC-ESI-ITFT
AC$MASS_SPECTROMETRY: MS_TYPE MS2
AC$MASS_SPECTROMETRY: ION_MODE POSITIVE
AC$MASS_SPECTROMETRY: IONIZATION ESI
AC$MASS_SPECTROMETRY: FRAGMENTATION_MODE HCD
AC$MASS_SPECTROMETRY: COLLISION_ENERGY 55 % (nominal)
AC$MASS_SPECTROMETRY: RESOLUTION 15000
AC$CHROMATOGRAPHY: COLUMN_NAME Kinetex Evo C18 2.6 um 50x2.1 mm, Phenomenex
AC$CHROMATOGRAPHY: FLOW_GRADIENT 95/5 at 0 min, 95/5 at 1 min, 0/100 at 13 min, 0/100 at 24 min, 95/5 at 24.3 min, 95/5/0 at 32 min
AC$CHROMATOGRAPHY: FLOW_RATE 300 uL/min
AC$CHROMATOGRAPHY: RETENTION_TIME 0.484 min
AC$CHROMATOGRAPHY: SOLVENT A water with 0.1% formic acid
AC$CHROMATOGRAPHY: SOLVENT B methanol with 0.1% formic acid
MS$FOCUSED_ION: BASE_PEAK 249.1958
MS$FOCUSED_ION: PRECURSOR_M/Z 249.1961
MS$FOCUSED_ION: PRECURSOR_TYPE [M+H]+
MS$DATA_PROCESSING: RECALIBRATE loess on assigned fragments and MS1
MS$DATA_PROCESSING: REANALYZE Peaks with additional N2/O included
MS$DATA_PROCESSING: WHOLE RMassBank 2.12.0
PK$SPLASH: splash10-0002-0290000000-58f1c02e8baeef585500
PK$ANNOTATION: m/z tentative_formula formula_count mass error(ppm)
  70.0651 C4H8N+ 1 70.0651 -0.39
  84.0809 C5H10N+ 1 84.0808 1.51
  85.0648 C5H9O+ 1 85.0648 -0.26
  96.0808 C6H10N+ 1 96.0808 0.04
  98.0964 C6H12N+ 1 98.0964 -0.23
  114.0913 C6H12NO+ 1 114.0913 -0.39
  134.0964 C9H12N+ 1 134.0964 -0.02
  136.1121 C9H14N+ 1 136.1121 -0.1
  148.1116 C10H14N+ 1 148.1121 -3.02
  150.1278 C10H16N+ 1 150.1277 0.59
  231.1854 C15H23N2+ 1 231.1856 -0.71
  247.1806 C15H23N2O+ 1 247.1805 0.57
  249.1961 C15H25N2O+ 1 249.1961 -0.05
PK$NUM_PEAK: 13
PK$PEAK: m/z int. rel.int.
  70.0651 27700.9 10
  84.0809 8525 3
  85.0648 16846.9 6
  96.0808 21060.5 7
  98.0964 53017.4 19
  114.0913 249027.5 92
  134.0964 38620.6 14
  136.1121 586038.2 217
  148.1116 3061.7 1
  150.1278 25328.8 9
  231.1854 40370.8 15
  247.1806 49382.4 18
  249.1961 2687527.2 999
//
