ACCESSION: MSBNK-NaToxAq-NA000676
RECORD_TITLE: Erucifoline; LC-ESI-ITFT; MS2; CE: 95%; R=15000; [M+H]+
DATE: 2019.02.28
AUTHORS: Tobias Schulze, Jawameer Hama, Hubert Schupke, Martin Krauss, Helmholtz Centre for Environmental Research GmbH - UFZ, Leipzig, Germany and University of Copenhagen (UCPH), Denmark
LICENSE: CC BY
COPYRIGHT: Copyright (C) 2019
COMMENT: CONFIDENCE Reference Standard (Level 1)
COMMENT: INTERNAL_ID 154
CH$NAME: Erucifoline
CH$NAME: CID 75092738
CH$NAME: 9-ethylidene-7-(hydroxymethyl)-5-methyl-3,6,11-trioxa-15-azatetracyclo[10.5.1.0^{5,7}.0^{15,18}]octadec-1(17)-ene-4,10-dione
CH$COMPOUND_CLASS: N/A; Environmental Standard
CH$FORMULA: C18H23NO6
CH$EXACT_MASS: 349.1525
CH$SMILES: CC=C1CC2(C(O2)(C(=O)OCC3=CCN4C3C(CC4)OC1=O)C)CO
CH$IUPAC: InChI=1S/C18H23NO6/c1-3-11-8-18(10-20)17(2,25-18)16(22)23-9-12-4-6-19-7-5-13(14(12)19)24-15(11)21/h3-4,13-14,20H,5-10H2,1-2H3
CH$LINK: PUBCHEM CID:75092738
CH$LINK: INCHIKEY NOQVBHHOUTTZGE-UHFFFAOYSA-N
AC$INSTRUMENT: LTQ Orbitrap XL Thermo Scientific
AC$INSTRUMENT_TYPE: LC-ESI-ITFT
AC$MASS_SPECTROMETRY: MS_TYPE MS2
AC$MASS_SPECTROMETRY: ION_MODE POSITIVE
AC$MASS_SPECTROMETRY: IONIZATION ESI
AC$MASS_SPECTROMETRY: FRAGMENTATION_MODE HCD
AC$MASS_SPECTROMETRY: COLLISION_ENERGY 95 % (nominal)
AC$MASS_SPECTROMETRY: RESOLUTION 15000
AC$CHROMATOGRAPHY: COLUMN_NAME Kinetex Evo C18 2.6 um 50x2.1 mm, Phenomenex
AC$CHROMATOGRAPHY: FLOW_GRADIENT 95/5 at 0 min, 95/5 at 1 min, 0/100 at 13 min, 0/100 at 24 min, 95/5 at 24.3 min, 95/5 at 32 min
AC$CHROMATOGRAPHY: FLOW_RATE 300 uL/min
AC$CHROMATOGRAPHY: RETENTION_TIME 1.053 min
AC$CHROMATOGRAPHY: SOLVENT A water with 0.1% formic acid
AC$CHROMATOGRAPHY: SOLVENT B methanol with 0.1% formic acid
MS$FOCUSED_ION: BASE_PEAK 350.1596
MS$FOCUSED_ION: PRECURSOR_M/Z 350.1598
MS$FOCUSED_ION: PRECURSOR_TYPE [M+H]+
MS$DATA_PROCESSING: RECALIBRATE loess on assigned fragments and MS1
MS$DATA_PROCESSING: REANALYZE Peaks with additional N2/O included
MS$DATA_PROCESSING: WHOLE RMassBank 2.11.0
PK$SPLASH: splash10-000x-9100000000-007c4ea46e4bd4665fa7
PK$ANNOTATION: m/z tentative_formula formula_count mass error(ppm)
  65.0384 C5H5+ 1 65.0386 -2.94
  67.0541 C5H7+ 1 67.0542 -2.13
  77.0385 C6H5+ 1 77.0386 -1.02
  79.0542 C6H7+ 1 79.0542 -0.66
  80.0494 C5H6N+ 1 80.0495 -1.03
  81.0701 C6H9+ 1 81.0699 2.49
  82.065 C5H8N+ 1 82.0651 -2.1
  91.0542 C7H7+ 1 91.0542 -0.28
  93.0703 C7H9+ 1 93.0699 4.06
  94.0651 C6H8N+ 1 94.0651 -0.46
  120.0808 C8H10N+ 1 120.0808 0.49
PK$NUM_PEAK: 11
PK$PEAK: m/z int. rel.int.
  65.0384 979.8 134
  67.0541 5456 747
  77.0385 2229.2 305
  79.0542 1451.4 198
  80.0494 3006.9 412
  81.0701 984.2 134
  82.065 1666.2 228
  91.0542 2517.7 345
  93.0703 1317.7 180
  94.0651 7288.8 999
  120.0808 3169.3 434
//
