ACCESSION: MSBNK-NaToxAq-NA003633
RECORD_TITLE: Primin; LC-ESI-ITFT; MS2; CE: 105%; R=15000; [M+H]+
DATE: 2020.02.22
AUTHORS: Tobias Schulze, Martin Krauss, Helmholtz Centre for Environmental Research GmbH - UFZ, Leipzig, Germany
LICENSE: CC0
COPYRIGHT: Copyright (C) 2020 by Helmholtz Centre for Environmental Research GmbH - UFZ, Leipzig, Germany
COMMENT: CONFIDENCE Reference Standard (Level 1)
COMMENT: INTERNAL_ID 2313
CH$NAME: Primin
CH$NAME: 2-methoxy-6-pentylcyclohexa-2,5-diene-1,4-dione
CH$COMPOUND_CLASS: N/A; Environmental Standard
CH$FORMULA: C12H16O3
CH$EXACT_MASS: 208.1099
CH$SMILES: CCCCCC1=CC(=O)C=C(C1=O)OC
CH$IUPAC: InChI=1S/C12H16O3/c1-3-4-5-6-9-7-10(13)8-11(15-2)12(9)14/h7-8H,3-6H2,1-2H3
CH$LINK: CAS 15121-94-5
CH$LINK: CHEBI CHEBI:8413
CH$LINK: KEGG C10390
CH$LINK: PUBCHEM CID:84800
CH$LINK: INCHIKEY WLWIMKWZMGJRBS-UHFFFAOYSA-N
CH$LINK: CHEMSPIDER 76498
CH$LINK: COMPTOX DTXSID20164734
AC$INSTRUMENT: LTQ Orbitrap XL Thermo Scientific
AC$INSTRUMENT_TYPE: LC-ESI-ITFT
AC$MASS_SPECTROMETRY: MS_TYPE MS2
AC$MASS_SPECTROMETRY: ION_MODE POSITIVE
AC$MASS_SPECTROMETRY: IONIZATION ESI
AC$MASS_SPECTROMETRY: FRAGMENTATION_MODE HCD
AC$MASS_SPECTROMETRY: COLLISION_ENERGY 105% (nominal)
AC$MASS_SPECTROMETRY: RESOLUTION 15000
AC$CHROMATOGRAPHY: COLUMN_NAME Kinetex Evo C18 2.6 um 50x2.1 mm, Phenomenex
AC$CHROMATOGRAPHY: FLOW_GRADIENT 95/5 at 0 min, 95/5 at 1 min, 0/100 at 13 min, 0/100 at 24 min, 95/5 at 24.3 min, 95/5/0 at 32 min
AC$CHROMATOGRAPHY: FLOW_RATE 300 uL/min
AC$CHROMATOGRAPHY: RETENTION_TIME 11.175 min
AC$CHROMATOGRAPHY: SOLVENT A water with 0.1% formic acid
AC$CHROMATOGRAPHY: SOLVENT B methanol with 0.1% formic acid
MS$FOCUSED_ION: BASE_PEAK 116.9859
MS$FOCUSED_ION: PRECURSOR_M/Z 209.1172
MS$FOCUSED_ION: PRECURSOR_TYPE [M+H]+
MS$DATA_PROCESSING: RECALIBRATE loess on assigned fragments and MS1
MS$DATA_PROCESSING: REANALYZE Peaks with additional N2/O included
MS$DATA_PROCESSING: WHOLE RMassBank 2.14.1
PK$SPLASH: splash10-03fr-4900000000-aa4bc03a3a531b0091ee
PK$ANNOTATION: m/z tentative_formula formula_count mass error(ppm)
  77.0386 C6H5+ 1 77.0386 0.31
  110.0363 C6H6O2+ 1 110.0362 0.25
PK$NUM_PEAK: 2
PK$PEAK: m/z int. rel.int.
  77.0386 1449.3 506
  110.0363 2857.3 999
//
