ACCESSION: MSBNK-NaToxAq-NA000945
RECORD_TITLE: Bergapten/Heraclin; LC-ESI-ITFT; MS2; CE: 35%; R=15000; [M+H]+
DATE: 2019.07.31
AUTHORS: Tobias Schulze, Vaidotas Kisielius, Xiaomeng Liang, Mulatu Yohannes Nanusha, Martin Krauss, Helmholtz Centre for Environmental Research GmbH - UFZ, Leipzig, Germany and University of Copenhagen (UCPH), Denmark
LICENSE: CC BY
COPYRIGHT: Copyright (C) 2019
COMMENT: CONFIDENCE Reference Standard (Level 1)
COMMENT: INTERNAL_ID 10
CH$NAME: Bergapten/Heraclin
CH$COMPOUND_CLASS: N/A; Environmental Standard
CH$FORMULA: C12H8O4
CH$EXACT_MASS: 216.0423
CH$SMILES: COC1=C2C=COC2=CC2=C1C=CC(=O)O2
CH$IUPAC: InChI=1S/C12H8O4/c1-14-12-7-2-3-11(13)16-10(7)6-9-8(12)4-5-15-9/h2-6H,1H3
CH$LINK: INCHIKEY BGEBZHIAGXMEMV-UHFFFAOYSA-N
CH$LINK: PUBCHEM CID:2355
CH$LINK: COMPTOX DTXSID1025560
AC$INSTRUMENT: LTQ Orbitrap XL Thermo Scientific
AC$INSTRUMENT_TYPE: LC-ESI-ITFT
AC$MASS_SPECTROMETRY: MS_TYPE MS2
AC$MASS_SPECTROMETRY: ION_MODE POSITIVE
AC$MASS_SPECTROMETRY: IONIZATION ESI
AC$MASS_SPECTROMETRY: FRAGMENTATION_MODE HCD
AC$MASS_SPECTROMETRY: COLLISION_ENERGY 35 % (nominal)
AC$MASS_SPECTROMETRY: RESOLUTION 15000
AC$CHROMATOGRAPHY: COLUMN_NAME Kinetex Evo C18 2.6 um 50x2.1 mm, Phenomenex
AC$CHROMATOGRAPHY: FLOW_GRADIENT 95/5 at 0 min, 95/5 at 1 min, 0/100 at 13 min, 0/100 at 24 min, 95/5 at 24.3 min, 95/5/0 at 32 min
AC$CHROMATOGRAPHY: FLOW_RATE 300 uL/min
AC$CHROMATOGRAPHY: RETENTION_TIME 9.927 min
AC$CHROMATOGRAPHY: SOLVENT A water with 0.1% formic acid
AC$CHROMATOGRAPHY: SOLVENT B methanol with 0.1% formic acid
MS$FOCUSED_ION: BASE_PEAK 416.3519
MS$FOCUSED_ION: PRECURSOR_M/Z 217.0495
MS$FOCUSED_ION: PRECURSOR_TYPE [M+H]+
MS$DATA_PROCESSING: RECALIBRATE loess on assigned fragments and MS1
MS$DATA_PROCESSING: REANALYZE Peaks with additional N2/O included
MS$DATA_PROCESSING: WHOLE RMassBank 2.12.0
PK$SPLASH: splash10-014i-0090000000-c8a8902ef56cd2e1a3d3
PK$ANNOTATION: m/z tentative_formula formula_count mass error(ppm)
  161.0596 C10H9O2+ 1 161.0597 -0.5
  173.0594 C11H9O2+ 1 173.0597 -1.93
  202.0258 C11H6O4+ 1 202.0261 -1.3
  217.0492 C12H9O4+ 1 217.0495 -1.32
PK$NUM_PEAK: 4
PK$PEAK: m/z int. rel.int.
  161.0596 26997.5 3
  173.0594 78563.3 11
  202.0258 729603.9 103
  217.0492 7060898 999
//
