ACCESSION: MSBNK-NaToxAq-NA001006
RECORD_TITLE: Crotonoside; LC-ESI-ITFT; MS2; CE: 30%; R=15000; [M+H]+
DATE: 2019.07.31
AUTHORS: Tobias Schulze, Vaidotas Kisielius, Xiaomeng Liang, Mulatu Yohannes Nanusha, Martin Krauss, Helmholtz Centre for Environmental Research GmbH - UFZ, Leipzig, Germany and University of Copenhagen (UCPH), Denmark
LICENSE: CC BY
COPYRIGHT: Copyright (C) 2019
COMMENT: CONFIDENCE Reference Standard (Level 1)
COMMENT: INTERNAL_ID 26
CH$NAME: Crotonoside
CH$NAME: 2-Hydroxyadenosine
CH$NAME: 6-amino-9-[(2R,3R,4S,5R)-3,4-dihydroxy-5-(hydroxymethyl)oxolan-2-yl]-1H-purin-2-one
CH$COMPOUND_CLASS: N/A; Environmental Standard
CH$FORMULA: C10H13N5O5
CH$EXACT_MASS: 283.0917
CH$SMILES: NC1=C2N=CN([C@@H]3O[C@H](CO)[C@@H](O)[C@H]3O)C2=NC(O)=N1
CH$IUPAC: InChI=1S/C10H13N5O5/c11-7-4-8(14-10(19)13-7)15(2-12-4)9-6(18)5(17)3(1-16)20-9/h2-3,5-6,9,16-18H,1H2,(H3,11,13,14,19)/t3-,5-,6-,9-/m1/s1
CH$LINK: CAS 1818-71-9
CH$LINK: CHEBI CHEBI:3927
CH$LINK: KEGG C08432
CH$LINK: PUBCHEM CID:65085
CH$LINK: INCHIKEY MIKUYHXYGGJMLM-UUOKFMHZSA-N
CH$LINK: CHEMSPIDER 58595
AC$INSTRUMENT: LTQ Orbitrap XL Thermo Scientific
AC$INSTRUMENT_TYPE: LC-ESI-ITFT
AC$MASS_SPECTROMETRY: MS_TYPE MS2
AC$MASS_SPECTROMETRY: ION_MODE POSITIVE
AC$MASS_SPECTROMETRY: IONIZATION ESI
AC$MASS_SPECTROMETRY: FRAGMENTATION_MODE CID
AC$MASS_SPECTROMETRY: COLLISION_ENERGY 30 % (nominal)
AC$MASS_SPECTROMETRY: RESOLUTION 15000
AC$CHROMATOGRAPHY: COLUMN_NAME Kinetex Evo C18 2.6 um 50x2.1 mm, Phenomenex
AC$CHROMATOGRAPHY: FLOW_GRADIENT 95/5 at 0 min, 95/5 at 1 min, 0/100 at 13 min, 0/100 at 24 min, 95/5 at 24.3 min, 95/5/0 at 32 min
AC$CHROMATOGRAPHY: FLOW_RATE 300 uL/min
AC$CHROMATOGRAPHY: RETENTION_TIME 0.535 min
AC$CHROMATOGRAPHY: SOLVENT A water with 0.1% formic acid
AC$CHROMATOGRAPHY: SOLVENT B methanol with 0.1% formic acid
MS$FOCUSED_ION: BASE_PEAK 249.1957
MS$FOCUSED_ION: PRECURSOR_M/Z 284.0989
MS$FOCUSED_ION: PRECURSOR_TYPE [M+H]+
MS$DATA_PROCESSING: RECALIBRATE loess on assigned fragments and MS1
MS$DATA_PROCESSING: REANALYZE Peaks with additional N2/O included
MS$DATA_PROCESSING: WHOLE RMassBank 2.12.0
PK$SPLASH: splash10-0udi-0900000000-d4c94918fa73bfbb5cbb
PK$ANNOTATION: m/z tentative_formula formula_count mass error(ppm)
  135.0302 C5H3N4O+ 1 135.0301 0.54
  152.0567 C5H6N5O+ 1 152.0567 0.16
PK$NUM_PEAK: 2
PK$PEAK: m/z int. rel.int.
  135.0302 12542.6 16
  152.0567 768833.4 999
//
