ACCESSION: MSBNK-NaToxAq-NA001304
RECORD_TITLE: 4-Phenyl-3-buten-2-one; LC-ESI-ITFT; MS2; CE: 70%; R=15000; [M+H]+
DATE: 2019.07.31
AUTHORS: Tobias Schulze, Vaidotas Kisielius, Xiaomeng Liang, Mulatu Yohannes Nanusha, Martin Krauss, Helmholtz Centre for Environmental Research GmbH - UFZ, Leipzig, Germany and University of Copenhagen (UCPH), Denmark
LICENSE: CC BY
COPYRIGHT: Copyright (C) 2019
COMMENT: CONFIDENCE Reference Standard (Level 1)
COMMENT: INTERNAL_ID 6
CH$NAME: 4-Phenyl-3-buten-2-one
CH$COMPOUND_CLASS: N/A; Environmental Standard
CH$FORMULA: C10H10O
CH$EXACT_MASS: 146.0732
CH$SMILES: CC(=O)\C=C\C1=CC=CC=C1
CH$IUPAC: InChI=1S/C10H10O/c1-9(11)7-8-10-5-3-2-4-6-10/h2-8H,1H3/b8-7+
CH$LINK: INCHIKEY BWHOZHOGCMHOBV-BQYQJAHWSA-N
CH$LINK: PUBCHEM CID:637759
CH$LINK: COMPTOX DTXSID1031626
AC$INSTRUMENT: LTQ Orbitrap XL Thermo Scientific
AC$INSTRUMENT_TYPE: LC-ESI-ITFT
AC$MASS_SPECTROMETRY: MS_TYPE MS2
AC$MASS_SPECTROMETRY: ION_MODE POSITIVE
AC$MASS_SPECTROMETRY: IONIZATION ESI
AC$MASS_SPECTROMETRY: FRAGMENTATION_MODE HCD
AC$MASS_SPECTROMETRY: COLLISION_ENERGY 70 % (nominal)
AC$MASS_SPECTROMETRY: RESOLUTION 15000
AC$CHROMATOGRAPHY: COLUMN_NAME Kinetex Evo C18 2.6 um 50x2.1 mm, Phenomenex
AC$CHROMATOGRAPHY: FLOW_GRADIENT 95/5 at 0 min, 95/5 at 1 min, 0/100 at 13 min, 0/100 at 24 min, 95/5 at 24.3 min, 95/5/0 at 32 min
AC$CHROMATOGRAPHY: FLOW_RATE 300 uL/min
AC$CHROMATOGRAPHY: RETENTION_TIME 9.430 min
AC$CHROMATOGRAPHY: SOLVENT A water with 0.1% formic acid
AC$CHROMATOGRAPHY: SOLVENT B methanol with 0.1% formic acid
MS$FOCUSED_ION: BASE_PEAK 147.0804
MS$FOCUSED_ION: PRECURSOR_M/Z 147.0804
MS$FOCUSED_ION: PRECURSOR_TYPE [M+H]+
MS$DATA_PROCESSING: RECALIBRATE loess on assigned fragments and MS1
MS$DATA_PROCESSING: REANALYZE Peaks with additional N2/O included
MS$DATA_PROCESSING: WHOLE RMassBank 2.12.0
PK$SPLASH: splash10-004i-0900000000-4ee01be5438316576b96
PK$ANNOTATION: m/z tentative_formula formula_count mass error(ppm)
  69.0334 C4H5O+ 1 69.0335 -1.55
  79.0543 C6H7+ 1 79.0542 0.77
  91.0542 C7H7+ 1 91.0542 0.02
  103.0541 C8H7+ 1 103.0542 -0.95
  105.0699 C8H9+ 1 105.0699 0.18
  107.049 C7H7O+ 1 107.0491 -1.08
  117.07 C9H9+ 1 117.0699 0.78
  119.0491 C8H7O+ 1 119.0491 -0.24
  119.0856 C9H11+ 1 119.0855 0.71
  127.0537 C10H7+ 1 127.0542 -4.09
  128.0621 C10H8+ 1 128.0621 0.41
  129.0699 C10H9+ 1 129.0699 -0.07
  132.0568 C9H8O+ 1 132.057 -1.18
  145.0647 C10H9O+ 1 145.0648 -0.68
  147.0805 C10H11O+ 1 147.0804 0.44
PK$NUM_PEAK: 15
PK$PEAK: m/z int. rel.int.
  69.0334 1177.3 3
  79.0543 4373.2 14
  91.0542 30060 100
  103.0541 5070.7 16
  105.0699 5315.7 17
  107.049 2527.4 8
  117.07 5308.3 17
  119.0491 3059.5 10
  119.0856 9056.3 30
  127.0537 1830.7 6
  128.0621 109084.8 363
  129.0699 300173.1 999
  132.0568 3550.5 11
  145.0647 5735.2 19
  147.0805 68120.1 226
//
