ACCESSION: MSBNK-NaToxAq-NA001697
RECORD_TITLE: Alpinetin; LC-ESI-ITFT; MS2; CE: 85%; R=15000; [M+H]+
DATE: 2019.07.31
AUTHORS: Tobias Schulze, Vaidotas Kisielius, Xiaomeng Liang, Mulatu Yohannes Nanusha, Martin Krauss, Helmholtz Centre for Environmental Research GmbH - UFZ, Leipzig, Germany and University of Copenhagen (UCPH), Denmark
LICENSE: CC BY
COPYRIGHT: Copyright (C) 2019
COMMENT: CONFIDENCE Reference Standard (Level 1)
COMMENT: INTERNAL_ID 7
CH$NAME: Alpinetin
CH$COMPOUND_CLASS: N/A; Environmental Standard
CH$FORMULA: C16H14O4
CH$EXACT_MASS: 270.0892
CH$SMILES: COC1=C2C(=O)CC(OC2=CC(=C1)O)C3=CC=CC=C3
CH$IUPAC: InChI=1S/C16H14O4/c1-19-14-7-11(17)8-15-16(14)12(18)9-13(20-15)10-5-3-2-4-6-10/h2-8,13,17H,9H2,1H3
CH$LINK: INCHIKEY QQQCWVDPMPFUGF-UHFFFAOYSA-N
CH$LINK: PUBCHEM CID:4053302
CH$LINK: COMPTOX DTXSID30398801
AC$INSTRUMENT: LTQ Orbitrap XL Thermo Scientific
AC$INSTRUMENT_TYPE: LC-ESI-ITFT
AC$MASS_SPECTROMETRY: MS_TYPE MS2
AC$MASS_SPECTROMETRY: ION_MODE POSITIVE
AC$MASS_SPECTROMETRY: IONIZATION ESI
AC$MASS_SPECTROMETRY: FRAGMENTATION_MODE CID
AC$MASS_SPECTROMETRY: COLLISION_ENERGY 85 % (nominal)
AC$MASS_SPECTROMETRY: RESOLUTION 15000
AC$CHROMATOGRAPHY: COLUMN_NAME Kinetex Evo C18 2.6 um 50x2.1 mm, Phenomenex
AC$CHROMATOGRAPHY: FLOW_GRADIENT 95/5 at 0 min, 95/5 at 1 min, 0/100 at 13 min, 0/100 at 24 min, 95/5 at 24.3 min, 95/5/0 at 32 min
AC$CHROMATOGRAPHY: FLOW_RATE 300 uL/min
AC$CHROMATOGRAPHY: RETENTION_TIME 10.450 min
AC$CHROMATOGRAPHY: SOLVENT A water with 0.1% formic acid
AC$CHROMATOGRAPHY: SOLVENT B methanol with 0.1% formic acid
MS$FOCUSED_ION: BASE_PEAK 271.0964
MS$FOCUSED_ION: PRECURSOR_M/Z 271.0965
MS$FOCUSED_ION: PRECURSOR_TYPE [M+H]+
MS$DATA_PROCESSING: RECALIBRATE loess on assigned fragments and MS1
MS$DATA_PROCESSING: REANALYZE Peaks with additional N2/O included
MS$DATA_PROCESSING: WHOLE RMassBank 2.12.0
PK$SPLASH: splash10-014i-0900000000-2a6e9957829b0c026ff2
PK$ANNOTATION: m/z tentative_formula formula_count mass error(ppm)
  103.0543 C8H7+ 1 103.0542 0.5
  131.0493 C9H7O+ 1 131.0491 1.09
  167.0341 C8H7O4+ 1 167.0339 1.39
  229.0862 C14H13O3+ 1 229.0859 1.29
  239.0711 C15H11O3+ 1 239.0703 3.29
  253.0861 C16H13O3+ 1 253.0859 0.75
PK$NUM_PEAK: 6
PK$PEAK: m/z int. rel.int.
  103.0543 2350.9 3
  131.0493 25860.7 40
  167.0341 630689.8 999
  229.0862 48442.2 76
  239.0711 1369.7 2
  253.0861 6515.4 10
//
