ACCESSION: MSBNK-NaToxAq-NA003690
RECORD_TITLE: Vincamin; LC-ESI-ITFT; MS2; CE: 90%; R=15000; [M+H]+
DATE: 2020.02.22
AUTHORS: Tobias Schulze, Martin Krauss, Helmholtz Centre for Environmental Research GmbH - UFZ, Leipzig, Germany
LICENSE: CC0
COPYRIGHT: Copyright (C) 2020 by Helmholtz Centre for Environmental Research GmbH - UFZ, Leipzig, Germany
COMMENT: CONFIDENCE Reference Standard (Level 1)
COMMENT: INTERNAL_ID 2327
CH$NAME: Vincamin
CH$NAME: Vincamine
CH$NAME: methyl (15S,17S,19S)-15-ethyl-17-hydroxy-1,11-diazapentacyclo[9.6.2.02,7.08,18.015,19]nonadeca-2,4,6,8(18)-tetraene-17-carboxylate
CH$COMPOUND_CLASS: N/A; Environmental Standard
CH$FORMULA: C21H26N2O3
CH$EXACT_MASS: 354.1943
CH$SMILES: CC[C@@]12CCCN3[C@@H]1C4=C(CC3)C5=CC=CC=C5N4[C@](C2)(C(=O)OC)O
CH$IUPAC: InChI=1S/C21H26N2O3/c1-3-20-10-6-11-22-12-9-15-14-7-4-5-8-16(14)23(17(15)18(20)22)21(25,13-20)19(24)26-2/h4-5,7-8,18,25H,3,6,9-13H2,1-2H3/t18-,20+,21+/m1/s1
CH$LINK: CAS 1617-90-9
CH$LINK: CHEBI CHEBI:9985
CH$LINK: KEGG D08677
CH$LINK: PUBCHEM CID:15376
CH$LINK: INCHIKEY RXPRRQLKFXBCSJ-GIVPXCGWSA-N
CH$LINK: CHEMSPIDER 14635
CH$LINK: COMPTOX DTXSID9040134
AC$INSTRUMENT: LTQ Orbitrap XL Thermo Scientific
AC$INSTRUMENT_TYPE: LC-ESI-ITFT
AC$MASS_SPECTROMETRY: MS_TYPE MS2
AC$MASS_SPECTROMETRY: ION_MODE POSITIVE
AC$MASS_SPECTROMETRY: IONIZATION ESI
AC$MASS_SPECTROMETRY: FRAGMENTATION_MODE HCD
AC$MASS_SPECTROMETRY: COLLISION_ENERGY 90% (nominal)
AC$MASS_SPECTROMETRY: RESOLUTION 15000
AC$CHROMATOGRAPHY: COLUMN_NAME Kinetex Evo C18 2.6 um 50x2.1 mm, Phenomenex
AC$CHROMATOGRAPHY: FLOW_GRADIENT 95/5 at 0 min, 95/5 at 1 min, 0/100 at 13 min, 0/100 at 24 min, 95/5 at 24.3 min, 95/5/0 at 32 min
AC$CHROMATOGRAPHY: FLOW_RATE 300 uL/min
AC$CHROMATOGRAPHY: RETENTION_TIME 6.603 min
AC$CHROMATOGRAPHY: SOLVENT A water with 0.1% formic acid
AC$CHROMATOGRAPHY: SOLVENT B methanol with 0.1% formic acid
MS$FOCUSED_ION: BASE_PEAK 355.2016
MS$FOCUSED_ION: PRECURSOR_M/Z 355.2016
MS$FOCUSED_ION: PRECURSOR_TYPE [M+H]+
MS$DATA_PROCESSING: RECALIBRATE loess on assigned fragments and MS1
MS$DATA_PROCESSING: REANALYZE Peaks with additional N2/O included
MS$DATA_PROCESSING: WHOLE RMassBank 2.14.1
PK$SPLASH: splash10-0296-1790000000-d067d2ce479534d0df6a
PK$ANNOTATION: m/z tentative_formula formula_count mass error(ppm)
  55.0541 C4H7+ 1 55.0542 -2.34
  67.0542 C5H7+ 1 67.0542 -0.24
  68.0495 C4H6N+ 1 68.0495 0.14
  70.0651 C4H8N+ 1 70.0651 -0.52
  77.0386 C6H5+ 1 77.0386 0.12
  79.0542 C6H7+ 1 79.0542 -0.15
  80.0495 C5H6N+ 1 80.0495 -0.26
  81.0334 C5H5O+ 1 81.0335 -1.27
  81.0698 C6H9+ 1 81.0699 -0.72
  82.0651 C5H8N+ 1 82.0651 -0.17
  83.0491 C5H7O+ 1 83.0491 -0.34
  84.0807 C5H10N+ 1 84.0808 -1.01
  91.0542 C7H7+ 1 91.0542 -0.12
  93.0574 C6H7N+ 1 93.0573 0.86
  93.0699 C7H9+ 1 93.0699 -0.24
  94.0652 C6H8N+ 1 94.0651 0.43
  95.0492 C6H7O+ 1 95.0491 0.89
  95.0729 C6H9N+ 1 95.073 -0.46
  95.0855 C7H11+ 1 95.0855 -0.33
  96.0807 C6H10N+ 1 96.0808 -0.85
  98.0965 C6H12N+ 1 98.0964 0.28
  103.0543 C8H7+ 1 103.0542 0.78
  105.0448 C6H5N2+ 1 105.0447 1.05
  105.0699 C8H9+ 1 105.0699 0.05
  106.0652 C7H8N+ 1 106.0651 0.3
  107.0856 C8H11+ 1 107.0855 0.56
  108.0808 C7H10N+ 1 108.0808 -0.11
  109.0887 C7H11N+ 1 109.0886 0.53
  110.0964 C7H12N+ 1 110.0964 -0.51
  111.1042 C7H13N+ 1 111.1043 -0.5
  112.1121 C7H14N+ 1 112.1121 -0.07
  115.0542 C9H7+ 1 115.0542 -0.15
  117.0573 C8H7N+ 1 117.0573 -0.37
  117.0698 C9H9+ 1 117.0699 -0.33
  118.0651 C8H8N+ 1 118.0651 -0.1
  119.0727 C8H9N+ 1 119.073 -1.88
  119.086 C9H11+ 1 119.0855 3.92
  120.0807 C8H10N+ 1 120.0808 -0.4
  121.0647 C8H9O+ 1 121.0648 -0.46
  122.0599 C7H8NO+ 1 122.06 -0.8
  122.0963 C8H12N+ 1 122.0964 -0.87
  123.0678 C7H9NO+ 1 123.0679 -0.23
  123.0804 C8H11O+ 1 123.0804 -0.56
  123.1042 C8H13N+ 1 123.1043 -0.05
  124.0757 C7H10NO+ 1 124.0757 -0.22
  124.1121 C8H14N+ 1 124.1121 -0.16
  128.0495 C9H6N+ 1 128.0495 0.56
  128.0622 C10H8+ 1 128.0621 1.26
  129.0698 C10H9+ 1 129.0699 -0.52
  130.0651 C9H8N+ 1 130.0651 -0.14
  131.0729 C9H9N+ 1 131.073 -0.25
  132.0808 C9H10N+ 1 132.0808 0.1
  133.0652 C9H9O+ 1 133.0648 2.79
  134.0964 C9H12N+ 1 134.0964 -0.34
  135.0804 C9H11O+ 1 135.0804 -0.18
  136.0757 C8H10NO+ 1 136.0757 -0.05
  138.1276 C9H16N+ 1 138.1277 -0.78
  141.0699 C11H9+ 1 141.0699 -0.16
  142.0653 C10H8N+ 1 142.0651 0.93
  143.0729 C10H9N+ 1 143.073 -0.16
  144.0807 C10H10N+ 1 144.0808 -0.27
  146.0966 C10H12N+ 1 146.0964 1.29
  152.107 C9H14NO+ 1 152.107 0.04
  153.0702 C12H9+ 1 153.0699 1.84
  154.0651 C11H8N+ 1 154.0651 -0.34
  155.0604 C10H7N2+ 1 155.0604 0.27
  155.0728 C11H9N+ 1 155.073 -0.84
  156.0806 C11H10N+ 1 156.0808 -1.13
  157.0885 C11H11N+ 1 157.0886 -0.45
  158.0964 C11H12N+ 1 158.0964 -0.07
  162.0912 C10H12NO+ 1 162.0913 -0.6
  165.0697 C13H9+ 1 165.0699 -1.24
  166.0647 C12H8N+ 1 166.0651 -2.6
  166.0774 C13H10+ 1 166.0777 -2.06
  167.0729 C12H9N+ 1 167.073 -0.21
  168.0806 C12H10N+ 1 168.0808 -0.85
  169.0763 C11H9N2+ 1 169.076 1.42
  169.0884 C12H11N+ 1 169.0886 -1.48
  170.0603 C11H8NO+ 1 170.06 1.45
  170.0964 C12H12N+ 1 170.0964 -0.13
  171.0914 C11H11N2+ 1 171.0917 -1.63
  172.1124 C12H14N+ 1 172.1121 1.73
  178.0651 C13H8N+ 1 178.0651 -0.24
  178.0774 C14H10+ 1 178.0777 -1.46
  179.0729 C13H9N+ 1 179.073 -0.5
  179.0852 C14H11+ 1 179.0855 -2.05
  180.0808 C13H10N+ 1 180.0808 -0.08
  181.0887 C13H11N+ 1 181.0886 0.68
  181.1006 C14H13+ 1 181.1012 -3.38
  182.0963 C13H12N+ 1 182.0964 -0.84
  183.1037 C13H13N+ 1 183.1043 -3.25
  184.0765 C12H10NO+ 1 184.0757 4.6
  184.1121 C13H14N+ 1 184.1121 -0.01
  190.065 C14H8N+ 1 190.0651 -0.52
  191.0729 C14H9N+ 1 191.073 -0.2
  191.0855 C15H11+ 1 191.0855 -0.38
  192.0808 C14H10N+ 1 192.0808 0.19
  192.0934 C15H12+ 1 192.0934 0.02
  193.0887 C14H11N+ 1 193.0886 0.26
  193.1006 C15H13+ 1 193.1012 -2.83
  194.0964 C14H12N+ 1 194.0964 0.1
  195.1043 C14H13N+ 1 195.1043 0.09
  196.0754 C13H10NO+ 1 196.0757 -1.58
  196.1118 C14H14N+ 1 196.1121 -1.16
  197.1064 C13H13N2+ 1 197.1073 -4.78
  198.1273 C14H16N+ 1 198.1277 -2.39
  204.0806 C15H10N+ 1 204.0808 -0.87
  205.0886 C15H11N+ 1 205.0886 0.24
  206.0964 C15H12N+ 1 206.0964 0.08
  207.1046 C15H13N+ 1 207.1043 1.62
  207.1162 C16H15+ 1 207.1168 -2.81
  208.0758 C14H10NO+ 1 208.0757 0.4
  208.112 C15H14N+ 1 208.1121 -0.45
  209.1204 C15H15N+ 1 209.1199 2.47
  210.0907 C14H12NO+ 1 210.0913 -2.81
  210.1279 C15H16N+ 1 210.1277 0.99
  217.0886 C16H11N+ 1 217.0886 0.06
  218.0964 C16H12N+ 1 218.0964 -0.15
  219.0926 C15H11N2+ 1 219.0917 4.03
  219.1045 C16H13N+ 1 219.1043 0.96
  220.1121 C16H14N+ 1 220.1121 -0.09
  221.1208 C16H15N+ 1 221.1199 4.25
  222.0908 C15H12NO+ 1 222.0913 -2.33
  222.1278 C16H16N+ 1 222.1277 0.17
  223.1236 C15H15N2+ 1 223.123 2.84
  224.1311 C15H16N2+ 1 224.1308 1.53
  224.1431 C16H18N+ 1 224.1434 -1.41
  230.0966 C17H12N+ 1 230.0964 0.66
  231.1045 C17H13N+ 1 231.1043 1.11
  232.0764 C16H10NO+ 1 232.0757 2.92
  232.112 C17H14N+ 1 232.1121 -0.34
  233.108 C16H13N2+ 1 233.1073 3.01
  233.1204 C17H15N+ 1 233.1199 2.14
  234.0917 C16H12NO+ 1 234.0913 1.71
  234.1276 C17H16N+ 1 234.1277 -0.54
  236.0708 C15H10NO2+ 1 236.0706 0.7
  236.1063 C16H14NO+ 1 236.107 -2.83
  236.144 C17H18N+ 1 236.1434 2.43
  237.0782 C15H11NO2+ 1 237.0784 -0.92
  237.1388 C16H17N2+ 1 237.1386 0.89
  238.0861 C15H12NO2+ 1 238.0863 -0.53
  239.0943 C15H13NO2+ 1 239.0941 0.94
  239.1534 C16H19N2+ 1 239.1543 -3.46
  247.1229 C17H15N2+ 1 247.123 -0.14
  248.132 C17H16N2+ 1 248.1308 4.66
  248.143 C18H18N+ 1 248.1434 -1.56
  249.1389 C17H17N2+ 1 249.1386 1.28
  250.0861 C16H12NO2+ 1 250.0863 -0.62
  250.1592 C18H20N+ 1 250.159 0.53
  251.0941 C16H13NO2+ 1 251.0941 0.11
  252.1019 C16H14NO2+ 1 252.1019 0.05
  253.1103 C16H15NO2+ 1 253.1097 2.11
  262.0873 C17H12NO2+ 1 262.0863 3.8
  263.0935 C17H13NO2+ 1 263.0941 -2.18
  264.1018 C17H14NO2+ 1 264.1019 -0.49
  265.1102 C17H15NO2+ 1 265.1097 1.76
  266.1175 C17H16NO2+ 1 266.1176 -0.36
  267.1264 C17H17NO2+ 1 267.1254 3.82
  268.1343 C17H18NO2+ 1 268.1332 4.21
  275.1166 C18H15N2O+ 1 275.1179 -4.59
  276.1019 C18H14NO2+ 1 276.1019 -0.07
  277.1107 C18H15NO2+ 1 277.1097 3.63
  278.1174 C18H16NO2+ 1 278.1176 -0.6
  279.1254 C18H17NO2+ 1 279.1254 0.12
  280.1331 C18H18NO2+ 1 280.1332 -0.47
  290.1173 C19H16NO2+ 1 290.1176 -1.01
  292.1325 C19H18NO2+ 1 292.1332 -2.44
  294.1484 C19H20NO2+ 1 294.1489 -1.68
  307.1439 C19H19N2O2+ 1 307.1441 -0.54
PK$NUM_PEAK: 169
PK$PEAK: m/z int. rel.int.
  55.0541 1700.9 10
  67.0542 15292.3 91
  68.0495 3868.5 23
  70.0651 13663.7 81
  77.0386 3098.2 18
  79.0542 12723.2 75
  80.0495 3219.1 19
  81.0334 2792.6 16
  81.0698 8396.5 50
  82.0651 3761.8 22
  83.0491 16880.9 100
  84.0807 1888.1 11
  91.0542 19075.4 113
  93.0574 1383.3 8
  93.0699 15877.1 94
  94.0652 4705 28
  95.0492 2162.2 12
  95.0729 3235.4 19
  95.0855 42243 252
  96.0807 7171.2 42
  98.0965 3723.4 22
  103.0543 4032.1 24
  105.0448 1579.6 9
  105.0699 18204.1 108
  106.0652 3893.9 23
  107.0856 9731.2 58
  108.0808 7202.3 42
  109.0887 2884.9 17
  110.0964 26159.3 156
  111.1042 3777.9 22
  112.1121 2711.3 16
  115.0542 7957.8 47
  117.0573 4703.1 28
  117.0698 23996.3 143
  118.0651 3913.2 23
  119.0727 3059.5 18
  119.086 1730.2 10
  120.0807 4517.9 26
  121.0647 3795.7 22
  122.0599 3636.9 21
  122.0963 4517.2 26
  123.0678 1510.5 9
  123.0804 10807.5 64
  123.1042 2865.6 17
  124.0757 6542.2 39
  124.1121 22952 137
  128.0495 3115.4 18
  128.0622 2796.6 16
  129.0698 7153.9 42
  130.0651 16156.7 96
  131.0729 6404.5 38
  132.0808 5045.6 30
  133.0652 2628.7 15
  134.0964 17681.3 105
  135.0804 5237.9 31
  136.0757 4181.3 24
  138.1276 1109 6
  141.0699 1309.5 7
  142.0653 4108.4 24
  143.0729 24179.2 144
  144.0807 167348.7 999
  146.0966 3128.3 18
  152.107 20374 121
  153.0702 2362.8 14
  154.0651 5299.7 31
  155.0604 8334 49
  155.0728 3679.5 21
  156.0806 11832.3 70
  157.0885 5637.5 33
  158.0964 7478.8 44
  162.0912 2525.2 15
  165.0697 3951.1 23
  166.0647 1194.9 7
  166.0774 2207.9 13
  167.0729 11452.6 68
  168.0806 13343.1 79
  169.0763 1428.7 8
  169.0884 2210 13
  170.0603 5468 32
  170.0964 4828.9 28
  171.0914 1496.9 8
  172.1124 1196.7 7
  178.0651 1031.2 6
  178.0774 5374.9 32
  179.0729 1630.4 9
  179.0852 3811.8 22
  180.0808 23671.9 141
  181.0887 12705.3 75
  181.1006 2190.3 13
  182.0963 9871.2 58
  183.1037 1334.2 7
  184.0765 1929.3 11
  184.1121 1705.8 10
  190.065 2202.7 13
  191.0729 10893.9 65
  191.0855 1657 9
  192.0808 11842.2 70
  192.0934 2648.4 15
  193.0887 21267 126
  193.1006 1999 11
  194.0964 22118.3 132
  195.1043 6241.1 37
  196.0754 1192.3 7
  196.1118 6068.7 36
  197.1064 2334 13
  198.1273 1235.7 7
  204.0806 31880 190
  205.0886 23877.8 142
  206.0964 35480.4 211
  207.1046 17044.8 101
  207.1162 1203 7
  208.0758 2314.3 13
  208.112 29726.5 177
  209.1204 6742.9 40
  210.0907 1425.6 8
  210.1279 5498.1 32
  217.0886 11682.2 69
  218.0964 28616.7 170
  219.0926 3326.8 19
  219.1045 26926.1 160
  220.1121 37826.5 225
  221.1208 8019.3 47
  222.0908 3018.5 18
  222.1278 17892.7 106
  223.1236 6441 38
  224.1311 2410.7 14
  224.1431 3858.9 23
  230.0966 3598.6 21
  231.1045 3531.1 21
  232.0764 1648.3 9
  232.112 13314.3 79
  233.108 3161.4 18
  233.1204 3029.8 18
  234.0917 1352.2 8
  234.1276 22786.1 136
  236.0708 1779.1 10
  236.1063 1890.4 11
  236.144 1963.1 11
  237.0782 2658.7 15
  237.1388 4273.2 25
  238.0861 27013.2 161
  239.0943 11004 65
  239.1534 1170.4 6
  247.1229 7595.3 45
  248.132 1722 10
  248.143 4857.2 28
  249.1389 4965.9 29
  250.0861 17502.7 104
  250.1592 1603.1 9
  251.0941 28933.1 172
  252.1019 33643.3 200
  253.1103 11888.1 70
  262.0873 1598 9
  263.0935 2358.3 14
  264.1018 106444.2 635
  265.1102 39850.6 237
  266.1175 61888.3 369
  267.1264 9784.8 58
  268.1343 2603.7 15
  275.1166 2120.5 12
  276.1019 5145.7 30
  277.1107 1705.1 10
  278.1174 47580.3 284
  279.1254 14803.9 88
  280.1331 31466.9 187
  290.1173 6392.4 38
  292.1325 18105.7 108
  294.1484 6626.2 39
  307.1439 6986.2 41
//
