ACCESSION: MSBNK-NaToxAq-NA001034
RECORD_TITLE: Pterosin A; LC-ESI-ITFT; MS2; CE: 20%; R=15000; [M+H]+
DATE: 2019.07.31
AUTHORS: Tobias Schulze, Vaidotas Kisielius, Xiaomeng Liang, Mulatu Yohannes Nanusha, Martin Krauss, Helmholtz Centre for Environmental Research GmbH - UFZ, Leipzig, Germany and University of Copenhagen (UCPH), Denmark
LICENSE: CC BY
COPYRIGHT: Copyright (C) 2019
COMMENT: CONFIDENCE Reference Standard (Level 1)
COMMENT: INTERNAL_ID 35
CH$NAME: Pterosin A
CH$NAME: (2S)-6-(2-hydroxyethyl)-2-(hydroxymethyl)-2,5,7-trimethyl-3H-inden-1-one
CH$COMPOUND_CLASS: N/A; Environmental Standard
CH$FORMULA: C15H20O3
CH$EXACT_MASS: 248.1412
CH$SMILES: CC1=CC2=C(C(=C1CCO)C)C(=O)[C@](C2)(C)CO
CH$IUPAC: InChI=1S/C15H20O3/c1-9-6-11-7-15(3,8-17)14(18)13(11)10(2)12(9)4-5-16/h6,16-17H,4-5,7-8H2,1-3H3/t15-/m0/s1
CH$LINK: CAS 37124-17-7
CH$LINK: PUBCHEM CID:135017
CH$LINK: INCHIKEY BDZJLPDYMKPKGC-HNNXBMFYSA-N
CH$LINK: CHEMSPIDER 118974
CH$LINK: COMPTOX DTXSID60957329
AC$INSTRUMENT: LTQ Orbitrap XL Thermo Scientific
AC$INSTRUMENT_TYPE: LC-ESI-ITFT
AC$MASS_SPECTROMETRY: MS_TYPE MS2
AC$MASS_SPECTROMETRY: ION_MODE POSITIVE
AC$MASS_SPECTROMETRY: IONIZATION ESI
AC$MASS_SPECTROMETRY: FRAGMENTATION_MODE CID
AC$MASS_SPECTROMETRY: COLLISION_ENERGY 20 % (nominal)
AC$MASS_SPECTROMETRY: RESOLUTION 15000
AC$CHROMATOGRAPHY: COLUMN_NAME Kinetex Evo C18 2.6 um 50x2.1 mm, Phenomenex
AC$CHROMATOGRAPHY: FLOW_GRADIENT 95/5 at 0 min, 95/5 at 1 min, 0/100 at 13 min, 0/100 at 24 min, 95/5 at 24.3 min, 95/5/0 at 32 min
AC$CHROMATOGRAPHY: FLOW_RATE 300 uL/min
AC$CHROMATOGRAPHY: RETENTION_TIME 9.286 min
AC$CHROMATOGRAPHY: SOLVENT A water with 0.1% formic acid
AC$CHROMATOGRAPHY: SOLVENT B methanol with 0.1% formic acid
MS$FOCUSED_ION: BASE_PEAK 249.1481
MS$FOCUSED_ION: PRECURSOR_M/Z 249.1485
MS$FOCUSED_ION: PRECURSOR_TYPE [M+H]+
MS$DATA_PROCESSING: RECALIBRATE loess on assigned fragments and MS1
MS$DATA_PROCESSING: REANALYZE Peaks with additional N2/O included
MS$DATA_PROCESSING: WHOLE RMassBank 2.12.0
PK$SPLASH: splash10-0f7k-0090000000-b25da38b3ba0d512bfa5
PK$ANNOTATION: m/z tentative_formula formula_count mass error(ppm)
  185.1325 C14H17+ 1 185.1325 0.25
  201.1275 C14H17O+ 1 201.1274 0.68
  203.1431 C14H19O+ 1 203.143 0.1
  213.1274 C15H17O+ 1 213.1274 0.21
  231.1381 C15H19O2+ 1 231.138 0.54
  249.1486 C15H21O3+ 1 249.1485 0.51
PK$NUM_PEAK: 6
PK$PEAK: m/z int. rel.int.
  185.1325 19853.6 16
  201.1275 62890.9 53
  203.1431 701922.1 591
  213.1274 42607.4 35
  231.1381 1114013.1 939
  249.1486 1184744.8 999
//
