ACCESSION: MSBNK-NaToxAq-NA000186
RECORD_TITLE: 4-Hydroxycoumarin; LC-ESI-ITFT; MS2; CE: 110%; R=15000; [M+H]+
DATE: 2018.08.29
AUTHORS: Tobias Schulze, Hubert Schupke, Martin Krauss, Department of Effect-Directed Analysis, Helmholtz Centre for Environmental Research GmbH - UFZ, Leipzig, Germany
LICENSE: CC BY
COPYRIGHT: Copyright (C) 2018
COMMENT: CONFIDENCE Reference Standard (Level 1)
COMMENT: NaToxAq - Natural Toxins and Drinking Water Quality - From Source to Tap (https://natoxaq.ku.dk)
CH$NAME: 4-Hydroxycoumarin
CH$NAME: 4-hydroxychromen-2-one
CH$COMPOUND_CLASS: N/A; Environmental Standard
CH$FORMULA: C9H6O3
CH$EXACT_MASS: 162.0317
CH$SMILES: OC1=CC(=O)OC2=CC=CC=C12
CH$IUPAC: InChI=1S/C9H6O3/c10-7-5-9(11)12-8-4-2-1-3-6(7)8/h1-5,10H
CH$LINK: CAS 1076-38-6
CH$LINK: CHEBI CHEBI:40070
CH$LINK: KEGG C20414
CH$LINK: PUBCHEM CID:54682930
CH$LINK: INCHIKEY VXIXUWQIVKSKSA-UHFFFAOYSA-N
CH$LINK: CHEMSPIDER 10254753
CH$LINK: COMPTOX DTXSID8061472
AC$INSTRUMENT: LTQ Orbitrap XL Thermo Scientific
AC$INSTRUMENT_TYPE: LC-ESI-ITFT
AC$MASS_SPECTROMETRY: MS_TYPE MS2
AC$MASS_SPECTROMETRY: ION_MODE POSITIVE
AC$MASS_SPECTROMETRY: IONIZATION ESI
AC$MASS_SPECTROMETRY: FRAGMENTATION_MODE HCD
AC$MASS_SPECTROMETRY: COLLISION_ENERGY 110 % (nominal)
AC$MASS_SPECTROMETRY: RESOLUTION 15000
AC$CHROMATOGRAPHY: COLUMN_NAME Kinetex Evo C18 2.6 um 50x2.1 mm, Phenomenex
AC$CHROMATOGRAPHY: FLOW_GRADIENT 95/5 at 0 min, 95/5 at 1 min, 0/100 at 13 min, 0/100 at 24 min, 95/5 at 24.3 min, 95/5 at 32 min
AC$CHROMATOGRAPHY: FLOW_RATE 300 uL/min
AC$CHROMATOGRAPHY: RETENTION_TIME 7.960 min
AC$CHROMATOGRAPHY: SOLVENT A water with 0.1% formic acid
AC$CHROMATOGRAPHY: SOLVENT B methanol with 0.1% formic acid
MS$FOCUSED_ION: BASE_PEAK 163.0391
MS$FOCUSED_ION: PRECURSOR_M/Z 163.039
MS$FOCUSED_ION: PRECURSOR_TYPE [M+H]+
MS$DATA_PROCESSING: RECALIBRATE loess on assigned fragments and MS1
MS$DATA_PROCESSING: REANALYZE Peaks with additional N2/O included
MS$DATA_PROCESSING: WHOLE RMassBank 2.9.1
PK$SPLASH: splash10-00xu-9600000000-ca4d0dfa74ed2a54324e
PK$ANNOTATION: m/z tentative_formula formula_count mass error(ppm)
  63.0227 C5H3+ 1 63.0229 -3.77
  65.0383 C5H5+ 1 65.0386 -4.86
  67.054 C5H7+ 1 67.0542 -3.8
  68.9968 C3HO2+ 1 68.9971 -4.12
  75.0227 C6H3+ 1 75.0229 -2.37
  77.0384 C6H5+ 1 77.0386 -2.54
  79.0541 C6H7+ 1 79.0542 -2.13
  89.0385 C7H5+ 1 89.0386 -0.93
  91.0541 C7H7+ 1 91.0542 -1.15
  93.0334 C6H5O+ 1 93.0335 -1.12
  95.049 C6H7O+ 1 95.0491 -1.11
  101.0385 C8H5+ 1 101.0386 -0.83
  105.0446 C6H5N2+ 1 105.0447 -1.05
  107.049 C7H7O+ 1 107.0491 -0.89
  111.0439 C6H7O2+ 1 111.0441 -0.98
  119.0491 C8H7O+ 1 119.0491 -0.74
  121.0283 C7H5O2+ 1 121.0284 -1.14
  121.0393 C6H5N2O+ 1 121.0396 -2.49
  122.0359 C7H6O2+ 1 122.0362 -2.54
  129.0445 C8H5N2+ 1 129.0447 -1.66
  139.0386 C7H7O3+ 1 139.039 -2.45
  145.0283 C9H5O2+ 1 145.0284 -0.76
  163.0387 C9H7O3+ 1 163.039 -1.52
PK$NUM_PEAK: 23
PK$PEAK: m/z int. rel.int.
  63.0227 7889 5
  65.0383 1209890 767
  67.054 11196.2 7
  68.9968 621475.3 394
  75.0227 12223.3 7
  77.0384 300030 190
  79.0541 164101.4 104
  89.0385 92778.6 58
  91.0541 695036.9 440
  93.0334 404973.1 256
  95.049 259441.5 164
  101.0385 9723 6
  105.0446 152833.2 96
  107.049 34886.8 22
  111.0439 90436.1 57
  119.0491 9414.2 5
  121.0283 1574648 999
  121.0393 567608.1 360
  122.0359 4949.4 3
  129.0445 31769.1 20
  139.0386 6844.3 4
  145.0283 8819 5
  163.0387 54104.9 34
//
