ACCESSION: MSBNK-NaToxAq-NA002734
RECORD_TITLE: Lycopsamine; LC-ESI-ITFT; MS2; CE: 35%; R=15000; [M+H]+
DATE: 2020.02.21
AUTHORS: Tobias Schulze, Martin Krauss, Helmholtz Centre for Environmental Research GmbH - UFZ, Leipzig, Germany
LICENSE: CC0
COPYRIGHT: Copyright (C) 2020 by Helmholtz Centre for Environmental Research GmbH - UFZ, Leipzig, Germany
COMMENT: CONFIDENCE Reference Standard (Level 1)
COMMENT: INTERNAL_ID 2270
CH$NAME: Lycopsamine
CH$NAME: [(7R,8R)-7-hydroxy-5,6,7,8-tetrahydro-3H-pyrrolizin-1-yl]methyl (2S)-2-hydroxy-2-[(1S)-1-hydroxyethyl]-3-methylbutanoate
CH$COMPOUND_CLASS: N/A; Environmental Standard
CH$FORMULA: C15H25NO5
CH$EXACT_MASS: 299.1733
CH$SMILES: C[C@@H]([C@@](C(C)C)(C(=O)OCC1=CCN2[C@H]1[C@@H](CC2)O)O)O
CH$IUPAC: InChI=1S/C15H25NO5/c1-9(2)15(20,10(3)17)14(19)21-8-11-4-6-16-7-5-12(18)13(11)16/h4,9-10,12-13,17-18,20H,5-8H2,1-3H3/t10-,12+,13+,15-/m0/s1
CH$LINK: CAS 10285-07-1
CH$LINK: CHEBI CHEBI:6598
CH$LINK: KEGG C10347
CH$LINK: PUBCHEM CID:107938
CH$LINK: INCHIKEY SFVVQRJOGUKCEG-ZGFBFQLVSA-N
CH$LINK: CHEMSPIDER 97061
CH$LINK: COMPTOX DTXSID60145542
AC$INSTRUMENT: LTQ Orbitrap XL Thermo Scientific
AC$INSTRUMENT_TYPE: LC-ESI-ITFT
AC$MASS_SPECTROMETRY: MS_TYPE MS2
AC$MASS_SPECTROMETRY: ION_MODE POSITIVE
AC$MASS_SPECTROMETRY: IONIZATION ESI
AC$MASS_SPECTROMETRY: FRAGMENTATION_MODE HCD
AC$MASS_SPECTROMETRY: COLLISION_ENERGY 35% (nominal)
AC$MASS_SPECTROMETRY: RESOLUTION 15000
AC$CHROMATOGRAPHY: COLUMN_NAME Kinetex Evo C18 2.6 um 50x2.1 mm, Phenomenex
AC$CHROMATOGRAPHY: FLOW_GRADIENT 95/5 at 0 min, 95/5 at 1 min, 0/100 at 13 min, 0/100 at 24 min, 95/5 at 24.3 min, 95/5/0 at 32 min
AC$CHROMATOGRAPHY: FLOW_RATE 300 uL/min
AC$CHROMATOGRAPHY: RETENTION_TIME 1.040 min
AC$CHROMATOGRAPHY: SOLVENT A water with 0.1% formic acid
AC$CHROMATOGRAPHY: SOLVENT B methanol with 0.1% formic acid
MS$FOCUSED_ION: BASE_PEAK 143.0015
MS$FOCUSED_ION: PRECURSOR_M/Z 300.1805
MS$FOCUSED_ION: PRECURSOR_TYPE [M+H]+
MS$DATA_PROCESSING: RECALIBRATE loess on assigned fragments and MS1
MS$DATA_PROCESSING: REANALYZE Peaks with additional N2/O included
MS$DATA_PROCESSING: WHOLE RMassBank 2.14.1
PK$SPLASH: splash10-0udi-0309000000-e85b32d16f44452fbb30
PK$ANNOTATION: m/z tentative_formula formula_count mass error(ppm)
  94.0651 C6H8N+ 1 94.0651 0.13
  120.0808 C8H10N+ 1 120.0808 0.52
  138.0914 C8H12NO+ 1 138.0913 0.08
  139.0991 C8H13NO+ 1 139.0992 -0.15
  156.102 C8H14NO2+ 1 156.1019 0.46
  210.1478 C12H20NO2+ 1 210.1489 -4.98
  256.1546 C13H22NO4+ 1 256.1543 0.89
  300.1807 C15H26NO5+ 1 300.1805 0.54
PK$NUM_PEAK: 8
PK$PEAK: m/z int. rel.int.
  94.0651 33964.9 100
  120.0808 8704 25
  138.0914 101737.9 300
  139.0991 4296 12
  156.102 21999.8 65
  210.1478 1412.7 4
  256.1546 3185.2 9
  300.1807 337796.5 999
//
