ACCESSION: MSBNK-NaToxAq-NA003728
RECORD_TITLE: 4-Hydroxycoumarin; LC-ESI-ITFT; MS2; CE: 105%; R=15000; [M+H]+
DATE: 2020.02.22
AUTHORS: Tobias Schulze, Martin Krauss, Helmholtz Centre for Environmental Research GmbH - UFZ, Leipzig, Germany
LICENSE: CC0
COPYRIGHT: Copyright (C) 2020 by Helmholtz Centre for Environmental Research GmbH - UFZ, Leipzig, Germany
COMMENT: CONFIDENCE Reference Standard (Level 1)
COMMENT: INTERNAL_ID 2338
CH$NAME: 4-Hydroxycoumarin
CH$NAME: CID 14101
CH$NAME: 2-hydroxychromen-4-one
CH$COMPOUND_CLASS: N/A; Environmental Standard
CH$FORMULA: C9H6O3
CH$EXACT_MASS: 162.0317
CH$SMILES: OC1=CC(=O)C2=CC=CC=C2O1
CH$IUPAC: InChI=1S/C9H6O3/c10-7-5-9(11)12-8-4-2-1-3-6(7)8/h1-5,11H
CH$LINK: CAS 1076-38-6
CH$LINK: PUBCHEM CID:14101
CH$LINK: INCHIKEY OWBBAPRUYLEWRR-UHFFFAOYSA-N
CH$LINK: CHEMSPIDER 13479
CH$LINK: COMPTOX DTXSID50944748
AC$INSTRUMENT: LTQ Orbitrap XL Thermo Scientific
AC$INSTRUMENT_TYPE: LC-ESI-ITFT
AC$MASS_SPECTROMETRY: MS_TYPE MS2
AC$MASS_SPECTROMETRY: ION_MODE POSITIVE
AC$MASS_SPECTROMETRY: IONIZATION ESI
AC$MASS_SPECTROMETRY: FRAGMENTATION_MODE HCD
AC$MASS_SPECTROMETRY: COLLISION_ENERGY 105% (nominal)
AC$MASS_SPECTROMETRY: RESOLUTION 15000
AC$CHROMATOGRAPHY: COLUMN_NAME Kinetex Evo C18 2.6 um 50x2.1 mm, Phenomenex
AC$CHROMATOGRAPHY: FLOW_GRADIENT 95/5 at 0 min, 95/5 at 1 min, 0/100 at 13 min, 0/100 at 24 min, 95/5 at 24.3 min, 95/5/0 at 32 min
AC$CHROMATOGRAPHY: FLOW_RATE 300 uL/min
AC$CHROMATOGRAPHY: RETENTION_TIME 8.040 min
AC$CHROMATOGRAPHY: SOLVENT A water with 0.1% formic acid
AC$CHROMATOGRAPHY: SOLVENT B methanol with 0.1% formic acid
MS$FOCUSED_ION: BASE_PEAK 116.9858
MS$FOCUSED_ION: PRECURSOR_M/Z 163.039
MS$FOCUSED_ION: PRECURSOR_TYPE [M+H]+
MS$DATA_PROCESSING: RECALIBRATE loess on assigned fragments and MS1
MS$DATA_PROCESSING: REANALYZE Peaks with additional N2/O included
MS$DATA_PROCESSING: WHOLE RMassBank 2.14.1
PK$SPLASH: splash10-00xr-9600000000-a46ccca5bafae2af27d1
PK$ANNOTATION: m/z tentative_formula formula_count mass error(ppm)
  65.0385 C5H5+ 1 65.0386 -1.43
  68.997 C3HO2+ 1 68.9971 -0.87
  77.0386 C6H5+ 1 77.0386 -0.28
  79.0542 C6H7+ 1 79.0542 -0.44
  89.0386 C7H5+ 1 89.0386 0.18
  91.0542 C7H7+ 1 91.0542 -0.21
  92.0258 C6H4O+ 1 92.0257 1.94
  93.0334 C6H5O+ 1 93.0335 -0.56
  95.0491 C6H7O+ 1 95.0491 -0.32
  107.0491 C7H7O+ 1 107.0491 -0.64
  111.0439 C6H7O2+ 1 111.0441 -1.67
  121.0284 C7H5O2+ 1 121.0284 -0.26
  163.039 C9H7O3+ 1 163.039 0.24
PK$NUM_PEAK: 13
PK$PEAK: m/z int. rel.int.
  65.0385 40218.6 346
  68.997 21664.8 186
  77.0386 14347 123
  79.0542 8387.7 72
  89.0386 4074.5 35
  91.0542 40494.1 348
  92.0258 2254.5 19
  93.0334 16673.8 143
  95.0491 15101.8 130
  107.0491 2725.8 23
  111.0439 2039.2 17
  121.0284 116010.9 999
  163.039 5659.4 48
//
