ACCESSION: MSBNK-NaToxAq-NA001376
RECORD_TITLE: trans-Zeatin; LC-ESI-ITFT; MS2; CE: 80%; R=15000; [M+H]+
DATE: 2019.07.31
AUTHORS: Tobias Schulze, Vaidotas Kisielius, Xiaomeng Liang, Mulatu Yohannes Nanusha, Martin Krauss, Helmholtz Centre for Environmental Research GmbH - UFZ, Leipzig, Germany and University of Copenhagen (UCPH), Denmark
LICENSE: CC BY
COPYRIGHT: Copyright (C) 2019
COMMENT: CONFIDENCE Reference Standard (Level 1)
COMMENT: INTERNAL_ID 24
CH$NAME: trans-Zeatin
CH$COMPOUND_CLASS: N/A; Environmental Standard
CH$FORMULA: C10H13N5O
CH$EXACT_MASS: 219.1120
CH$SMILES: C\C(CO)=C/CNC1=C2N=CNC2=NC=N1
CH$IUPAC: InChI=1S/C10H13N5O/c1-7(4-16)2-3-11-9-8-10(13-5-12-8)15-6-14-9/h2,5-6,16H,3-4H2,1H3,(H2,11,12,13,14,15)/b7-2+
CH$LINK: INCHIKEY UZKQTCBAMSWPJD-FARCUNLSSA-N
CH$LINK: PUBCHEM CID:449093
CH$LINK: COMPTOX DTXSID9040631
AC$INSTRUMENT: LTQ Orbitrap XL Thermo Scientific
AC$INSTRUMENT_TYPE: LC-ESI-ITFT
AC$MASS_SPECTROMETRY: MS_TYPE MS2
AC$MASS_SPECTROMETRY: ION_MODE POSITIVE
AC$MASS_SPECTROMETRY: IONIZATION ESI
AC$MASS_SPECTROMETRY: FRAGMENTATION_MODE HCD
AC$MASS_SPECTROMETRY: COLLISION_ENERGY 80 % (nominal)
AC$MASS_SPECTROMETRY: RESOLUTION 15000
AC$CHROMATOGRAPHY: COLUMN_NAME Kinetex Evo C18 2.6 um 50x2.1 mm, Phenomenex
AC$CHROMATOGRAPHY: FLOW_GRADIENT 95/5 at 0 min, 95/5 at 1 min, 0/100 at 13 min, 0/100 at 24 min, 95/5 at 24.3 min, 95/5/0 at 32 min
AC$CHROMATOGRAPHY: FLOW_RATE 300 uL/min
AC$CHROMATOGRAPHY: RETENTION_TIME 0.887 min
AC$CHROMATOGRAPHY: SOLVENT A water with 0.1% formic acid
AC$CHROMATOGRAPHY: SOLVENT B methanol with 0.1% formic acid
MS$FOCUSED_ION: BASE_PEAK 220.1191
MS$FOCUSED_ION: PRECURSOR_M/Z 220.1193
MS$FOCUSED_ION: PRECURSOR_TYPE [M+H]+
MS$DATA_PROCESSING: RECALIBRATE loess on assigned fragments and MS1
MS$DATA_PROCESSING: REANALYZE Peaks with additional N2/O included
MS$DATA_PROCESSING: WHOLE RMassBank 2.12.0
PK$SPLASH: splash10-000i-0900000000-fee998df3cda4f2264ae
PK$ANNOTATION: m/z tentative_formula formula_count mass error(ppm)
  65.0385 C5H5+ 1 65.0386 -0.76
  67.0542 C5H7+ 1 67.0542 -0.71
  84.0808 C5H10N+ 1 84.0808 -0.26
  94.0399 C4H4N3+ 1 94.04 -0.49
  94.0652 C6H8N+ 1 94.0651 1.15
  109.0508 C4H5N4+ 1 109.0509 -0.38
  119.0352 C5H3N4+ 1 119.0352 -0.48
  121.0505 C5H5N4+ 1 121.0509 -2.97
  136.0617 C5H6N5+ 1 136.0618 -0.28
  137.0457 C5H5N4O+ 1 137.0458 -0.35
  148.0618 C6H6N5+ 1 148.0618 0.19
  159.0666 C8H7N4+ 1 159.0665 0.67
  185.0819 C10H9N4+ 1 185.0822 -1.32
PK$NUM_PEAK: 13
PK$PEAK: m/z int. rel.int.
  65.0385 6568.7 3
  67.0542 39233.5 22
  84.0808 7220.2 4
  94.0399 48045.9 27
  94.0652 6419 3
  109.0508 24722.6 14
  119.0352 404279.4 230
  121.0505 8813.9 5
  136.0617 1748469.4 999
  137.0457 64555.5 36
  148.0618 135524.1 77
  159.0666 18803 10
  185.0819 14806.4 8
//
