ACCESSION: MSBNK-NaToxAq-NA001183
RECORD_TITLE: Alpinetin; LC-ESI-ITFT; MS2; CE: 40%; R=15000; [M+H]+
DATE: 2019.07.31
AUTHORS: Tobias Schulze, Vaidotas Kisielius, Xiaomeng Liang, Mulatu Yohannes Nanusha, Martin Krauss, Helmholtz Centre for Environmental Research GmbH - UFZ, Leipzig, Germany and University of Copenhagen (UCPH), Denmark
LICENSE: CC BY
COPYRIGHT: Copyright (C) 2019
COMMENT: CONFIDENCE Reference Standard (Level 1)
COMMENT: INTERNAL_ID 7
CH$NAME: Alpinetin
CH$COMPOUND_CLASS: N/A; Environmental Standard
CH$FORMULA: C16H14O4
CH$EXACT_MASS: 270.0892
CH$SMILES: COC1=C2C(=O)CC(OC2=CC(=C1)O)C3=CC=CC=C3
CH$IUPAC: InChI=1S/C16H14O4/c1-19-14-7-11(17)8-15-16(14)12(18)9-13(20-15)10-5-3-2-4-6-10/h2-8,13,17H,9H2,1H3
CH$LINK: INCHIKEY QQQCWVDPMPFUGF-UHFFFAOYSA-N
CH$LINK: PUBCHEM CID:4053302
CH$LINK: COMPTOX DTXSID30398801
AC$INSTRUMENT: LTQ Orbitrap XL Thermo Scientific
AC$INSTRUMENT_TYPE: LC-ESI-ITFT
AC$MASS_SPECTROMETRY: MS_TYPE MS2
AC$MASS_SPECTROMETRY: ION_MODE POSITIVE
AC$MASS_SPECTROMETRY: IONIZATION ESI
AC$MASS_SPECTROMETRY: FRAGMENTATION_MODE CID
AC$MASS_SPECTROMETRY: COLLISION_ENERGY 40 % (nominal)
AC$MASS_SPECTROMETRY: RESOLUTION 15000
AC$CHROMATOGRAPHY: COLUMN_NAME Kinetex Evo C18 2.6 um 50x2.1 mm, Phenomenex
AC$CHROMATOGRAPHY: FLOW_GRADIENT 95/5 at 0 min, 95/5 at 1 min, 0/100 at 13 min, 0/100 at 24 min, 95/5 at 24.3 min, 95/5/0 at 32 min
AC$CHROMATOGRAPHY: FLOW_RATE 300 uL/min
AC$CHROMATOGRAPHY: RETENTION_TIME 10.235 min
AC$CHROMATOGRAPHY: SOLVENT A water with 0.1% formic acid
AC$CHROMATOGRAPHY: SOLVENT B methanol with 0.1% formic acid
MS$FOCUSED_ION: BASE_PEAK 271.0964
MS$FOCUSED_ION: PRECURSOR_M/Z 271.0965
MS$FOCUSED_ION: PRECURSOR_TYPE [M+H]+
MS$DATA_PROCESSING: RECALIBRATE loess on assigned fragments and MS1
MS$DATA_PROCESSING: REANALYZE Peaks with additional N2/O included
MS$DATA_PROCESSING: WHOLE RMassBank 2.12.0
PK$SPLASH: splash10-014i-0910000000-982a64d9de011c2b63c4
PK$ANNOTATION: m/z tentative_formula formula_count mass error(ppm)
  91.0542 C7H7+ 1 91.0542 0.02
  103.0544 C8H7+ 1 103.0542 1.43
  131.0493 C9H7O+ 1 131.0491 0.89
  152.0106 C7H4O4+ 1 152.0104 1.27
  167.034 C8H7O4+ 1 167.0339 0.81
  171.0803 C12H11O+ 1 171.0804 -0.71
  197.0601 C13H9O2+ 1 197.0597 2.17
  201.0911 C13H13O2+ 1 201.091 0.54
  203.1069 C13H15O2+ 1 203.1067 1.35
  211.0753 C14H11O2+ 1 211.0754 -0.29
  225.0911 C15H13O2+ 1 225.091 0.3
  227.1071 C15H15O2+ 1 227.1067 2.17
  229.0862 C14H13O3+ 1 229.0859 1.05
  239.0703 C15H11O3+ 1 239.0703 0
  253.0862 C16H13O3+ 1 253.0859 1.19
  271.0967 C16H15O4+ 1 271.0965 0.89
PK$NUM_PEAK: 16
PK$PEAK: m/z int. rel.int.
  91.0542 7936 1
  103.0544 16227.2 2
  131.0493 306122.7 55
  152.0106 17429 3
  167.034 5541224 999
  171.0803 7411.5 1
  197.0601 8100.4 1
  201.0911 13126.3 2
  203.1069 30613.9 5
  211.0753 7905.3 1
  225.0911 11313.2 2
  227.1071 9768.9 1
  229.0862 555760 100
  239.0703 11664.2 2
  253.0862 72809.8 13
  271.0967 432364.1 77
//
