ACCESSION: MSBNK-NaToxAq-NA001198
RECORD_TITLE: Bergapten/Heraclin; LC-ESI-ITFT; MS2; CE: 40%; R=15000; [M+H]+
DATE: 2019.07.31
AUTHORS: Tobias Schulze, Vaidotas Kisielius, Xiaomeng Liang, Mulatu Yohannes Nanusha, Martin Krauss, Helmholtz Centre for Environmental Research GmbH - UFZ, Leipzig, Germany and University of Copenhagen (UCPH), Denmark
LICENSE: CC BY
COPYRIGHT: Copyright (C) 2019
COMMENT: CONFIDENCE Reference Standard (Level 1)
COMMENT: INTERNAL_ID 10
CH$NAME: Bergapten/Heraclin
CH$COMPOUND_CLASS: N/A; Environmental Standard
CH$FORMULA: C12H8O4
CH$EXACT_MASS: 216.0423
CH$SMILES: COC1=C2C=COC2=CC2=C1C=CC(=O)O2
CH$IUPAC: InChI=1S/C12H8O4/c1-14-12-7-2-3-11(13)16-10(7)6-9-8(12)4-5-15-9/h2-6H,1H3
CH$LINK: INCHIKEY BGEBZHIAGXMEMV-UHFFFAOYSA-N
CH$LINK: PUBCHEM CID:2355
CH$LINK: COMPTOX DTXSID1025560
AC$INSTRUMENT: LTQ Orbitrap XL Thermo Scientific
AC$INSTRUMENT_TYPE: LC-ESI-ITFT
AC$MASS_SPECTROMETRY: MS_TYPE MS2
AC$MASS_SPECTROMETRY: ION_MODE POSITIVE
AC$MASS_SPECTROMETRY: IONIZATION ESI
AC$MASS_SPECTROMETRY: FRAGMENTATION_MODE CID
AC$MASS_SPECTROMETRY: COLLISION_ENERGY 40 % (nominal)
AC$MASS_SPECTROMETRY: RESOLUTION 15000
AC$CHROMATOGRAPHY: COLUMN_NAME Kinetex Evo C18 2.6 um 50x2.1 mm, Phenomenex
AC$CHROMATOGRAPHY: FLOW_GRADIENT 95/5 at 0 min, 95/5 at 1 min, 0/100 at 13 min, 0/100 at 24 min, 95/5 at 24.3 min, 95/5/0 at 32 min
AC$CHROMATOGRAPHY: FLOW_RATE 300 uL/min
AC$CHROMATOGRAPHY: RETENTION_TIME 9.958 min
AC$CHROMATOGRAPHY: SOLVENT A water with 0.1% formic acid
AC$CHROMATOGRAPHY: SOLVENT B methanol with 0.1% formic acid
MS$FOCUSED_ION: BASE_PEAK 217.0492
MS$FOCUSED_ION: PRECURSOR_M/Z 217.0495
MS$FOCUSED_ION: PRECURSOR_TYPE [M+H]+
MS$DATA_PROCESSING: RECALIBRATE loess on assigned fragments and MS1
MS$DATA_PROCESSING: REANALYZE Peaks with additional N2/O included
MS$DATA_PROCESSING: WHOLE RMassBank 2.12.0
PK$SPLASH: splash10-0udi-0290000000-18c6f7c1740c6d4953b4
PK$ANNOTATION: m/z tentative_formula formula_count mass error(ppm)
  91.0543 C7H7+ 1 91.0542 1.03
  105.0697 C8H9+ 1 105.0699 -1.49
  115.0542 C9H7+ 1 115.0542 -0.11
  117.0698 C9H9+ 1 117.0699 -0.24
  131.0492 C9H7O+ 1 131.0491 0.19
  133.0647 C9H9O+ 1 133.0648 -0.92
  143.0492 C10H7O+ 1 143.0491 0.15
  145.0648 C10H9O+ 1 145.0648 -0.05
  158.0363 C10H6O2+ 1 158.0362 0.51
  161.0598 C10H9O2+ 1 161.0597 0.3
  171.0439 C11H7O2+ 1 171.0441 -0.75
  173.0597 C11H9O2+ 1 173.0597 0.25
  174.031 C10H6O3+ 1 174.0311 -0.57
  189.0548 C11H9O3+ 1 189.0546 0.79
  202.026 C11H6O4+ 1 202.0261 -0.06
  217.0495 C12H9O4+ 1 217.0495 -0.39
PK$NUM_PEAK: 16
PK$PEAK: m/z int. rel.int.
  91.0543 33524.6 1
  105.0697 23301.1 1
  115.0542 528517.1 24
  117.0698 566593.9 26
  131.0492 45099.2 2
  133.0647 74439.4 3
  143.0492 152911.9 7
  145.0648 412032.9 19
  158.0363 148891.1 6
  161.0598 512871.4 24
  171.0439 57489.4 2
  173.0597 3251072.8 152
  174.031 77325.8 3
  189.0548 471637.7 22
  202.026 21337316 999
  217.0495 3996187 187
//
