ACCESSION: MSBNK-NaToxAq-NA002720
RECORD_TITLE: alpha-Santonin; LC-ESI-ITFT; MS2; CE: 40%; R=15000; [M+H]+
DATE: 2020.02.21
AUTHORS: Tobias Schulze, Martin Krauss, Helmholtz Centre for Environmental Research GmbH - UFZ, Leipzig, Germany
LICENSE: CC0
COPYRIGHT: Copyright (C) 2020 by Helmholtz Centre for Environmental Research GmbH - UFZ, Leipzig, Germany
COMMENT: CONFIDENCE Reference Standard (Level 1)
COMMENT: INTERNAL_ID 2267
CH$NAME: alpha-Santonin
CH$NAME: Santonin
CH$NAME: (3S,3aS,5aS,9bS)-3,5a,9-trimethyl-3a,4,5,9b-tetrahydro-3H-benzo[g][1]benzofuran-2,8-dione
CH$COMPOUND_CLASS: N/A; Environmental Standard
CH$FORMULA: C15H18O3
CH$EXACT_MASS: 246.1256
CH$SMILES: C[C@H]1[C@@H]2CC[C@]3(C=CC(=O)C(=C3[C@H]2OC1=O)C)C
CH$IUPAC: InChI=1S/C15H18O3/c1-8-10-4-6-15(3)7-5-11(16)9(2)12(15)13(10)18-14(8)17/h5,7-8,10,13H,4,6H2,1-3H3/t8-,10-,13-,15-/m0/s1
CH$LINK: CAS 481-06-1
CH$LINK: CHEBI CHEBI:16363
CH$LINK: KEGG D00154
CH$LINK: LIPIDMAPS LMPR0103190001
CH$LINK: PUBCHEM CID:221071
CH$LINK: INCHIKEY XJHDMGJURBVLLE-BOCCBSBMSA-N
CH$LINK: CHEMSPIDER 191779
CH$LINK: COMPTOX DTXSID7045312
AC$INSTRUMENT: LTQ Orbitrap XL Thermo Scientific
AC$INSTRUMENT_TYPE: LC-ESI-ITFT
AC$MASS_SPECTROMETRY: MS_TYPE MS2
AC$MASS_SPECTROMETRY: ION_MODE POSITIVE
AC$MASS_SPECTROMETRY: IONIZATION ESI
AC$MASS_SPECTROMETRY: FRAGMENTATION_MODE HCD
AC$MASS_SPECTROMETRY: COLLISION_ENERGY 40% (nominal)
AC$MASS_SPECTROMETRY: RESOLUTION 15000
AC$CHROMATOGRAPHY: COLUMN_NAME Kinetex Evo C18 2.6 um 50x2.1 mm, Phenomenex
AC$CHROMATOGRAPHY: FLOW_GRADIENT 95/5 at 0 min, 95/5 at 1 min, 0/100 at 13 min, 0/100 at 24 min, 95/5 at 24.3 min, 95/5/0 at 32 min
AC$CHROMATOGRAPHY: FLOW_RATE 300 uL/min
AC$CHROMATOGRAPHY: RETENTION_TIME 8.985 min
AC$CHROMATOGRAPHY: SOLVENT A water with 0.1% formic acid
AC$CHROMATOGRAPHY: SOLVENT B methanol with 0.1% formic acid
MS$FOCUSED_ION: BASE_PEAK 247.1327
MS$FOCUSED_ION: PRECURSOR_M/Z 247.1329
MS$FOCUSED_ION: PRECURSOR_TYPE [M+H]+
MS$DATA_PROCESSING: RECALIBRATE loess on assigned fragments and MS1
MS$DATA_PROCESSING: REANALYZE Peaks with additional N2/O included
MS$DATA_PROCESSING: WHOLE RMassBank 2.14.1
PK$SPLASH: splash10-00di-0900000000-923df1320f4ffba1880b
PK$ANNOTATION: m/z tentative_formula formula_count mass error(ppm)
  135.0804 C9H11O+ 1 135.0804 -0.27
  145.1012 C11H13+ 1 145.1012 0.03
  149.096 C10H13O+ 1 149.0961 -0.67
  155.0855 C12H11+ 1 155.0855 0.03
  158.0727 C11H10O+ 1 158.0726 0.55
  159.0805 C11H11O+ 1 159.0804 0.44
  161.096 C11H13O+ 1 161.0961 -0.71
  173.0961 C12H13O+ 1 173.0961 -0.02
  174.1039 C12H14O+ 1 174.1039 -0.1
  187.1113 C13H15O+ 1 187.1117 -2.53
  191.1064 C12H15O2+ 1 191.1067 -1.37
  201.1273 C14H17O+ 1 201.1274 -0.56
  229.1224 C15H17O2+ 1 229.1223 0.55
  247.1329 C15H19O3+ 1 247.1329 -0.01
PK$NUM_PEAK: 14
PK$PEAK: m/z int. rel.int.
  135.0804 24324 53
  145.1012 19096.9 42
  149.096 5480.1 12
  155.0855 3420.2 7
  158.0727 4436 9
  159.0805 2483.7 5
  161.096 5383.4 11
  173.0961 452721.5 999
  174.1039 8753.8 19
  187.1113 2280.8 5
  191.1064 3132.5 6
  201.1273 40783.2 89
  229.1224 4750.1 10
  247.1329 12466.7 27
//
