ACCESSION: MSBNK-NaToxAq-NA000713
RECORD_TITLE: Monocrotaline N-oxide; LC-ESI-ITFT; MS2; CE: 75%; R=15000; [M+H]+
DATE: 2019.02.28
AUTHORS: Tobias Schulze, Jawameer Hama, Hubert Schupke, Martin Krauss, Helmholtz Centre for Environmental Research GmbH - UFZ, Leipzig, Germany and University of Copenhagen (UCPH), Denmark
LICENSE: CC BY
COPYRIGHT: Copyright (C) 2019
COMMENT: CONFIDENCE Reference Standard (Level 1)
COMMENT: INTERNAL_ID 163
CH$NAME: Monocrotaline N-oxide
CH$NAME: (1R,4R,5R,6R,16R)-5,6-dihydroxy-4,5,6-trimethyl-13-oxido-2,8-dioxa-13-azoniatricyclo[8.5.1.0^{13,16}]hexadec-10-ene-3,7-dione
CH$COMPOUND_CLASS: N/A; Environmental Standard
CH$FORMULA: C16H23NO7
CH$EXACT_MASS: 341.1475
CH$SMILES: C[C@H]1C(=O)O[C@@H]2CCN3(=O)CC=C(COC(=O)[C@](C)(O)[C@]1(C)O)[C@H]23
CH$IUPAC: InChI=1S/C16H23NO7/c1-9-13(18)24-11-5-7-17(22)6-4-10(12(11)17)8-23-14(19)16(3,21)15(9,2)20/h4,9,11-12,20-21H,5-8H2,1-3H3/t9-,11+,12+,15+,16-,17?/m0/s1
CH$LINK: PUBCHEM CID:21586627
CH$LINK: INCHIKEY LHVAZUAALQTANZ-ANYXPJNNSA-N
CH$LINK: CHEMSPIDER 10202244
AC$INSTRUMENT: LTQ Orbitrap XL Thermo Scientific
AC$INSTRUMENT_TYPE: LC-ESI-ITFT
AC$MASS_SPECTROMETRY: MS_TYPE MS2
AC$MASS_SPECTROMETRY: ION_MODE POSITIVE
AC$MASS_SPECTROMETRY: IONIZATION ESI
AC$MASS_SPECTROMETRY: FRAGMENTATION_MODE CID
AC$MASS_SPECTROMETRY: COLLISION_ENERGY 75 % (nominal)
AC$MASS_SPECTROMETRY: RESOLUTION 15000
AC$CHROMATOGRAPHY: COLUMN_NAME Kinetex Evo C18 2.6 um 50x2.1 mm, Phenomenex
AC$CHROMATOGRAPHY: FLOW_GRADIENT 95/5 at 0 min, 95/5 at 1 min, 0/100 at 13 min, 0/100 at 24 min, 95/5 at 24.3 min, 95/5 at 32 min
AC$CHROMATOGRAPHY: FLOW_RATE 300 uL/min
AC$CHROMATOGRAPHY: RETENTION_TIME 1.126 min
AC$CHROMATOGRAPHY: SOLVENT A water with 0.1% formic acid
AC$CHROMATOGRAPHY: SOLVENT B methanol with 0.1% formic acid
MS$FOCUSED_ION: BASE_PEAK 350.1597
MS$FOCUSED_ION: PRECURSOR_M/Z 342.1547
MS$FOCUSED_ION: PRECURSOR_TYPE [M+H]+
MS$DATA_PROCESSING: RECALIBRATE loess on assigned fragments and MS1
MS$DATA_PROCESSING: REANALYZE Peaks with additional N2/O included
MS$DATA_PROCESSING: WHOLE RMassBank 2.11.0
PK$SPLASH: splash10-000b-0490000000-6c6f098c21d4ac25c596
PK$ANNOTATION: m/z tentative_formula formula_count mass error(ppm)
  106.0651 C7H8N+ 1 106.0651 -0.32
  108.0808 C7H10N+ 1 108.0808 0.09
  117.0572 C8H7N+ 1 117.0573 -0.81
  118.0652 C8H8N+ 1 118.0651 0.36
  119.073 C8H9N+ 1 119.073 0.5
  120.0808 C8H10N+ 1 120.0808 0.43
  121.0888 C8H11N+ 1 121.0886 1.64
  122.0604 C7H8NO+ 1 122.06 3.03
  122.0966 C8H12N+ 1 122.0964 1.4
  136.0758 C8H10NO+ 1 136.0757 0.85
  137.0836 C8H11NO+ 1 137.0835 0.38
  138.0915 C8H12NO+ 1 138.0913 1.14
  140.107 C8H14NO+ 1 140.107 0.23
  154.0863 C8H12NO2+ 1 154.0863 0.11
  157.086 C8H13O3+ 1 157.0859 0.78
  162.0917 C10H12NO+ 1 162.0913 2.38
  164.0711 C9H10NO2+ 1 164.0706 3.04
  164.1072 C10H14NO+ 1 164.107 1.5
  180.102 C10H14NO2+ 1 180.1019 0.54
  183.0889 C9H13NO3+ 1 183.089 -0.44
  190.0854 C11H12NO2+ 1 190.0863 -4.26
  192.1025 C11H14NO2+ 1 192.1019 2.85
  194.1177 C11H16NO2+ 1 194.1176 0.94
  198.1128 C10H16NO3+ 1 198.1125 1.51
  208.0968 C11H14NO3+ 1 208.0968 -0.04
  209.1047 C11H15NO3+ 1 209.1046 0.47
  210.1125 C11H16NO3+ 1 210.1125 0.1
  226.1074 C11H16NO4+ 1 226.1074 0.22
  228.1227 C11H18NO4+ 1 228.123 -1.53
  234.1126 C13H16NO3+ 1 234.1125 0.36
  235.12 C13H17NO3+ 1 235.1203 -1.2
  236.1281 C13H18NO3+ 1 236.1281 -0.16
  244.118 C11H18NO5+ 1 244.1179 0.33
  253.1308 C13H19NO4+ 1 253.1309 -0.1
  254.1387 C13H20NO4+ 1 254.1387 0.04
  268.118 C13H18NO5+ 1 268.1179 0.32
  270.1335 C13H20NO5+ 1 270.1336 -0.33
  280.1537 C15H22NO4+ 1 280.1543 -2.29
  286.1296 C13H20NO6+ 1 286.1285 3.87
  296.1494 C15H22NO5+ 1 296.1492 0.48
  298.1651 C15H24NO5+ 1 298.1649 0.72
  314.16 C15H24NO6+ 1 314.1598 0.73
  324.1445 C16H22NO6+ 1 324.1442 0.9
PK$NUM_PEAK: 43
PK$PEAK: m/z int. rel.int.
  106.0651 2886 8
  108.0808 6749.6 19
  117.0572 4002.6 11
  118.0652 30349.9 88
  119.073 29687.3 86
  120.0808 58607.4 171
  121.0888 2291 6
  122.0604 1130.2 3
  122.0966 1819.8 5
  136.0758 17291 50
  137.0836 111671.5 326
  138.0915 7099.2 20
  140.107 3317.3 9
  154.0863 6827.3 19
  157.086 3793.5 11
  162.0917 3721.7 10
  164.0711 1233.3 3
  164.1072 1906.9 5
  180.102 5268.9 15
  183.0889 2812.4 8
  190.0854 2264.2 6
  192.1025 2569.7 7
  194.1177 9360.7 27
  198.1128 2049.7 5
  208.0968 8167.9 23
  209.1047 25720.5 75
  210.1125 12088.9 35
  226.1074 13639.5 39
  228.1227 5474.8 16
  234.1126 3452.5 10
  235.12 2363.2 6
  236.1281 110948 324
  244.118 12295.5 35
  253.1308 45849.4 134
  254.1387 20692.3 60
  268.118 10712 31
  270.1335 16977.7 49
  280.1537 1349.5 3
  286.1296 1769.4 5
  296.1494 341689.5 999
  298.1651 1877.3 5
  314.16 36041.4 105
  324.1445 13504.8 39
//
