ACCESSION: MSBNK-NaToxAq-NA001270
RECORD_TITLE: Pterosin B; LC-ESI-ITFT; MS2; CE: 40%; R=15000; [M+H]+
DATE: 2019.07.31
AUTHORS: Tobias Schulze, Vaidotas Kisielius, Xiaomeng Liang, Mulatu Yohannes Nanusha, Martin Krauss, Helmholtz Centre for Environmental Research GmbH - UFZ, Leipzig, Germany and University of Copenhagen (UCPH), Denmark
LICENSE: CC BY
COPYRIGHT: Copyright (C) 2019
COMMENT: CONFIDENCE Reference Standard (Level 1)
COMMENT: INTERNAL_ID 33
CH$NAME: Pterosin B
CH$NAME: (2R)-6-(2-hydroxyethyl)-2,5,7-trimethyl-2,3-dihydroinden-1-one
CH$COMPOUND_CLASS: N/A; Environmental Standard
CH$FORMULA: C14H18O2
CH$EXACT_MASS: 218.1307
CH$SMILES: C[C@@H]1CC2=C(C1=O)C(=C(C(=C2)C)CCO)C
CH$IUPAC: InChI=1S/C14H18O2/c1-8-6-11-7-9(2)14(16)13(11)10(3)12(8)4-5-15/h6,9,15H,4-5,7H2,1-3H3/t9-/m1/s1
CH$LINK: CAS 35349-03-2
CH$LINK: PUBCHEM CID:115049
CH$LINK: INCHIKEY SJNCSXMTBXDZQA-SECBINFHSA-N
CH$LINK: CHEMSPIDER 102965
CH$LINK: COMPTOX DTXSID70955715
AC$INSTRUMENT: LTQ Orbitrap XL Thermo Scientific
AC$INSTRUMENT_TYPE: LC-ESI-ITFT
AC$MASS_SPECTROMETRY: MS_TYPE MS2
AC$MASS_SPECTROMETRY: ION_MODE POSITIVE
AC$MASS_SPECTROMETRY: IONIZATION ESI
AC$MASS_SPECTROMETRY: FRAGMENTATION_MODE CID
AC$MASS_SPECTROMETRY: COLLISION_ENERGY 40 % (nominal)
AC$MASS_SPECTROMETRY: RESOLUTION 15000
AC$CHROMATOGRAPHY: COLUMN_NAME Kinetex Evo C18 2.6 um 50x2.1 mm, Phenomenex
AC$CHROMATOGRAPHY: FLOW_GRADIENT 95/5 at 0 min, 95/5 at 1 min, 0/100 at 13 min, 0/100 at 24 min, 95/5 at 24.3 min, 95/5/0 at 32 min
AC$CHROMATOGRAPHY: FLOW_RATE 300 uL/min
AC$CHROMATOGRAPHY: RETENTION_TIME 10.332 min
AC$CHROMATOGRAPHY: SOLVENT A water with 0.1% formic acid
AC$CHROMATOGRAPHY: SOLVENT B methanol with 0.1% formic acid
MS$FOCUSED_ION: BASE_PEAK 219.1371
MS$FOCUSED_ION: PRECURSOR_M/Z 219.138
MS$FOCUSED_ION: PRECURSOR_TYPE [M+H]+
MS$DATA_PROCESSING: RECALIBRATE loess on assigned fragments and MS1
MS$DATA_PROCESSING: REANALYZE Peaks with additional N2/O included
MS$DATA_PROCESSING: WHOLE RMassBank 2.12.0
PK$SPLASH: splash10-0udi-0190000000-06f9182b35ac38e2571f
PK$ANNOTATION: m/z tentative_formula formula_count mass error(ppm)
  131.0852 C10H11+ 1 131.0855 -2.43
  133.1007 C10H13+ 1 133.1012 -3.28
  143.0852 C11H11+ 1 143.0855 -2.05
  145.1009 C11H13+ 1 145.1012 -1.58
  149.0959 C10H13O+ 1 149.0961 -1.52
  155.0854 C12H11+ 1 155.0855 -1.07
  157.1009 C12H13+ 1 157.1012 -1.45
  159.1166 C12H15+ 1 159.1168 -1.3
  163.1116 C11H15O+ 1 163.1117 -1.02
  168.0931 C13H12+ 1 168.0934 -1.41
  171.1166 C13H15+ 1 171.1168 -1.56
  173.0958 C12H13O+ 1 173.0961 -1.48
  173.1323 C13H17+ 1 173.1325 -1.26
  183.1166 C14H15+ 1 183.1168 -1.32
  186.1038 C13H14O+ 1 186.1039 -0.68
  191.1429 C13H19O+ 1 191.143 -0.75
  199.1116 C14H15O+ 1 199.1117 -0.5
  201.127 C14H17O+ 1 201.1274 -2.09
  219.1374 C14H19O2+ 1 219.138 -2.35
PK$NUM_PEAK: 19
PK$PEAK: m/z int. rel.int.
  131.0852 8240.4 2
  133.1007 4124 1
  143.0852 3966.1 1
  145.1009 25705.9 8
  149.0959 7128.2 2
  155.0854 11269.1 3
  157.1009 7058.5 2
  159.1166 20798.4 7
  163.1116 24432 8
  168.0931 24427.7 8
  171.1166 7098.7 2
  173.0958 19370.3 6
  173.1323 99516.5 33
  183.1166 161427.9 54
  186.1038 7242.8 2
  191.1429 24950.5 8
  199.1116 38406.8 13
  201.127 2949694 999
  219.1374 322697.9 109
//
