ACCESSION: MSBNK-NaToxAq-NA003394
RECORD_TITLE: Imperatorin; LC-ESI-ITFT; MS2; CE: 85%; R=15000; [M+H]+
DATE: 2020.02.22
AUTHORS: Tobias Schulze, Martin Krauss, Helmholtz Centre for Environmental Research GmbH - UFZ, Leipzig, Germany
LICENSE: CC0
COPYRIGHT: Copyright (C) 2020 by Helmholtz Centre for Environmental Research GmbH - UFZ, Leipzig, Germany
COMMENT: CONFIDENCE Reference Standard (Level 1)
COMMENT: INTERNAL_ID 2244
CH$NAME: Imperatorin
CH$NAME: 9-(3-methylbut-2-enoxy)furo[3,2-g]chromen-7-one
CH$COMPOUND_CLASS: N/A; Environmental Standard
CH$FORMULA: C16H14O4
CH$EXACT_MASS: 270.0892
CH$SMILES: CC(=CCOc1c2c(ccc(=O)o2)cc3c1occ3)C
CH$IUPAC: InChI=1S/C16H14O4/c1-10(2)5-7-19-16-14-12(6-8-18-14)9-11-3-4-13(17)20-15(11)16/h3-6,8-9H,7H2,1-2H3
CH$LINK: CAS 482-44-0
CH$LINK: CHEBI CHEBI:5885
CH$LINK: KEGG C09269
CH$LINK: PUBCHEM CID:10212
CH$LINK: INCHIKEY OLOOJGVNMBJLLR-UHFFFAOYSA-N
CH$LINK: CHEMSPIDER 9797
CH$LINK: COMPTOX DTXSID8048737
AC$INSTRUMENT: LTQ Orbitrap XL Thermo Scientific
AC$INSTRUMENT_TYPE: LC-ESI-ITFT
AC$MASS_SPECTROMETRY: MS_TYPE MS2
AC$MASS_SPECTROMETRY: ION_MODE POSITIVE
AC$MASS_SPECTROMETRY: IONIZATION ESI
AC$MASS_SPECTROMETRY: FRAGMENTATION_MODE HCD
AC$MASS_SPECTROMETRY: COLLISION_ENERGY 85% (nominal)
AC$MASS_SPECTROMETRY: RESOLUTION 15000
AC$CHROMATOGRAPHY: COLUMN_NAME Kinetex Evo C18 2.6 um 50x2.1 mm, Phenomenex
AC$CHROMATOGRAPHY: FLOW_GRADIENT 95/5 at 0 min, 95/5 at 1 min, 0/100 at 13 min, 0/100 at 24 min, 95/5 at 24.3 min, 95/5/0 at 32 min
AC$CHROMATOGRAPHY: FLOW_RATE 300 uL/min
AC$CHROMATOGRAPHY: RETENTION_TIME 11.498 min
AC$CHROMATOGRAPHY: SOLVENT A water with 0.1% formic acid
AC$CHROMATOGRAPHY: SOLVENT B methanol with 0.1% formic acid
MS$FOCUSED_ION: BASE_PEAK 203.0338
MS$FOCUSED_ION: PRECURSOR_M/Z 271.0965
MS$FOCUSED_ION: PRECURSOR_TYPE [M+H]+
MS$DATA_PROCESSING: RECALIBRATE loess on assigned fragments and MS1
MS$DATA_PROCESSING: REANALYZE Peaks with additional N2/O included
MS$DATA_PROCESSING: WHOLE RMassBank 2.14.1
PK$SPLASH: splash10-0002-1900000000-efa188f28c647ae8fe14
PK$ANNOTATION: m/z tentative_formula formula_count mass error(ppm)
  65.0386 C5H5+ 1 65.0386 0.68
  69.0699 C5H9+ 1 69.0699 0.43
  77.0387 C6H5+ 1 77.0386 1.7
  89.0387 C7H5+ 1 89.0386 1.55
  90.0462 C7H6+ 1 90.0464 -1.79
  91.0543 C7H7+ 1 91.0542 0.8
  101.0386 C8H5+ 1 101.0386 -0.2
  103.0543 C8H7+ 1 103.0542 0.49
  105.0335 C7H5O+ 1 105.0335 0.5
  119.0492 C8H7O+ 1 119.0491 0.28
  129.0336 C9H5O+ 1 129.0335 0.97
  131.0493 C9H7O+ 1 131.0491 0.84
  145.0289 C9H5O2+ 1 145.0284 3.09
  147.0442 C9H7O2+ 1 147.0441 0.95
  157.0285 C10H5O2+ 1 157.0284 0.81
  159.0445 C10H7O2+ 1 159.0441 2.51
  174.0314 C10H6O3+ 1 174.0311 1.4
  175.0391 C10H7O3+ 1 175.039 0.52
  185.0235 C11H5O3+ 1 185.0233 0.86
  203.0338 C11H7O4+ 1 203.0339 -0.18
PK$NUM_PEAK: 20
PK$PEAK: m/z int. rel.int.
  65.0386 1726.3 4
  69.0699 14641.3 38
  77.0387 5512.1 14
  89.0387 2590.5 6
  90.0462 1128.2 2
  91.0543 45711.1 119
  101.0386 2911 7
  103.0543 14305.2 37
  105.0335 1700.1 4
  119.0492 8367.5 21
  129.0336 66759.4 174
  131.0493 52776.2 138
  145.0289 1171.6 3
  147.0442 381297.4 999
  157.0285 33744.1 88
  159.0445 5814.7 15
  174.0314 5660.4 14
  175.0391 27331.5 71
  185.0235 4807.6 12
  203.0338 23089.9 60
//
