ACCESSION: MSBNK-NaToxAq-NA001452
RECORD_TITLE: Bergapten/Heraclin; LC-ESI-ITFT; MS2; CE: 65%; R=15000; [M+H]+
DATE: 2019.07.31
AUTHORS: Tobias Schulze, Vaidotas Kisielius, Xiaomeng Liang, Mulatu Yohannes Nanusha, Martin Krauss, Helmholtz Centre for Environmental Research GmbH - UFZ, Leipzig, Germany and University of Copenhagen (UCPH), Denmark
LICENSE: CC BY
COPYRIGHT: Copyright (C) 2019
COMMENT: CONFIDENCE Reference Standard (Level 1)
COMMENT: INTERNAL_ID 10
CH$NAME: Bergapten/Heraclin
CH$COMPOUND_CLASS: N/A; Environmental Standard
CH$FORMULA: C12H8O4
CH$EXACT_MASS: 216.0423
CH$SMILES: COC1=C2C=COC2=CC2=C1C=CC(=O)O2
CH$IUPAC: InChI=1S/C12H8O4/c1-14-12-7-2-3-11(13)16-10(7)6-9-8(12)4-5-15-9/h2-6H,1H3
CH$LINK: INCHIKEY BGEBZHIAGXMEMV-UHFFFAOYSA-N
CH$LINK: PUBCHEM CID:2355
CH$LINK: COMPTOX DTXSID1025560
AC$INSTRUMENT: LTQ Orbitrap XL Thermo Scientific
AC$INSTRUMENT_TYPE: LC-ESI-ITFT
AC$MASS_SPECTROMETRY: MS_TYPE MS2
AC$MASS_SPECTROMETRY: ION_MODE POSITIVE
AC$MASS_SPECTROMETRY: IONIZATION ESI
AC$MASS_SPECTROMETRY: FRAGMENTATION_MODE CID
AC$MASS_SPECTROMETRY: COLLISION_ENERGY 65 % (nominal)
AC$MASS_SPECTROMETRY: RESOLUTION 15000
AC$CHROMATOGRAPHY: COLUMN_NAME Kinetex Evo C18 2.6 um 50x2.1 mm, Phenomenex
AC$CHROMATOGRAPHY: FLOW_GRADIENT 95/5 at 0 min, 95/5 at 1 min, 0/100 at 13 min, 0/100 at 24 min, 95/5 at 24.3 min, 95/5/0 at 32 min
AC$CHROMATOGRAPHY: FLOW_RATE 300 uL/min
AC$CHROMATOGRAPHY: RETENTION_TIME 9.930 min
AC$CHROMATOGRAPHY: SOLVENT A water with 0.1% formic acid
AC$CHROMATOGRAPHY: SOLVENT B methanol with 0.1% formic acid
MS$FOCUSED_ION: BASE_PEAK 416.3518
MS$FOCUSED_ION: PRECURSOR_M/Z 217.0495
MS$FOCUSED_ION: PRECURSOR_TYPE [M+H]+
MS$DATA_PROCESSING: RECALIBRATE loess on assigned fragments and MS1
MS$DATA_PROCESSING: REANALYZE Peaks with additional N2/O included
MS$DATA_PROCESSING: WHOLE RMassBank 2.12.0
PK$SPLASH: splash10-0udi-0290000000-cd1090cd592fc93cc31d
PK$ANNOTATION: m/z tentative_formula formula_count mass error(ppm)
  91.0543 C7H7+ 1 91.0542 1.2
  115.0543 C9H7+ 1 115.0542 0.51
  117.07 C9H9+ 1 117.0699 0.65
  131.049 C9H7O+ 1 131.0491 -0.72
  133.065 C9H9O+ 1 133.0648 1.58
  143.0493 C10H7O+ 1 143.0491 0.96
  145.065 C10H9O+ 1 145.0648 1.11
  158.0365 C10H6O2+ 1 158.0362 1.55
  159.044 C10H7O2+ 1 159.0441 -0.07
  161.0599 C10H9O2+ 1 161.0597 1.21
  163.0394 C9H7O3+ 1 163.039 2.85
  171.0443 C11H7O2+ 1 171.0441 1.61
  173.0599 C11H9O2+ 1 173.0597 1.07
  174.0313 C10H6O3+ 1 174.0311 0.94
  189.0548 C11H9O3+ 1 189.0546 0.93
  199.0396 C12H7O3+ 1 199.039 3.17
  202.0262 C11H6O4+ 1 202.0261 0.57
PK$NUM_PEAK: 17
PK$PEAK: m/z int. rel.int.
  91.0543 21198.3 1
  115.0543 397138.5 21
  117.07 432303.6 23
  131.049 31211.9 1
  133.065 49416.7 2
  143.0493 137683.6 7
  145.065 319364.2 17
  158.0365 101194.5 5
  159.044 21887.3 1
  161.0599 407482.9 22
  163.0394 20554.1 1
  171.0443 42857.2 2
  173.0599 2898804.8 157
  174.0313 66935.1 3
  189.0548 403366.7 21
  199.0396 24293.6 1
  202.0262 18437124 999
//
