ACCESSION: MSBNK-NaToxAq-NA002214
RECORD_TITLE: Caudatoside; LC-ESI-ITFT; MS2; CE: 55%; R=15000; [M+Na]+
DATE: 2019.07.31
AUTHORS: Tobias Schulze, Vaidotas Kisielius, Xiaomeng Liang, Mulatu Yohannes Nanusha, Martin Krauss, Helmholtz Centre for Environmental Research GmbH - UFZ, Leipzig, Germany and University of Copenhagen (UCPH), Denmark
LICENSE: CC BY
COPYRIGHT: Copyright (C) 2019
COMMENT: CONFIDENCE Reference Standard (Level 1)
COMMENT: INTERNAL_ID 32
CH$NAME: Caudatoside
CH$NAME: (2S,7S,7aS)-7-hydroxy-2-(hydroxymethyl)-2,5,7-trimethyl-4-[(2S,3R,4S,5S,6R)-3,4,5-trihydroxy-6-(hydroxymethyl)oxan-2-yl]oxyspiro[3a,7a-dihydro-3H-indene-6,1`-cyclopropane]-1-one
CH$COMPOUND_CLASS: N/A; Environmental Standard
CH$FORMULA: C21H32O9
CH$EXACT_MASS: 428.2046
CH$SMILES: CC1=C(C2C[C@@](C(=O)[C@@H]2[C@](C13CC3)(C)O)(C)CO)O[C@H]4[C@@H]([C@H]([C@@H]([C@H](O4)CO)O)O)O
CH$IUPAC: InChI=1S/C21H32O9/c1-9-16(30-18-15(26)14(25)13(24)11(7-22)29-18)10-6-19(2,8-23)17(27)12(10)20(3,28)21(9)4-5-21/h10-15,18,22-26,28H,4-8H2,1-3H3/t10?,11-,12-,13-,14+,15-,18+,19+,20+/m1/s1
CH$LINK: PUBCHEM CID:102065498
CH$LINK: INCHIKEY NIERWTDCCGPRCQ-ZFVALMAISA-N
AC$INSTRUMENT: LTQ Orbitrap XL Thermo Scientific
AC$INSTRUMENT_TYPE: LC-ESI-ITFT
AC$MASS_SPECTROMETRY: MS_TYPE MS2
AC$MASS_SPECTROMETRY: ION_MODE POSITIVE
AC$MASS_SPECTROMETRY: IONIZATION ESI
AC$MASS_SPECTROMETRY: FRAGMENTATION_MODE CID
AC$MASS_SPECTROMETRY: COLLISION_ENERGY 55 % (nominal)
AC$MASS_SPECTROMETRY: RESOLUTION 15000
AC$CHROMATOGRAPHY: COLUMN_NAME Kinetex Evo C18 2.6 um 50x2.1 mm, Phenomenex
AC$CHROMATOGRAPHY: FLOW_GRADIENT 95/5 at 0 min, 95/5 at 1 min, 0/100 at 13 min, 0/100 at 24 min, 95/5 at 24.3 min, 95/5/0 at 32 min
AC$CHROMATOGRAPHY: FLOW_RATE 300 uL/min
AC$CHROMATOGRAPHY: RETENTION_TIME 8.254 min
AC$CHROMATOGRAPHY: SOLVENT A water with 0.1% formic acid
AC$CHROMATOGRAPHY: SOLVENT B methanol with 0.1% formic acid
MS$FOCUSED_ION: BASE_PEAK 328.2605
MS$FOCUSED_ION: PRECURSOR_M/Z 451.1939
MS$FOCUSED_ION: PRECURSOR_TYPE [M+Na]+
MS$DATA_PROCESSING: RECALIBRATE loess on assigned fragments and MS1
MS$DATA_PROCESSING: REANALYZE Peaks with additional N2/O included
MS$DATA_PROCESSING: WHOLE RMassBank 2.12.0
PK$SPLASH: splash10-00di-0090000000-37c040979f8fa2a8fa86
PK$ANNOTATION: m/z tentative_formula formula_count mass error(ppm)
  203.0524 C6H12NaO6+ 1 203.0526 -1.02
  253.1194 C15H18NaO2+ 1 253.1199 -1.82
  271.1306 C15H20NaO3+ 1 271.1305 0.61
  415.1721 C21H28NaO7+ 1 415.1727 -1.54
  433.1835 C21H30NaO8+ 1 433.1833 0.45
PK$NUM_PEAK: 5
PK$PEAK: m/z int. rel.int.
  203.0524 4416.3 38
  253.1194 6988.4 61
  271.1306 114019.4 999
  415.1721 1826.3 16
  433.1835 10591.9 92
//
