ACCESSION: MSBNK-NaToxAq-NA000279
RECORD_TITLE: 13a-Hydroxylupanin; LC-ESI-ITFT; MS2; CE: 40%; R=15000; [M+H]+
DATE: 2019.02.28
AUTHORS: Tobias Schulze, Jawameer Hama, Hubert Schupke, Martin Krauss, Helmholtz Centre for Environmental Research GmbH - UFZ, Leipzig, Germany and University of Copenhagen (UCPH), Denmark
LICENSE: CC BY
COPYRIGHT: Copyright (C) 2019
COMMENT: CONFIDENCE Reference Standard (Level 1)
COMMENT: INTERNAL_ID 21
CH$NAME: 13a-Hydroxylupanin
CH$NAME: Hydroxylupanine
CH$NAME: (1S,2R,9S,10S,12S)-12-hydroxy-7,15-diazatetracyclo[7.7.1.0^{2,7}.0^{10,15}]heptadecan-6-one
CH$COMPOUND_CLASS: N/A; Environmental Standard
CH$FORMULA: C15H24N2O2
CH$EXACT_MASS: 264.1838
CH$SMILES: C1C[C@@H]2[C@H]3C[C@@H](CN2C(=O)C1)[C@@H]4C[C@H](CCN4C3)O
CH$IUPAC: InChI=1S/C15H24N2O2/c18-12-4-5-16-8-10-6-11(14(16)7-12)9-17-13(10)2-1-3-15(17)19/h10-14,18H,1-9H2/t10-,11-,12-,13+,14-/m0/s1
CH$LINK: CAS 6642-48-4
CH$LINK: PUBCHEM CID:73404
CH$LINK: INCHIKEY JVYKIBAJVKEZSQ-YHQUGGNUSA-N
CH$LINK: CHEMSPIDER 66121
AC$INSTRUMENT: LTQ Orbitrap XL Thermo Scientific
AC$INSTRUMENT_TYPE: LC-ESI-ITFT
AC$MASS_SPECTROMETRY: MS_TYPE MS2
AC$MASS_SPECTROMETRY: ION_MODE POSITIVE
AC$MASS_SPECTROMETRY: IONIZATION ESI
AC$MASS_SPECTROMETRY: FRAGMENTATION_MODE HCD
AC$MASS_SPECTROMETRY: COLLISION_ENERGY 40 % (nominal)
AC$MASS_SPECTROMETRY: RESOLUTION 15000
AC$CHROMATOGRAPHY: COLUMN_NAME Synergi Polar RP, 2.5 um 100x3.0 mm, Phenomenex
AC$CHROMATOGRAPHY: FLOW_GRADIENT 95/5/0 at 0 min, 95/5/0 at 2 min, 5/95/0 at 8 min, 5/80/15 at 12 min, 5/25/70 at 19 min, 3/2/95 at 19.5 min, 3/2/95 at 22 min, 95/5/0 at 23 min, 95/5/0 at 28 min
AC$CHROMATOGRAPHY: FLOW_RATE 400 uL/min
AC$CHROMATOGRAPHY: RETENTION_TIME 5.416 min
AC$CHROMATOGRAPHY: SOLVENT A water with 0.1% formic acid
AC$CHROMATOGRAPHY: SOLVENT B methanol with 0.1% formic acid
MS$FOCUSED_ION: BASE_PEAK 236.0739
MS$FOCUSED_ION: PRECURSOR_M/Z 265.1911
MS$FOCUSED_ION: PRECURSOR_TYPE [M+H]+
MS$DATA_PROCESSING: RECALIBRATE loess on assigned fragments and MS1
MS$DATA_PROCESSING: REANALYZE Peaks with additional N2/O included
MS$DATA_PROCESSING: WHOLE RMassBank 2.11.0
PK$SPLASH: splash10-014i-0090000000-c173f17be71d9e5c4c73
PK$ANNOTATION: m/z tentative_formula formula_count mass error(ppm)
  152.1068 C9H14NO+ 1 152.107 -1.57
  247.1804 C15H23N2O+ 1 247.1805 -0.52
  265.191 C15H25N2O2+ 1 265.1911 -0.11
PK$NUM_PEAK: 3
PK$PEAK: m/z int. rel.int.
  152.1068 3282.3 9
  247.1804 3776.8 10
  265.191 360600.6 999
//
