ACCESSION: MSBNK-NaToxAq-NA003050
RECORD_TITLE: Jacobine; LC-ESI-ITFT; MS2; CE: 65%; R=15000; [M+H]+
DATE: 2020.02.22
AUTHORS: Tobias Schulze, Martin Krauss, Helmholtz Centre for Environmental Research GmbH - UFZ, Leipzig, Germany
LICENSE: CC0
COPYRIGHT: Copyright (C) 2020 by Helmholtz Centre for Environmental Research GmbH - UFZ, Leipzig, Germany
COMMENT: CONFIDENCE Reference Standard (Level 1)
COMMENT: INTERNAL_ID 2254
CH$NAME: Jacobine
CH$NAME: (1R,3`S,4S,6R,7R,17R)-7-hydroxy-3`,6,7-trimethylspiro[2,9-dioxa-14-azatricyclo[9.5.1.014,17]heptadec-11-ene-4,2`-oxirane]-3,8-dione
CH$COMPOUND_CLASS: N/A; Environmental Standard
CH$FORMULA: C18H25NO6
CH$EXACT_MASS: 351.1682
CH$SMILES: C[C@@H]1C[C@]2([C@@H](O2)C)C(=O)O[C@@H]3CCN4[C@@H]3C(=CC4)COC(=O)[C@]1(C)O
CH$IUPAC: InChI=1S/C18H25NO6/c1-10-8-18(11(2)25-18)16(21)24-13-5-7-19-6-4-12(14(13)19)9-23-15(20)17(10,3)22/h4,10-11,13-14,22H,5-9H2,1-3H3/t10-,11+,13-,14-,17-,18+/m1/s1
CH$LINK: CAS 471-14-7
CH$LINK: CHEBI CHEBI:6080
CH$LINK: KEGG C10339
CH$LINK: PUBCHEM CID:442741
CH$LINK: INCHIKEY IAPHXJRHXBQDQJ-WKMWQDDRSA-N
CH$LINK: CHEMSPIDER 391085
AC$INSTRUMENT: LTQ Orbitrap XL Thermo Scientific
AC$INSTRUMENT_TYPE: LC-ESI-ITFT
AC$MASS_SPECTROMETRY: MS_TYPE MS2
AC$MASS_SPECTROMETRY: ION_MODE POSITIVE
AC$MASS_SPECTROMETRY: IONIZATION ESI
AC$MASS_SPECTROMETRY: FRAGMENTATION_MODE HCD
AC$MASS_SPECTROMETRY: COLLISION_ENERGY 65% (nominal)
AC$MASS_SPECTROMETRY: RESOLUTION 15000
AC$CHROMATOGRAPHY: COLUMN_NAME Kinetex Evo C18 2.6 um 50x2.1 mm, Phenomenex
AC$CHROMATOGRAPHY: FLOW_GRADIENT 95/5 at 0 min, 95/5 at 1 min, 0/100 at 13 min, 0/100 at 24 min, 95/5 at 24.3 min, 95/5/0 at 32 min
AC$CHROMATOGRAPHY: FLOW_RATE 300 uL/min
AC$CHROMATOGRAPHY: RETENTION_TIME 1.038 min
AC$CHROMATOGRAPHY: SOLVENT A water with 0.1% formic acid
AC$CHROMATOGRAPHY: SOLVENT B methanol with 0.1% formic acid
MS$FOCUSED_ION: BASE_PEAK 352.1753
MS$FOCUSED_ION: PRECURSOR_M/Z 352.1755
MS$FOCUSED_ION: PRECURSOR_TYPE [M+H]+
MS$DATA_PROCESSING: RECALIBRATE loess on assigned fragments and MS1
MS$DATA_PROCESSING: REANALYZE Peaks with additional N2/O included
MS$DATA_PROCESSING: WHOLE RMassBank 2.14.1
PK$SPLASH: splash10-00di-4900000000-b2a5ff12820246353c18
PK$ANNOTATION: m/z tentative_formula formula_count mass error(ppm)
  67.0542 C5H7+ 1 67.0542 0.05
  68.0494 C4H6N+ 1 68.0495 -0.68
  69.0336 C4H5O+ 1 69.0335 0.97
  69.0697 C5H9+ 1 69.0699 -2.58
  70.0651 C4H8N+ 1 70.0651 -0.1
  71.0492 C4H7O+ 1 71.0491 0.62
  77.0386 C6H5+ 1 77.0386 -0.12
  79.0543 C6H7+ 1 79.0542 0.6
  80.0495 C5H6N+ 1 80.0495 0.5
  81.0571 C5H7N+ 1 81.0573 -1.99
  81.07 C6H9+ 1 81.0699 1.46
  82.0652 C5H8N+ 1 82.0651 0.51
  85.0648 C5H9O+ 1 85.0648 -0.39
  87.0441 C4H7O2+ 1 87.0441 -0.02
  91.0543 C7H7+ 1 91.0542 0.79
  93.0699 C7H9+ 1 93.0699 0.41
  94.0652 C6H8N+ 1 94.0651 0.49
  95.0492 C6H7O+ 1 95.0491 1.02
  95.073 C6H9N+ 1 95.073 0.24
  95.0856 C7H11+ 1 95.0855 0.37
  96.0809 C6H10N+ 1 96.0808 1.02
  97.0649 C6H9O+ 1 97.0648 1.55
  103.0542 C8H7+ 1 103.0542 -0.17
  105.0699 C8H9+ 1 105.0699 0.36
  106.0652 C7H8N+ 1 106.0651 0.38
  107.073 C7H9N+ 1 107.073 0.74
  108.0808 C7H10N+ 1 108.0808 0.25
  109.0648 C7H9O+ 1 109.0648 0.02
  109.1013 C8H13+ 1 109.1012 0.92
  110.0602 C6H8NO+ 1 110.06 1.1
  110.0965 C7H12N+ 1 110.0964 0.46
  111.0805 C7H11O+ 1 111.0804 0.86
  113.0598 C6H9O2+ 1 113.0597 0.4
  115.0753 C6H11O2+ 1 115.0754 -0.51
  118.065 C8H8N+ 1 118.0651 -0.85
  119.0733 C8H9N+ 1 119.073 3.33
  119.0857 C9H11+ 1 119.0855 1.38
  120.0809 C8H10N+ 1 120.0808 0.71
  121.0887 C8H11N+ 1 121.0886 0.46
  121.1012 C9H13+ 1 121.1012 0.06
  122.0965 C8H12N+ 1 122.0964 0.34
  123.0801 C8H11O+ 1 123.0804 -2.65
  123.1043 C8H13N+ 1 123.1043 0.65
  132.0807 C9H10N+ 1 132.0808 -0.6
  134.0966 C9H12N+ 1 134.0964 1
  136.0757 C8H10NO+ 1 136.0757 -0.29
  137.0961 C9H13O+ 1 137.0961 0.13
  138.0914 C8H12NO+ 1 138.0913 0.15
  140.0709 C7H10NO2+ 1 140.0706 1.94
  140.1071 C8H14NO+ 1 140.107 0.79
  144.0807 C10H10N+ 1 144.0808 -0.19
  146.0965 C10H12N+ 1 146.0964 0.42
  147.0809 C10H11O+ 1 147.0804 2.84
  148.0755 C9H10NO+ 1 148.0757 -1.09
  148.1119 C10H14N+ 1 148.1121 -1.15
  149.0841 C9H11NO+ 1 149.0835 3.93
  155.1068 C9H15O2+ 1 155.1067 0.62
  162.0915 C10H12NO+ 1 162.0913 1.09
  165.091 C10H13O2+ 1 165.091 -0.29
  172.1126 C12H14N+ 1 172.1121 3.17
  174.128 C12H16N+ 1 174.1277 1.83
  183.1015 C10H15O3+ 1 183.1016 -0.59
  192.1012 C11H14NO2+ 1 192.1019 -3.81
  210.1123 C11H16NO3+ 1 210.1125 -0.64
  216.1375 C14H18NO+ 1 216.1383 -3.63
  234.1489 C14H20NO2+ 1 234.1489 0.31
  262.1434 C15H20NO3+ 1 262.1438 -1.37
  264.1594 C15H22NO3+ 1 264.1594 -0.18
  280.1545 C15H22NO4+ 1 280.1543 0.53
  352.1758 C18H26NO6+ 1 352.1755 0.98
PK$NUM_PEAK: 70
PK$PEAK: m/z int. rel.int.
  67.0542 7413.2 80
  68.0494 4011.1 43
  69.0336 3155.2 34
  69.0697 2671.7 28
  70.0651 22940 248
  71.0492 3897.5 42
  77.0386 5914.1 64
  79.0543 18989.2 205
  80.0495 25988.5 281
  81.0571 2034.3 22
  81.07 3596 38
  82.0652 7414.5 80
  85.0648 1749.9 18
  87.0441 1986.9 21
  91.0543 15015.4 162
  93.0699 27770.1 300
  94.0652 32144.9 348
  95.0492 5294.1 57
  95.073 5478.3 59
  95.0856 7844.5 84
  96.0809 5750.4 62
  97.0649 6150.3 66
  103.0542 5736.5 62
  105.0699 15266.4 165
  106.0652 6733.6 72
  107.073 8915.3 96
  108.0808 13341.1 144
  109.0648 3285.7 35
  109.1013 4552.5 49
  110.0602 2078.8 22
  110.0965 5749 62
  111.0805 2558.3 27
  113.0598 19471.2 210
  115.0753 2183.6 23
  118.065 3289.5 35
  119.0733 2776.3 30
  119.0857 3709.3 40
  120.0809 92210.1 999
  121.0887 5917.8 64
  121.1012 2292 24
  122.0965 65841.9 713
  123.0801 1703 18
  123.1043 29275 317
  132.0807 2419.6 26
  134.0966 5195.4 56
  136.0757 2088.8 22
  137.0961 7436.2 80
  138.0914 15419.7 167
  140.0709 1643.8 17
  140.1071 21012.5 227
  144.0807 1545 16
  146.0965 3531.1 38
  147.0809 1152.8 12
  148.0755 2156.2 23
  148.1119 2410 26
  149.0841 961.6 10
  155.1068 47720.8 517
  162.0915 10081.1 109
  165.091 4499.1 48
  172.1126 1936.7 20
  174.128 2602 28
  183.1015 3570.1 38
  192.1012 1388.2 15
  210.1123 2584.1 27
  216.1375 1547.1 16
  234.1489 8395.9 90
  262.1434 3068.7 33
  264.1594 2250 24
  280.1545 4959.3 53
  352.1758 2498.7 27
//
