ACCESSION: MSBNK-NaToxAq-NA000160
RECORD_TITLE: Piperine; LC-ESI-ITFT; MS2; CE: 55%; R=15000; [M+H]+
DATE: 2018.08.29
AUTHORS: Tobias Schulze, Hubert Schupke, Martin Krauss, Department of Effect-Directed Analysis, Helmholtz Centre for Environmental Research GmbH - UFZ, Leipzig, Germany
LICENSE: CC BY
COPYRIGHT: Copyright (C) 2018
COMMENT: CONFIDENCE Reference Standard (Level 1)
COMMENT: NaToxAq - Natural Toxins and Drinking Water Quality - From Source to Tap (https://natoxaq.ku.dk)
CH$NAME: Piperine
CH$NAME: (2E,4E)-5-(1,3-benzodioxol-5-yl)-1-piperidin-1-ylpenta-2,4-dien-1-one
CH$COMPOUND_CLASS: N/A; Environmental Standard
CH$FORMULA: C17H19NO3
CH$EXACT_MASS: 285.1365
CH$SMILES: O=C(\C=C\C=C\C1=CC2=C(OCO2)C=C1)N1CCCCC1
CH$IUPAC: InChI=1S/C17H19NO3/c19-17(18-10-4-1-5-11-18)7-3-2-6-14-8-9-15-16(12-14)21-13-20-15/h2-3,6-9,12H,1,4-5,10-11,13H2/b6-2+,7-3+
CH$LINK: CAS 94-62-2
CH$LINK: CHEBI CHEBI:28821
CH$LINK: KEGG C03882
CH$LINK: PUBCHEM CID:638024
CH$LINK: INCHIKEY MXXWOMGUGJBKIW-YPCIICBESA-N
CH$LINK: CHEMSPIDER 553590
CH$LINK: COMPTOX DTXSID3021805
AC$INSTRUMENT: LTQ Orbitrap XL Thermo Scientific
AC$INSTRUMENT_TYPE: LC-ESI-ITFT
AC$MASS_SPECTROMETRY: MS_TYPE MS2
AC$MASS_SPECTROMETRY: ION_MODE POSITIVE
AC$MASS_SPECTROMETRY: IONIZATION ESI
AC$MASS_SPECTROMETRY: FRAGMENTATION_MODE CID
AC$MASS_SPECTROMETRY: COLLISION_ENERGY 55 % (nominal)
AC$MASS_SPECTROMETRY: RESOLUTION 15000
AC$CHROMATOGRAPHY: COLUMN_NAME Kinetex Evo C18 2.6 um 50x2.1 mm, Phenomenex
AC$CHROMATOGRAPHY: FLOW_GRADIENT 95/5 at 0 min, 95/5 at 1 min, 0/100 at 13 min, 0/100 at 24 min, 95/5 at 24.3 min, 95/5 at 32 min
AC$CHROMATOGRAPHY: FLOW_RATE 300 uL/min
AC$CHROMATOGRAPHY: RETENTION_TIME 11.786 min
AC$CHROMATOGRAPHY: SOLVENT A water with 0.1% formic acid
AC$CHROMATOGRAPHY: SOLVENT B methanol with 0.1% formic acid
MS$FOCUSED_ION: BASE_PEAK 286.1441
MS$FOCUSED_ION: PRECURSOR_M/Z 286.1438
MS$FOCUSED_ION: PRECURSOR_TYPE [M+H]+
MS$DATA_PROCESSING: RECALIBRATE loess on assigned fragments and MS1
MS$DATA_PROCESSING: REANALYZE Peaks with additional N2/O included
MS$DATA_PROCESSING: WHOLE RMassBank 2.9.1
PK$SPLASH: splash10-0udi-0190000000-ac07f7582bd1fc0b26e7
PK$ANNOTATION: m/z tentative_formula formula_count mass error(ppm)
  84.0807 C5H10N+ 1 84.0808 -1.08
  86.0963 C5H12N+ 1 86.0964 -1.29
  112.0756 C6H10NO+ 1 112.0757 -0.7
  115.0543 C9H7+ 1 115.0542 0.77
  135.0439 C8H7O2+ 1 135.0441 -0.91
  143.049 C10H7O+ 1 143.0491 -1.19
  150.0912 C9H12NO+ 1 150.0913 -0.92
  151.099 C9H13NO+ 1 151.0992 -1.34
  159.0438 C10H7O2+ 1 159.0441 -1.55
  171.0439 C11H7O2+ 1 171.0441 -1.01
  173.0595 C11H9O2+ 1 173.0597 -1.43
  185.0954 C13H13O+ 1 185.0961 -3.64
  201.0541 C12H9O3+ 1 201.0546 -2.43
  203.0698 C12H11O3+ 1 203.0703 -2.48
  215.1061 C14H15O2+ 1 215.1067 -2.41
PK$NUM_PEAK: 15
PK$PEAK: m/z int. rel.int.
  84.0807 9315.1 1
  86.0963 8644.8 1
  112.0756 37574 6
  115.0543 18102.4 3
  135.0439 318087.4 54
  143.049 45606.6 7
  150.0912 35195.8 6
  151.099 18344.8 3
  159.0438 12314.5 2
  171.0439 58005.2 9
  173.0595 134550.4 23
  185.0954 7794.4 1
  201.0541 5837683.5 999
  203.0698 17470.4 2
  215.1061 34187 5
//
