ACCESSION: MSBNK-NaToxAq-NA001600
RECORD_TITLE: Coniferaldehyde; LC-ESI-ITFT; MS2; CE: 60%; R=15000; [M+H]+
DATE: 2019.07.31
AUTHORS: Tobias Schulze, Vaidotas Kisielius, Xiaomeng Liang, Mulatu Yohannes Nanusha, Martin Krauss, Helmholtz Centre for Environmental Research GmbH - UFZ, Leipzig, Germany and University of Copenhagen (UCPH), Denmark
LICENSE: CC BY
COPYRIGHT: Copyright (C) 2019
COMMENT: CONFIDENCE Reference Standard (Level 1)
COMMENT: INTERNAL_ID 13
CH$NAME: Coniferaldehyde
CH$COMPOUND_CLASS: N/A; Environmental Standard
CH$FORMULA: C10H10O3
CH$EXACT_MASS: 178.0630
CH$SMILES: COC1=CC(\C=C\C=O)=CC=C1O
CH$IUPAC: InChI=1S/C10H10O3/c1-13-10-7-8(3-2-6-11)4-5-9(10)12/h2-7,12H,1H3/b3-2+
CH$LINK: INCHIKEY DKZBBWMURDFHNE-NSCUHMNNSA-N
CH$LINK: PUBCHEM CID:5280536
CH$LINK: COMPTOX DTXSID10174685
AC$INSTRUMENT: LTQ Orbitrap XL Thermo Scientific
AC$INSTRUMENT_TYPE: LC-ESI-ITFT
AC$MASS_SPECTROMETRY: MS_TYPE MS2
AC$MASS_SPECTROMETRY: ION_MODE POSITIVE
AC$MASS_SPECTROMETRY: IONIZATION ESI
AC$MASS_SPECTROMETRY: FRAGMENTATION_MODE CID
AC$MASS_SPECTROMETRY: COLLISION_ENERGY 60 % (nominal)
AC$MASS_SPECTROMETRY: RESOLUTION 15000
AC$CHROMATOGRAPHY: COLUMN_NAME Kinetex Evo C18 2.6 um 50x2.1 mm, Phenomenex
AC$CHROMATOGRAPHY: FLOW_GRADIENT 95/5 at 0 min, 95/5 at 1 min, 0/100 at 13 min, 0/100 at 24 min, 95/5 at 24.3 min, 95/5/0 at 32 min
AC$CHROMATOGRAPHY: FLOW_RATE 300 uL/min
AC$CHROMATOGRAPHY: RETENTION_TIME 7.411 min
AC$CHROMATOGRAPHY: SOLVENT A water with 0.1% formic acid
AC$CHROMATOGRAPHY: SOLVENT B methanol with 0.1% formic acid
MS$FOCUSED_ION: BASE_PEAK 179.0702
MS$FOCUSED_ION: PRECURSOR_M/Z 179.0703
MS$FOCUSED_ION: PRECURSOR_TYPE [M+H]+
MS$DATA_PROCESSING: RECALIBRATE loess on assigned fragments and MS1
MS$DATA_PROCESSING: REANALYZE Peaks with additional N2/O included
MS$DATA_PROCESSING: WHOLE RMassBank 2.12.0
PK$SPLASH: splash10-01ot-0900000000-1f8025e02072951e8070
PK$ANNOTATION: m/z tentative_formula formula_count mass error(ppm)
  55.0179 C3H3O+ 1 55.0178 0.24
  91.0543 C7H7+ 1 91.0542 0.99
  95.0493 C6H7O+ 1 95.0491 1.53
  103.0543 C8H7+ 1 103.0542 0.55
  105.07 C8H9+ 1 105.0699 1.5
  109.0287 C6H5O2+ 1 109.0284 2.39
  115.0543 C9H7+ 1 115.0542 0.95
  119.0493 C8H7O+ 1 119.0491 1.56
  123.0442 C7H7O2+ 1 123.0441 1.45
  123.0807 C8H11O+ 1 123.0804 2
  131.0492 C9H7O+ 1 131.0491 0.76
  133.065 C9H9O+ 1 133.0648 1.67
  135.0443 C8H7O2+ 1 135.0441 1.82
  137.06 C8H9O2+ 1 137.0597 2.02
  143.0497 C10H7O+ 1 143.0491 3.83
  146.0359 C9H6O2+ 1 146.0362 -2.23
  147.0442 C9H7O2+ 1 147.0441 1.32
  149.0598 C9H9O2+ 1 149.0597 0.58
  151.0756 C9H11O2+ 1 151.0754 1.76
  161.0599 C10H9O2+ 1 161.0597 1.3
  164.0469 C9H8O3+ 1 164.0468 0.39
PK$NUM_PEAK: 21
PK$PEAK: m/z int. rel.int.
  55.0179 12556.3 10
  91.0543 3497.5 2
  95.0493 13023.8 11
  103.0543 1562.5 1
  105.07 38244.6 32
  109.0287 3062.6 2
  115.0543 10995.3 9
  119.0493 47523 40
  123.0442 37839.7 32
  123.0807 3674.1 3
  131.0492 1856.6 1
  133.065 156986.7 133
  135.0443 11541.9 9
  137.06 9827.3 8
  143.0497 2414.9 2
  146.0359 1519.2 1
  147.0442 1177377.6 999
  149.0598 3843.7 3
  151.0756 20438.9 17
  161.0599 1148046.6 974
  164.0469 2263.2 1
//
