ACCESSION: MSBNK-NaToxAq-NA000356
RECORD_TITLE: Angustifoline; LC-ESI-ITFT; MS2; CE: 70%; R=15000; [M+H]+
DATE: 2019.02.28
AUTHORS: Tobias Schulze, Jawameer Hama, Hubert Schupke, Martin Krauss, Helmholtz Centre for Environmental Research GmbH - UFZ, Leipzig, Germany and University of Copenhagen (UCPH), Denmark
LICENSE: CC BY
COPYRIGHT: Copyright (C) 2019
COMMENT: CONFIDENCE Reference Standard (Level 1)
COMMENT: INTERNAL_ID 40
CH$NAME: Angustifoline
CH$NAME: (2R,10S)-10-prop-2-enyl-7,11-diazatricyclo[7.3.1.0^{2,7}]tridecan-6-one
CH$COMPOUND_CLASS: N/A; Environmental Standard
CH$FORMULA: C14H22N2O
CH$EXACT_MASS: 234.1732
CH$SMILES: C=CC[C@@H]1NCC2CC1CN1[C@@H]2CCCC1=O
CH$IUPAC: InChI=1S/C14H22N2O/c1-2-4-12-11-7-10(8-15-12)13-5-3-6-14(17)16(13)9-11/h2,10-13,15H,1,3-9H2/t10?,11?,12-,13+/m0/s1
CH$LINK: CAS 550-43-6
CH$LINK: CHEBI CHEBI:2724
CH$LINK: KEGG C10751
CH$LINK: PUBCHEM CID:102004777
CH$LINK: INCHIKEY VTIPIBIDDZPDAV-IFWUJCSASA-N
CH$LINK: CHEMSPIDER 24536360
AC$INSTRUMENT: LTQ Orbitrap XL Thermo Scientific
AC$INSTRUMENT_TYPE: LC-ESI-ITFT
AC$MASS_SPECTROMETRY: MS_TYPE MS2
AC$MASS_SPECTROMETRY: ION_MODE POSITIVE
AC$MASS_SPECTROMETRY: IONIZATION ESI
AC$MASS_SPECTROMETRY: FRAGMENTATION_MODE CID
AC$MASS_SPECTROMETRY: COLLISION_ENERGY 70 % (nominal)
AC$MASS_SPECTROMETRY: RESOLUTION 15000
AC$CHROMATOGRAPHY: COLUMN_NAME Synergi Polar RP, 2.5 um 100x3.0 mm, Phenomenex
AC$CHROMATOGRAPHY: FLOW_GRADIENT 95/5/0 at 0 min, 95/5/0 at 2 min, 5/95/0 at 8 min, 5/80/15 at 12 min, 5/25/70 at 19 min, 3/2/95 at 19.5 min, 3/2/95 at 22 min, 95/5/0 at 23 min, 95/5/0 at 28 min
AC$CHROMATOGRAPHY: FLOW_RATE 400 uL/min
AC$CHROMATOGRAPHY: RETENTION_TIME 7.612 min
AC$CHROMATOGRAPHY: SOLVENT A water with 0.1% formic acid
AC$CHROMATOGRAPHY: SOLVENT B methanol with 0.1% formic acid
MS$FOCUSED_ION: BASE_PEAK 130.065
MS$FOCUSED_ION: PRECURSOR_M/Z 235.1805
MS$FOCUSED_ION: PRECURSOR_TYPE [M+H]+
MS$DATA_PROCESSING: RECALIBRATE loess on assigned fragments and MS1
MS$DATA_PROCESSING: REANALYZE Peaks with additional N2/O included
MS$DATA_PROCESSING: WHOLE RMassBank 2.11.0
PK$SPLASH: splash10-0006-0910000000-f27463b5ac0fd03bfd2e
PK$ANNOTATION: m/z tentative_formula formula_count mass error(ppm)
  98.0966 C6H12N+ 1 98.0964 1.46
  193.1336 C11H17N2O+ 1 193.1335 0.2
  217.1698 C14H21N2+ 1 217.1699 -0.65
PK$NUM_PEAK: 3
PK$PEAK: m/z int. rel.int.
  98.0966 2579.9 46
  193.1336 54974.4 999
  217.1698 10509.6 190
//
