ACCESSION: MSBNK-NaToxAq-NA000432
RECORD_TITLE: Jacobine; LC-ESI-ITFT; MS2; CE: 15%; R=15000; [M+H]+
DATE: 2019.02.28
AUTHORS: Tobias Schulze, Jawameer Hama, Hubert Schupke, Martin Krauss, Helmholtz Centre for Environmental Research GmbH - UFZ, Leipzig, Germany and University of Copenhagen (UCPH), Denmark
LICENSE: CC BY
COPYRIGHT: Copyright (C) 2019
COMMENT: CONFIDENCE Reference Standard (Level 1)
COMMENT: INTERNAL_ID 105
CH$NAME: Jacobine
CH$NAME: (1R,3`S,4S,6R,7R,17R)-7-hydroxy-3`,6,7-trimethylspiro[2,9-dioxa-14-azatricyclo[9.5.1.0^{14,17}]heptadec-11-ene-4,2`-oxirane]-3,8-dione
CH$COMPOUND_CLASS: N/A; Environmental Standard
CH$FORMULA: C18H25NO6
CH$EXACT_MASS: 351.1682
CH$SMILES: C[C@@H]1O[C@@]11C[C@@H](C)[C@@](C)(O)C(=O)OCC2=CCN3CC[C@@H](OC1=O)[C@@H]23
CH$IUPAC: InChI=1S/C18H25NO6/c1-10-8-18(11(2)25-18)16(21)24-13-5-7-19-6-4-12(14(13)19)9-23-15(20)17(10,3)22/h4,10-11,13-14,22H,5-9H2,1-3H3/t10-,11+,13-,14-,17-,18+/m1/s1
CH$LINK: CAS 471-14-7
CH$LINK: CHEBI CHEBI:6080
CH$LINK: KEGG C10339
CH$LINK: PUBCHEM CID:442741
CH$LINK: INCHIKEY IAPHXJRHXBQDQJ-WKMWQDDRSA-N
CH$LINK: CHEMSPIDER 391085
AC$INSTRUMENT: LTQ Orbitrap XL Thermo Scientific
AC$INSTRUMENT_TYPE: LC-ESI-ITFT
AC$MASS_SPECTROMETRY: MS_TYPE MS2
AC$MASS_SPECTROMETRY: ION_MODE POSITIVE
AC$MASS_SPECTROMETRY: IONIZATION ESI
AC$MASS_SPECTROMETRY: FRAGMENTATION_MODE CID
AC$MASS_SPECTROMETRY: COLLISION_ENERGY 15 % (nominal)
AC$MASS_SPECTROMETRY: RESOLUTION 15000
AC$CHROMATOGRAPHY: COLUMN_NAME Kinetex Evo C18 2.6 um 50x2.1 mm, Phenomenex
AC$CHROMATOGRAPHY: FLOW_GRADIENT 95/5 at 0 min, 95/5 at 1 min, 0/100 at 13 min, 0/100 at 24 min, 95/5 at 24.3 min, 95/5 at 32 min
AC$CHROMATOGRAPHY: FLOW_RATE 300 uL/min
AC$CHROMATOGRAPHY: RETENTION_TIME 1.463 min
AC$CHROMATOGRAPHY: SOLVENT A water with 0.1% formic acid
AC$CHROMATOGRAPHY: SOLVENT B methanol with 0.1% formic acid
MS$FOCUSED_ION: BASE_PEAK 107.0702
MS$FOCUSED_ION: PRECURSOR_M/Z 352.1755
MS$FOCUSED_ION: PRECURSOR_TYPE [M+H]+
MS$DATA_PROCESSING: RECALIBRATE loess on assigned fragments and MS1
MS$DATA_PROCESSING: REANALYZE Peaks with additional N2/O included
MS$DATA_PROCESSING: WHOLE RMassBank 2.11.0
PK$SPLASH: splash10-0udi-0009000000-3b302a849dbda49f3a70
PK$ANNOTATION: m/z tentative_formula formula_count mass error(ppm)
  120.0809 C8H10N+ 1 120.0808 1.24
  155.1069 C9H15O2+ 1 155.1067 1.26
  262.1439 C15H20NO3+ 1 262.1438 0.31
  280.1544 C15H22NO4+ 1 280.1543 0.16
  308.1494 C16H22NO5+ 1 308.1492 0.61
  352.1755 C18H26NO6+ 1 352.1755 0.23
PK$NUM_PEAK: 6
PK$PEAK: m/z int. rel.int.
  120.0809 2906.1 2
  155.1069 2568.4 1
  262.1439 9772.6 6
  280.1544 24888.5 17
  308.1494 34535.2 24
  352.1755 1413074.9 999
//
