ACCESSION: MSBNK-NaToxAq-NA000929
RECORD_TITLE: 4-Phenyl-3-buten-2-one; LC-ESI-ITFT; MS2; CE: 25%; R=15000; [M+H]+
DATE: 2019.07.31
AUTHORS: Tobias Schulze, Vaidotas Kisielius, Xiaomeng Liang, Mulatu Yohannes Nanusha, Martin Krauss, Helmholtz Centre for Environmental Research GmbH - UFZ, Leipzig, Germany and University of Copenhagen (UCPH), Denmark
LICENSE: CC BY
COPYRIGHT: Copyright (C) 2019
COMMENT: CONFIDENCE Reference Standard (Level 1)
COMMENT: INTERNAL_ID 6
CH$NAME: 4-Phenyl-3-buten-2-one
CH$COMPOUND_CLASS: N/A; Environmental Standard
CH$FORMULA: C10H10O
CH$EXACT_MASS: 146.0732
CH$SMILES: CC(=O)\C=C\C1=CC=CC=C1
CH$IUPAC: InChI=1S/C10H10O/c1-9(11)7-8-10-5-3-2-4-6-10/h2-8H,1H3/b8-7+
CH$LINK: INCHIKEY BWHOZHOGCMHOBV-BQYQJAHWSA-N
CH$LINK: PUBCHEM CID:637759
CH$LINK: COMPTOX DTXSID1031626
AC$INSTRUMENT: LTQ Orbitrap XL Thermo Scientific
AC$INSTRUMENT_TYPE: LC-ESI-ITFT
AC$MASS_SPECTROMETRY: MS_TYPE MS2
AC$MASS_SPECTROMETRY: ION_MODE POSITIVE
AC$MASS_SPECTROMETRY: IONIZATION ESI
AC$MASS_SPECTROMETRY: FRAGMENTATION_MODE HCD
AC$MASS_SPECTROMETRY: COLLISION_ENERGY 25 % (nominal)
AC$MASS_SPECTROMETRY: RESOLUTION 15000
AC$CHROMATOGRAPHY: COLUMN_NAME Kinetex Evo C18 2.6 um 50x2.1 mm, Phenomenex
AC$CHROMATOGRAPHY: FLOW_GRADIENT 95/5 at 0 min, 95/5 at 1 min, 0/100 at 13 min, 0/100 at 24 min, 95/5 at 24.3 min, 95/5/0 at 32 min
AC$CHROMATOGRAPHY: FLOW_RATE 300 uL/min
AC$CHROMATOGRAPHY: RETENTION_TIME 9.426 min
AC$CHROMATOGRAPHY: SOLVENT A water with 0.1% formic acid
AC$CHROMATOGRAPHY: SOLVENT B methanol with 0.1% formic acid
MS$FOCUSED_ION: BASE_PEAK 147.0803
MS$FOCUSED_ION: PRECURSOR_M/Z 147.0804
MS$FOCUSED_ION: PRECURSOR_TYPE [M+H]+
MS$DATA_PROCESSING: RECALIBRATE loess on assigned fragments and MS1
MS$DATA_PROCESSING: REANALYZE Peaks with additional N2/O included
MS$DATA_PROCESSING: WHOLE RMassBank 2.12.0
PK$SPLASH: splash10-0002-0900000000-60e91cd01343f5775b3d
PK$ANNOTATION: m/z tentative_formula formula_count mass error(ppm)
  129.0698 C10H9+ 1 129.0699 -0.74
  147.0804 C10H11O+ 1 147.0804 -0.51
PK$NUM_PEAK: 2
PK$PEAK: m/z int. rel.int.
  129.0698 24880.7 139
  147.0804 178783.1 999
//
