ACCESSION: MSBNK-NaToxAq-NA001641
RECORD_TITLE: Coniine; LC-ESI-ITFT; MS2; CE: 85%; R=15000; [M+H]+
DATE: 2019.07.31
AUTHORS: Tobias Schulze, Vaidotas Kisielius, Xiaomeng Liang, Mulatu Yohannes Nanusha, Martin Krauss, Helmholtz Centre for Environmental Research GmbH - UFZ, Leipzig, Germany and University of Copenhagen (UCPH), Denmark
LICENSE: CC BY
COPYRIGHT: Copyright (C) 2019
COMMENT: CONFIDENCE Reference Standard (Level 1)
COMMENT: INTERNAL_ID 25
CH$NAME: Coniine
CH$COMPOUND_CLASS: N/A; Environmental Standard
CH$FORMULA: C8H17N
CH$EXACT_MASS: 127.1361
CH$SMILES: CCC[C@H]1CCCCN1
CH$IUPAC: InChI=1S/C8H17N/c1-2-5-8-6-3-4-7-9-8/h8-9H,2-7H2,1H3/t8-/m0/s1
CH$LINK: INCHIKEY NDNUANOUGZGEPO-QMMMGPOBSA-N
CH$LINK: PUBCHEM CID:441072
CH$LINK: COMPTOX DTXSID8041795
AC$INSTRUMENT: LTQ Orbitrap XL Thermo Scientific
AC$INSTRUMENT_TYPE: LC-ESI-ITFT
AC$MASS_SPECTROMETRY: MS_TYPE MS2
AC$MASS_SPECTROMETRY: ION_MODE POSITIVE
AC$MASS_SPECTROMETRY: IONIZATION ESI
AC$MASS_SPECTROMETRY: FRAGMENTATION_MODE HCD
AC$MASS_SPECTROMETRY: COLLISION_ENERGY 85 % (nominal)
AC$MASS_SPECTROMETRY: RESOLUTION 15000
AC$CHROMATOGRAPHY: COLUMN_NAME Kinetex Evo C18 2.6 um 50x2.1 mm, Phenomenex
AC$CHROMATOGRAPHY: FLOW_GRADIENT 95/5 at 0 min, 95/5 at 1 min, 0/100 at 13 min, 0/100 at 24 min, 95/5 at 24.3 min, 95/5/0 at 32 min
AC$CHROMATOGRAPHY: FLOW_RATE 300 uL/min
AC$CHROMATOGRAPHY: RETENTION_TIME 0.660 min
AC$CHROMATOGRAPHY: SOLVENT A water with 0.1% formic acid
AC$CHROMATOGRAPHY: SOLVENT B methanol with 0.1% formic acid
MS$FOCUSED_ION: BASE_PEAK 288.159
MS$FOCUSED_ION: PRECURSOR_M/Z 128.1434
MS$FOCUSED_ION: PRECURSOR_TYPE [M+H]+
MS$DATA_PROCESSING: RECALIBRATE loess on assigned fragments and MS1
MS$DATA_PROCESSING: REANALYZE Peaks with additional N2/O included
MS$DATA_PROCESSING: WHOLE RMassBank 2.12.0
PK$SPLASH: splash10-00or-7900000000-11ddde43d70f6baed8eb
PK$ANNOTATION: m/z tentative_formula formula_count mass error(ppm)
  55.0541 C4H7+ 1 55.0542 -2.2
  67.0541 C5H7+ 1 67.0542 -1.65
  69.0698 C5H9+ 1 69.0699 -1.06
  83.0855 C6H11+ 1 83.0855 -0.43
  111.1167 C8H15+ 1 111.1168 -0.84
  128.1433 C8H18N+ 1 128.1434 -0.91
PK$NUM_PEAK: 6
PK$PEAK: m/z int. rel.int.
  55.0541 64531.9 42
  67.0541 44640.4 29
  69.0698 1068327.9 707
  83.0855 79562.2 52
  111.1167 18847.5 12
  128.1433 1507545.4 999
//
