ACCESSION: MSBNK-NaToxAq-NA000237
RECORD_TITLE: Angustifoline; LC-ESI-ITFT; MS2; CE: 30%; R=15000; [M+H]+
DATE: 2019.02.28
AUTHORS: Tobias Schulze, Jawameer Hama, Hubert Schupke, Martin Krauss, Helmholtz Centre for Environmental Research GmbH - UFZ, Leipzig, Germany and University of Copenhagen (UCPH), Denmark
LICENSE: CC BY
COPYRIGHT: Copyright (C) 2019
COMMENT: CONFIDENCE Reference Standard (Level 1)
COMMENT: INTERNAL_ID 10
CH$NAME: Angustifoline
CH$NAME: (2R,10S)-10-prop-2-enyl-7,11-diazatricyclo[7.3.1.0^{2,7}]tridecan-6-one
CH$COMPOUND_CLASS: N/A; Environmental Standard
CH$FORMULA: C14H22N2O
CH$EXACT_MASS: 234.1732
CH$SMILES: C=CC[C@@H]1NCC2CC1CN1[C@@H]2CCCC1=O
CH$IUPAC: InChI=1S/C14H22N2O/c1-2-4-12-11-7-10(8-15-12)13-5-3-6-14(17)16(13)9-11/h2,10-13,15H,1,3-9H2/t10?,11?,12-,13+/m0/s1
CH$LINK: CAS 550-43-6
CH$LINK: CHEBI CHEBI:2724
CH$LINK: KEGG C10751
CH$LINK: PUBCHEM CID:102004777
CH$LINK: INCHIKEY VTIPIBIDDZPDAV-IFWUJCSASA-N
CH$LINK: CHEMSPIDER 24536360
AC$INSTRUMENT: LTQ Orbitrap XL Thermo Scientific
AC$INSTRUMENT_TYPE: LC-ESI-ITFT
AC$MASS_SPECTROMETRY: MS_TYPE MS2
AC$MASS_SPECTROMETRY: ION_MODE POSITIVE
AC$MASS_SPECTROMETRY: IONIZATION ESI
AC$MASS_SPECTROMETRY: FRAGMENTATION_MODE CID
AC$MASS_SPECTROMETRY: COLLISION_ENERGY 30 % (nominal)
AC$MASS_SPECTROMETRY: RESOLUTION 15000
AC$CHROMATOGRAPHY: COLUMN_NAME Synergi Polar RP, 2.5 um 100x3.0 mm, Phenomenex
AC$CHROMATOGRAPHY: FLOW_GRADIENT 95/5/0 at 0 min, 95/5/0 at 2 min, 5/95/0 at 8 min, 5/80/15 at 12 min, 5/25/70 at 19 min, 3/2/95 at 19.5 min, 3/2/95 at 22 min, 95/5/0 at 23 min, 95/5/0 at 28 min
AC$CHROMATOGRAPHY: FLOW_RATE 400 uL/min
AC$CHROMATOGRAPHY: RETENTION_TIME 7.399 min
AC$CHROMATOGRAPHY: SOLVENT A water with 0.1% formic acid
AC$CHROMATOGRAPHY: SOLVENT B methanol with 0.1% formic acid
MS$FOCUSED_ION: BASE_PEAK 195.0845
MS$FOCUSED_ION: PRECURSOR_M/Z 235.1805
MS$FOCUSED_ION: PRECURSOR_TYPE [M+H]+
MS$DATA_PROCESSING: RECALIBRATE loess on assigned fragments and MS1
MS$DATA_PROCESSING: REANALYZE Peaks with additional N2/O included
MS$DATA_PROCESSING: WHOLE RMassBank 2.11.0
PK$SPLASH: splash10-000i-0490000000-0e73136fb5378b033a91
PK$ANNOTATION: m/z tentative_formula formula_count mass error(ppm)
  94.065 C6H8N+ 1 94.0651 -1.03
  98.0963 C6H12N+ 1 98.0964 -1.12
  112.0756 C6H10NO+ 1 112.0757 -0.54
  112.112 C7H14N+ 1 112.1121 -0.89
  119.0855 C9H11+ 1 119.0855 -0.17
  136.1119 C9H14N+ 1 136.1121 -0.94
  138.1276 C9H16N+ 1 138.1277 -0.95
  150.0912 C9H12NO+ 1 150.0913 -0.89
  152.1068 C9H14NO+ 1 152.107 -0.94
  166.1226 C10H16NO+ 1 166.1226 -0.03
  188.1434 C13H18N+ 1 188.1434 0.25
  192.1382 C12H18NO+ 1 192.1383 -0.72
  193.1334 C11H17N2O+ 1 193.1335 -0.93
  206.1537 C13H20NO+ 1 206.1539 -1.34
  217.1697 C14H21N2+ 1 217.1699 -0.84
  218.1537 C14H20NO+ 1 218.1539 -1.22
  235.1803 C14H23N2O+ 1 235.1805 -1.01
PK$NUM_PEAK: 17
PK$PEAK: m/z int. rel.int.
  94.065 13148.3 6
  98.0963 6296.6 3
  112.0756 58480.6 29
  112.112 6491.7 3
  119.0855 7443.5 3
  136.1119 124143.4 62
  138.1276 30645.9 15
  150.0912 74725.3 37
  152.1068 6405.4 3
  166.1226 10723.7 5
  188.1434 6665.9 3
  192.1382 24267.7 12
  193.1334 887277 449
  206.1537 21375.2 10
  217.1697 310635.8 157
  218.1537 8334.1 4
  235.1803 1969778.4 999
//
