ACCESSION: MSBNK-NaToxAq-NA003196
RECORD_TITLE: Atropine; LC-ESI-ITFT; MS2; CE: 70%; R=15000; [M+H]+
DATE: 2020.02.22
AUTHORS: Tobias Schulze, Martin Krauss, Helmholtz Centre for Environmental Research GmbH - UFZ, Leipzig, Germany
LICENSE: CC0
COPYRIGHT: Copyright (C) 2020 by Helmholtz Centre for Environmental Research GmbH - UFZ, Leipzig, Germany
COMMENT: CONFIDENCE Reference Standard (Level 1)
COMMENT: INTERNAL_ID 2292
CH$NAME: Atropine
CH$COMPOUND_CLASS: N/A; Environmental Standard
CH$FORMULA: C17H23NO3
CH$EXACT_MASS: 289.1678
CH$SMILES: CN1[C@@H]2CC[C@H]1C[C@H](C2)OC(=O)C(CO)c3ccccc3
CH$IUPAC: InChI=1S/C17H23NO3/c1-18-13-7-8-14(18)10-15(9-13)21-17(20)16(11-19)12-5-3-2-4-6-12/h2-6,13-16,19H,7-11H2,1H3/t13-,14+,15+,16?
CH$LINK: CAS 51-55-8
CH$LINK: CHEBI CHEBI:16684
CH$LINK: KEGG C01479
CH$LINK: INCHIKEY RKUNBYITZUJHSG-SPUOUPEWSA-N
CH$LINK: CHEMSPIDER 10194105
CH$LINK: COMPTOX DTXSID4020113
AC$INSTRUMENT: LTQ Orbitrap XL Thermo Scientific
AC$INSTRUMENT_TYPE: LC-ESI-ITFT
AC$MASS_SPECTROMETRY: MS_TYPE MS2
AC$MASS_SPECTROMETRY: ION_MODE POSITIVE
AC$MASS_SPECTROMETRY: IONIZATION ESI
AC$MASS_SPECTROMETRY: FRAGMENTATION_MODE HCD
AC$MASS_SPECTROMETRY: COLLISION_ENERGY 70% (nominal)
AC$MASS_SPECTROMETRY: RESOLUTION 15000
AC$CHROMATOGRAPHY: COLUMN_NAME Kinetex Evo C18 2.6 um 50x2.1 mm, Phenomenex
AC$CHROMATOGRAPHY: FLOW_GRADIENT 95/5 at 0 min, 95/5 at 1 min, 0/100 at 13 min, 0/100 at 24 min, 95/5 at 24.3 min, 95/5/0 at 32 min
AC$CHROMATOGRAPHY: FLOW_RATE 300 uL/min
AC$CHROMATOGRAPHY: RETENTION_TIME 2.857 min
AC$CHROMATOGRAPHY: SOLVENT A water with 0.1% formic acid
AC$CHROMATOGRAPHY: SOLVENT B methanol with 0.1% formic acid
MS$FOCUSED_ION: BASE_PEAK 143.0015
MS$FOCUSED_ION: PRECURSOR_M/Z 290.1751
MS$FOCUSED_ION: PRECURSOR_TYPE [M+H]+
MS$DATA_PROCESSING: RECALIBRATE loess on assigned fragments and MS1
MS$DATA_PROCESSING: REANALYZE Peaks with additional N2/O included
MS$DATA_PROCESSING: WHOLE RMassBank 2.14.1
PK$SPLASH: splash10-00dl-8900000000-7b907db762f96a810f21
PK$ANNOTATION: m/z tentative_formula formula_count mass error(ppm)
  67.0542 C5H7+ 1 67.0542 -0.17
  68.0495 C4H6N+ 1 68.0495 0.22
  70.0651 C4H8N+ 1 70.0651 0.01
  77.0386 C6H5+ 1 77.0386 0.47
  79.0543 C6H7+ 1 79.0542 0.7
  82.0652 C5H8N+ 1 82.0651 0.51
  83.073 C5H9N+ 1 83.073 0
  91.0543 C7H7+ 1 91.0542 0.54
  93.0699 C7H9+ 1 93.0699 0.41
  95.073 C6H9N+ 1 95.073 0.8
  95.0855 C7H11+ 1 95.0855 0.21
  96.0808 C6H10N+ 1 96.0808 -0.09
  98.0965 C6H12N+ 1 98.0964 1.01
  103.0543 C8H7+ 1 103.0542 0.57
  121.0649 C8H9O+ 1 121.0648 0.76
  122.0963 C8H12N+ 1 122.0964 -1.1
  124.1121 C8H14N+ 1 124.1121 0.59
  125.12 C8H15N+ 1 125.1199 0.41
  140.1072 C8H14NO+ 1 140.107 1.22
  142.1227 C8H16NO+ 1 142.1226 0.33
  214.1601 C15H20N+ 1 214.159 4.78
  290.1753 C17H24NO3+ 1 290.1751 0.88
PK$NUM_PEAK: 22
PK$PEAK: m/z int. rel.int.
  67.0542 18443.2 64
  68.0495 3716.4 12
  70.0651 4430.8 15
  77.0386 9522.2 33
  79.0543 5155.7 17
  82.0652 11719.6 40
  83.073 7195.1 25
  91.0543 44897.8 156
  93.0699 193361.7 673
  95.073 3004.6 10
  95.0855 14666.1 51
  96.0808 9631.5 33
  98.0965 4936.4 17
  103.0543 14610.6 50
  121.0649 21586.9 75
  122.0963 1668.4 5
  124.1121 286726 999
  125.12 3412.3 11
  140.1072 4846.5 16
  142.1227 17766 61
  214.1601 1350.1 4
  290.1753 13874.9 48
//
