ACCESSION: MSBNK-NaToxAq-NA002840
RECORD_TITLE: 8-Prenylnaringenin; LC-ESI-ITFT; MS2; CE: 40%; R=15000; [M+H]+
DATE: 2020.02.21
AUTHORS: Tobias Schulze, Martin Krauss, Helmholtz Centre for Environmental Research GmbH - UFZ, Leipzig, Germany
LICENSE: CC0
COPYRIGHT: Copyright (C) 2020 by Helmholtz Centre for Environmental Research GmbH - UFZ, Leipzig, Germany
COMMENT: CONFIDENCE Reference Standard (Level 1)
COMMENT: INTERNAL_ID 2299
CH$NAME: 8-Prenylnaringenin
CH$NAME: (2S)-5,7-dihydroxy-2-(4-hydroxyphenyl)-8-(3-methylbut-2-enyl)-2,3-dihydrochromen-4-one
CH$COMPOUND_CLASS: N/A; Environmental Standard
CH$FORMULA: C20H20O5
CH$EXACT_MASS: 340.1311
CH$SMILES: CC(=CCC1=C(C=C(C2=C1O[C@@H](CC2=O)C3=CC=C(C=C3)O)O)O)C
CH$IUPAC: InChI=1S/C20H20O5/c1-11(2)3-8-14-15(22)9-16(23)19-17(24)10-18(25-20(14)19)12-4-6-13(21)7-5-12/h3-7,9,18,21-23H,8,10H2,1-2H3/t18-/m0/s1
CH$LINK: CAS 53846-50-7
CH$LINK: CHEBI CHEBI:50207
CH$LINK: KEGG C18023
CH$LINK: PUBCHEM CID:480764
CH$LINK: INCHIKEY LPEPZZAVFJPLNZ-SFHVURJKSA-N
CH$LINK: CHEMSPIDER 421848
CH$LINK: COMPTOX DTXSID60333083
AC$INSTRUMENT: LTQ Orbitrap XL Thermo Scientific
AC$INSTRUMENT_TYPE: LC-ESI-ITFT
AC$MASS_SPECTROMETRY: MS_TYPE MS2
AC$MASS_SPECTROMETRY: ION_MODE POSITIVE
AC$MASS_SPECTROMETRY: IONIZATION ESI
AC$MASS_SPECTROMETRY: FRAGMENTATION_MODE HCD
AC$MASS_SPECTROMETRY: COLLISION_ENERGY 40% (nominal)
AC$MASS_SPECTROMETRY: RESOLUTION 15000
AC$CHROMATOGRAPHY: COLUMN_NAME Kinetex Evo C18 2.6 um 50x2.1 mm, Phenomenex
AC$CHROMATOGRAPHY: FLOW_GRADIENT 95/5 at 0 min, 95/5 at 1 min, 0/100 at 13 min, 0/100 at 24 min, 95/5 at 24.3 min, 95/5/0 at 32 min
AC$CHROMATOGRAPHY: FLOW_RATE 300 uL/min
AC$CHROMATOGRAPHY: RETENTION_TIME 11.918 min
AC$CHROMATOGRAPHY: SOLVENT A water with 0.1% formic acid
AC$CHROMATOGRAPHY: SOLVENT B methanol with 0.1% formic acid
MS$FOCUSED_ION: BASE_PEAK 116.9859
MS$FOCUSED_ION: PRECURSOR_M/Z 341.1384
MS$FOCUSED_ION: PRECURSOR_TYPE [M+H]+
MS$DATA_PROCESSING: RECALIBRATE loess on assigned fragments and MS1
MS$DATA_PROCESSING: REANALYZE Peaks with additional N2/O included
MS$DATA_PROCESSING: WHOLE RMassBank 2.14.1
PK$SPLASH: splash10-014i-0910000000-9ab00ba711702a22aa3a
PK$ANNOTATION: m/z tentative_formula formula_count mass error(ppm)
  55.0177 C3H3O+ 1 55.0178 -3.21
  107.0491 C7H7O+ 1 107.0491 0.02
  121.0648 C8H9O+ 1 121.0648 0.06
  123.008 C6H3O3+ 1 123.0077 2.63
  147.0441 C9H7O2+ 1 147.0441 0.23
  165.0183 C8H5O4+ 1 165.0182 0.19
  179.0339 C9H7O4+ 1 179.0339 0.25
  183.0288 C8H7O5+ 1 183.0288 0.08
  191.0339 C10H7O4+ 1 191.0339 -0.08
  197.0443 C9H9O5+ 1 197.0444 -0.56
  221.0809 C12H13O4+ 1 221.0808 0.27
  243.0652 C14H11O4+ 1 243.0652 0.13
  267.065 C16H11O4+ 1 267.0652 -0.61
  285.0759 C16H13O5+ 1 285.0757 0.37
  341.1382 C20H21O5+ 1 341.1384 -0.43
PK$NUM_PEAK: 15
PK$PEAK: m/z int. rel.int.
  55.0177 1520.8 2
  107.0491 8889.1 15
  121.0648 12404.3 21
  123.008 2760.8 4
  147.0441 17727.5 30
  165.0183 586467 999
  179.0339 8646 14
  183.0288 24656 41
  191.0339 14045.8 23
  197.0443 5324 9
  221.0809 16853 28
  243.0652 4359.4 7
  267.065 4155.7 7
  285.0759 106937.1 182
  341.1382 23376 39
//
