ACCESSION: MSBNK-NaToxAq-NA000064
RECORD_TITLE: Isophorone; LC-ESI-ITFT; MS2; CE: 115%; R=15000; [M+H]+
DATE: 2018.08.29
AUTHORS: Tobias Schulze, Hubert Schupke, Martin Krauss, Department of Effect-Directed Analysis, Helmholtz Centre for Environmental Research GmbH - UFZ, Leipzig, Germany
LICENSE: CC BY
COPYRIGHT: Copyright (C) 2018
COMMENT: CONFIDENCE Reference Standard (Level 1)
COMMENT: NaToxAq - Natural Toxins and Drinking Water Quality - From Source to Tap (https://natoxaq.ku.dk)
CH$NAME: Isophorone
CH$NAME: 3,5,5-trimethylcyclohex-2-en-1-one
CH$COMPOUND_CLASS: N/A; Environmental Standard
CH$FORMULA: C9H14O
CH$EXACT_MASS: 138.1045
CH$SMILES: CC1=CC(=O)CC(C)(C)C1
CH$IUPAC: InChI=1S/C9H14O/c1-7-4-8(10)6-9(2,3)5-7/h4H,5-6H2,1-3H3
CH$LINK: CAS 78-59-1
CH$LINK: CHEBI CHEBI:34800
CH$LINK: KEGG C14743
CH$LINK: PUBCHEM CID:6544
CH$LINK: INCHIKEY HJOVHMDZYOCNQW-UHFFFAOYSA-N
CH$LINK: CHEMSPIDER 6296
CH$LINK: COMPTOX DTXSID8020759
AC$INSTRUMENT: LTQ Orbitrap XL Thermo Scientific
AC$INSTRUMENT_TYPE: LC-ESI-ITFT
AC$MASS_SPECTROMETRY: MS_TYPE MS2
AC$MASS_SPECTROMETRY: ION_MODE POSITIVE
AC$MASS_SPECTROMETRY: IONIZATION ESI
AC$MASS_SPECTROMETRY: FRAGMENTATION_MODE CID
AC$MASS_SPECTROMETRY: COLLISION_ENERGY 115 % (nominal)
AC$MASS_SPECTROMETRY: RESOLUTION 15000
AC$CHROMATOGRAPHY: COLUMN_NAME Kinetex Evo C18 2.6 um 50x2.1 mm, Phenomenex
AC$CHROMATOGRAPHY: FLOW_GRADIENT 95/5 at 0 min, 95/5 at 1 min, 0/100 at 13 min, 0/100 at 24 min, 95/5 at 24.3 min, 95/5 at 32 min
AC$CHROMATOGRAPHY: FLOW_RATE 300 uL/min
AC$CHROMATOGRAPHY: RETENTION_TIME 8.610 min
AC$CHROMATOGRAPHY: SOLVENT A water with 0.1% formic acid
AC$CHROMATOGRAPHY: SOLVENT B methanol with 0.1% formic acid
MS$FOCUSED_ION: BASE_PEAK 139.1114
MS$FOCUSED_ION: PRECURSOR_M/Z 139.1117
MS$FOCUSED_ION: PRECURSOR_TYPE [M+H]+
MS$DATA_PROCESSING: RECALIBRATE loess on assigned fragments and MS1
MS$DATA_PROCESSING: REANALYZE Peaks with additional N2/O included
MS$DATA_PROCESSING: WHOLE RMassBank 2.9.1
PK$SPLASH: splash10-00ea-9700000000-3dcbaca75cd5761fbe07
PK$ANNOTATION: m/z tentative_formula formula_count mass error(ppm)
  81.0695 C6H9+ 1 81.0699 -4.05
  83.0488 C5H7O+ 1 83.0491 -4.3
  93.0696 C7H9+ 1 93.0699 -3.28
  95.0852 C7H11+ 1 95.0855 -3.41
  97.0645 C6H9O+ 1 97.0648 -3.27
  97.1009 C7H13+ 1 97.1012 -3.36
  105.0694 C8H9+ 1 105.0699 -4.4
  111.0801 C7H11O+ 1 111.0804 -3.06
  111.1163 C8H15+ 1 111.1168 -4.44
  121.1007 C9H13+ 1 121.1012 -4.29
PK$NUM_PEAK: 10
PK$PEAK: m/z int. rel.int.
  81.0695 27799.6 61
  83.0488 226446.4 501
  93.0696 77800.7 172
  95.0852 154578.5 342
  97.0645 110243.7 244
  97.1009 16443.4 36
  105.0694 7415.8 16
  111.0801 29492.4 65
  111.1163 7356.9 16
  121.1007 450963.8 999
//
