ACCESSION: MSBNK-NaToxAq-NA003319
RECORD_TITLE: Vincamin; LC-ESI-ITFT; MS2; CE: 60%; R=15000; [M+H]+
DATE: 2020.02.22
AUTHORS: Tobias Schulze, Martin Krauss, Helmholtz Centre for Environmental Research GmbH - UFZ, Leipzig, Germany
LICENSE: CC0
COPYRIGHT: Copyright (C) 2020 by Helmholtz Centre for Environmental Research GmbH - UFZ, Leipzig, Germany
COMMENT: CONFIDENCE Reference Standard (Level 1)
COMMENT: INTERNAL_ID 2327
CH$NAME: Vincamin
CH$NAME: Vincamine
CH$NAME: methyl (15S,17S,19S)-15-ethyl-17-hydroxy-1,11-diazapentacyclo[9.6.2.02,7.08,18.015,19]nonadeca-2,4,6,8(18)-tetraene-17-carboxylate
CH$COMPOUND_CLASS: N/A; Environmental Standard
CH$FORMULA: C21H26N2O3
CH$EXACT_MASS: 354.1943
CH$SMILES: CC[C@@]12CCCN3[C@@H]1C4=C(CC3)C5=CC=CC=C5N4[C@](C2)(C(=O)OC)O
CH$IUPAC: InChI=1S/C21H26N2O3/c1-3-20-10-6-11-22-12-9-15-14-7-4-5-8-16(14)23(17(15)18(20)22)21(25,13-20)19(24)26-2/h4-5,7-8,18,25H,3,6,9-13H2,1-2H3/t18-,20+,21+/m1/s1
CH$LINK: CAS 1617-90-9
CH$LINK: CHEBI CHEBI:9985
CH$LINK: KEGG D08677
CH$LINK: PUBCHEM CID:15376
CH$LINK: INCHIKEY RXPRRQLKFXBCSJ-GIVPXCGWSA-N
CH$LINK: CHEMSPIDER 14635
CH$LINK: COMPTOX DTXSID9040134
AC$INSTRUMENT: LTQ Orbitrap XL Thermo Scientific
AC$INSTRUMENT_TYPE: LC-ESI-ITFT
AC$MASS_SPECTROMETRY: MS_TYPE MS2
AC$MASS_SPECTROMETRY: ION_MODE POSITIVE
AC$MASS_SPECTROMETRY: IONIZATION ESI
AC$MASS_SPECTROMETRY: FRAGMENTATION_MODE HCD
AC$MASS_SPECTROMETRY: COLLISION_ENERGY 60% (nominal)
AC$MASS_SPECTROMETRY: RESOLUTION 15000
AC$CHROMATOGRAPHY: COLUMN_NAME Kinetex Evo C18 2.6 um 50x2.1 mm, Phenomenex
AC$CHROMATOGRAPHY: FLOW_GRADIENT 95/5 at 0 min, 95/5 at 1 min, 0/100 at 13 min, 0/100 at 24 min, 95/5 at 24.3 min, 95/5/0 at 32 min
AC$CHROMATOGRAPHY: FLOW_RATE 300 uL/min
AC$CHROMATOGRAPHY: RETENTION_TIME 6.603 min
AC$CHROMATOGRAPHY: SOLVENT A water with 0.1% formic acid
AC$CHROMATOGRAPHY: SOLVENT B methanol with 0.1% formic acid
MS$FOCUSED_ION: BASE_PEAK 355.2014
MS$FOCUSED_ION: PRECURSOR_M/Z 355.2016
MS$FOCUSED_ION: PRECURSOR_TYPE [M+H]+
MS$DATA_PROCESSING: RECALIBRATE loess on assigned fragments and MS1
MS$DATA_PROCESSING: REANALYZE Peaks with additional N2/O included
MS$DATA_PROCESSING: WHOLE RMassBank 2.14.1
PK$SPLASH: splash10-000x-0491000000-dc729c0f0254f50bad1c
PK$ANNOTATION: m/z tentative_formula formula_count mass error(ppm)
  55.0541 C4H7+ 1 55.0542 -1.61
  67.0542 C5H7+ 1 67.0542 -0.06
  70.0651 C4H8N+ 1 70.0651 -0.76
  79.0541 C6H7+ 1 79.0542 -1.52
  81.0698 C6H9+ 1 81.0699 -0.42
  83.0491 C5H7O+ 1 83.0491 -0.3
  84.0807 C5H10N+ 1 84.0808 -0.59
  91.0542 C7H7+ 1 91.0542 -0.05
  93.0698 C7H9+ 1 93.0699 -0.82
  94.0648 C6H8N+ 1 94.0651 -3.89
  95.0855 C7H11+ 1 95.0855 -0.68
  98.0964 C6H12N+ 1 98.0964 -0.16
  105.0698 C8H9+ 1 105.0699 -0.3
  107.0855 C8H11+ 1 107.0855 -0.43
  108.0806 C7H10N+ 1 108.0808 -2.01
  109.0649 C7H9O+ 1 109.0648 0.86
  109.1009 C8H13+ 1 109.1012 -2.71
  110.0963 C7H12N+ 1 110.0964 -1.06
  111.1042 C7H13N+ 1 111.1043 -0.29
  112.112 C7H14N+ 1 112.1121 -0.75
  117.0698 C9H9+ 1 117.0699 -0.38
  120.0804 C8H10N+ 1 120.0808 -3.11
  121.0648 C8H9O+ 1 121.0648 0.25
  122.0597 C7H8NO+ 1 122.06 -2.65
  122.0963 C8H12N+ 1 122.0964 -0.97
  123.0804 C8H11O+ 1 123.0804 -0.66
  123.1046 C8H13N+ 1 123.1043 2.51
  124.0757 C7H10NO+ 1 124.0757 0.11
  124.112 C8H14N+ 1 124.1121 -0.21
  130.0649 C9H8N+ 1 130.0651 -1.43
  131.0727 C9H9N+ 1 131.073 -2
  132.0807 C9H10N+ 1 132.0808 -0.48
  133.0647 C9H9O+ 1 133.0648 -1.01
  134.0963 C9H12N+ 1 134.0964 -0.7
  135.0803 C9H11O+ 1 135.0804 -0.77
  136.1122 C9H14N+ 1 136.1121 0.76
  138.1276 C9H16N+ 1 138.1277 -0.8
  143.0732 C10H9N+ 1 143.073 1.74
  144.0807 C10H10N+ 1 144.0808 -0.72
  146.0963 C10H12N+ 1 146.0964 -0.93
  148.0753 C9H10NO+ 1 148.0757 -2.74
  150.0914 C9H12NO+ 1 150.0913 0.33
  151.0751 C9H11O2+ 1 151.0754 -1.96
  152.1069 C9H14NO+ 1 152.107 -0.79
  154.0864 C8H12NO2+ 1 154.0863 0.75
  156.0806 C11H10N+ 1 156.0808 -1.05
  157.0889 C11H11N+ 1 157.0886 2.15
  158.0962 C11H12N+ 1 158.0964 -1.15
  160.1116 C11H14N+ 1 160.1121 -3.05
  162.0913 C10H12NO+ 1 162.0913 -0.14
  164.1068 C10H14NO+ 1 164.107 -1.07
  165.0912 C10H13O2+ 1 165.091 0.91
  168.0808 C12H10N+ 1 168.0808 -0.11
  170.0601 C11H8NO+ 1 170.06 0.48
  170.0964 C12H12N+ 1 170.0964 -0.38
  171.0919 C11H11N2+ 1 171.0917 1.33
  172.1117 C12H14N+ 1 172.1121 -2.15
  174.0922 C11H12NO+ 1 174.0913 4.69
  180.0808 C13H10N+ 1 180.0808 0.01
  181.0888 C13H11N+ 1 181.0886 0.94
  182.0962 C13H12N+ 1 182.0964 -1.24
  184.0759 C12H10NO+ 1 184.0757 0.99
  184.1126 C13H14N+ 1 184.1121 3.1
  194.0963 C14H12N+ 1 194.0964 -0.48
  194.1174 C11H16NO2+ 1 194.1176 -1.01
  195.104 C14H13N+ 1 195.1043 -1.34
  196.0761 C13H10NO+ 1 196.0757 2.14
  196.0965 C10H14NO3+ 1 196.0968 -1.81
  196.1119 C14H14N+ 1 196.1121 -0.94
  198.0911 C13H12NO+ 1 198.0913 -0.97
  198.1274 C14H16N+ 1 198.1277 -1.4
  204.0799 C15H10N+ 1 204.0808 -4.44
  205.0886 C15H11N+ 1 205.0886 -0.11
  206.0965 C15H12N+ 1 206.0964 0.26
  207.1043 C15H13N+ 1 207.1043 0.47
  207.1165 C16H15+ 1 207.1168 -1.68
  208.0749 C14H10NO+ 1 208.0757 -3.67
  208.1118 C15H14N+ 1 208.1121 -1.36
  209.1199 C15H15N+ 1 209.1199 0.03
  210.1276 C15H16N+ 1 210.1277 -0.63
  212.1279 C11H18NO3+ 1 212.1281 -0.86
  216.1016 C13H14NO2+ 1 216.1019 -1.47
  218.0965 C16H12N+ 1 218.0964 0.55
  219.1042 C16H13N+ 1 219.1043 -0.08
  220.1121 C16H14N+ 1 220.1121 0.26
  221.1199 C16H15N+ 1 221.1199 0.12
  222.1276 C16H16N+ 1 222.1277 -0.43
  223.1235 C15H15N2+ 1 223.123 2.45
  223.1362 C16H17N+ 1 223.1356 2.85
  224.1306 C15H16N2+ 1 224.1308 -0.97
  224.1432 C16H18N+ 1 224.1434 -0.98
  226.1232 C15H16NO+ 1 226.1226 2.3
  231.1048 C17H13N+ 1 231.1043 2.53
  232.1119 C17H14N+ 1 232.1121 -0.63
  233.1203 C17H15N+ 1 233.1199 1.86
  234.1275 C17H16N+ 1 234.1277 -1.14
  235.1236 C16H15N2+ 1 235.123 2.51
  235.1358 C17H17N+ 1 235.1356 1.27
  236.1073 C16H14NO+ 1 236.107 1.1
  236.1433 C17H18N+ 1 236.1434 -0.22
  237.0774 C15H11NO2+ 1 237.0784 -4.39
  237.1394 C16H17N2+ 1 237.1386 3.33
  238.0858 C15H12NO2+ 1 238.0863 -1.93
  238.1226 C16H16NO+ 1 238.1226 -0.37
  238.1598 C17H20N+ 1 238.159 3.38
  239.094 C15H13NO2+ 1 239.0941 -0.26
  239.1543 C16H19N2+ 1 239.1543 0.19
  246.1274 C18H16N+ 1 246.1277 -1.15
  247.1233 C17H15N2+ 1 247.123 1.29
  248.131 C17H16N2+ 1 248.1308 0.98
  248.1432 C18H18N+ 1 248.1434 -0.57
  249.1387 C17H17N2+ 1 249.1386 0.43
  249.1515 C18H19N+ 1 249.1512 1.1
  250.0854 C16H12NO2+ 1 250.0863 -3.4
  250.123 C17H16NO+ 1 250.1226 1.5
  250.159 C18H20N+ 1 250.159 -0.18
  251.0936 C16H13NO2+ 1 251.0941 -1.8
  252.1016 C16H14NO2+ 1 252.1019 -1.12
  252.1392 C17H18NO+ 1 252.1383 3.57
  253.1094 C16H15NO2+ 1 253.1097 -1.11
  253.1698 C17H21N2+ 1 253.1699 -0.56
  254.118 C16H16NO2+ 1 254.1176 1.67
  260.1441 C19H18N+ 1 260.1434 2.61
  262.1222 C18H16NO+ 1 262.1226 -1.56
  262.1473 C18H18N2+ 1 262.1464 3.2
  264.1015 C17H14NO2+ 1 264.1019 -1.38
  265.1096 C17H15NO2+ 1 265.1097 -0.5
  266.1176 C17H16NO2+ 1 266.1176 0.14
  266.1533 C18H20NO+ 1 266.1539 -2.53
  267.1253 C17H17NO2+ 1 267.1254 -0.14
  268.1331 C17H18NO2+ 1 268.1332 -0.53
  276.1018 C18H14NO2+ 1 276.1019 -0.23
  277.1339 C18H17N2O+ 1 277.1335 1.47
  277.1699 C19H21N2+ 1 277.1699 -0.22
  278.1176 C18H16NO2+ 1 278.1176 0.12
  278.1783 C19H22N2+ 1 278.1778 1.93
  279.1252 C18H17NO2+ 1 279.1254 -0.47
  280.1329 C18H18NO2+ 1 280.1332 -0.95
  282.1486 C18H20NO2+ 1 282.1489 -0.93
  290.1178 C19H16NO2+ 1 290.1176 0.73
  291.1255 C19H17NO2+ 1 291.1254 0.37
  292.133 C19H18NO2+ 1 292.1332 -0.72
  293.1408 C19H19NO2+ 1 293.141 -0.65
  294.1487 C19H20NO2+ 1 294.1489 -0.59
  295.1803 C19H23N2O+ 1 295.1805 -0.65
  305.1649 C20H21N2O+ 1 305.1648 0.04
  306.1484 C20H20NO2+ 1 306.1489 -1.48
  307.144 C19H19N2O2+ 1 307.1441 -0.41
  320.1636 C21H22NO2+ 1 320.1645 -2.83
  326.1744 C20H24NO3+ 1 326.1751 -2.05
  337.1907 C21H25N2O2+ 1 337.1911 -0.97
  355.2009 C21H27N2O3+ 1 355.2016 -2.04
PK$NUM_PEAK: 152
PK$PEAK: m/z int. rel.int.
  55.0541 1444.8 5
  67.0542 4026.7 15
  70.0651 16901.1 64
  79.0541 2856.7 10
  81.0698 2868.6 10
  83.0491 15921.5 60
  84.0807 3533.8 13
  91.0542 3601.4 13
  93.0698 7871.5 30
  94.0648 1299.8 4
  95.0855 11933 45
  98.0964 4774.3 18
  105.0698 6091.6 23
  107.0855 9933.2 37
  108.0806 3730.5 14
  109.0649 2383.2 9
  109.1009 2438.7 9
  110.0963 27501.9 105
  111.1042 7285 27
  112.112 8699.7 33
  117.0698 4988.3 19
  120.0804 2812.6 10
  121.0648 4120.8 15
  122.0597 7090.2 27
  122.0963 6781.7 25
  123.0804 13880.4 53
  123.1046 1648.4 6
  124.0757 5202.6 19
  124.112 27581.5 105
  130.0649 8294.9 31
  131.0727 1405.6 5
  132.0807 4429.5 16
  133.0647 3163.9 12
  134.0963 20566.7 78
  135.0803 8637.7 33
  136.1122 2107 8
  138.1276 2965.8 11
  143.0732 2403 9
  144.0807 261463.8 999
  146.0963 3912.3 14
  148.0753 1730.5 6
  150.0914 4919.8 18
  151.0751 3700.3 14
  152.1069 104843.5 400
  154.0864 3461.6 13
  156.0806 11759.3 44
  157.0889 1932.5 7
  158.0962 13433.3 51
  160.1116 3684.3 14
  162.0913 13521.1 51
  164.1068 5782.9 22
  165.0912 2267 8
  168.0808 4616.5 17
  170.0601 6974.9 26
  170.0964 8844.9 33
  171.0919 1708.4 6
  172.1117 3367.6 12
  174.0922 1868.8 7
  180.0808 6520.3 24
  181.0888 6080.9 23
  182.0962 8213.3 31
  184.0759 3134.4 11
  184.1126 3619.2 13
  194.0963 5001.1 19
  194.1174 18166.9 69
  195.104 1533.4 5
  196.0761 2013.3 7
  196.0965 3014.3 11
  196.1119 4328.7 16
  198.0911 3464.1 13
  198.1274 5703.3 21
  204.0799 2037.4 7
  205.0886 4382.6 16
  206.0965 8862.7 33
  207.1043 4354.9 16
  207.1165 1873.5 7
  208.0749 1758.3 6
  208.1118 16805.9 64
  209.1199 14960.4 57
  210.1276 11886.3 45
  212.1279 71752.4 274
  216.1016 2890.1 11
  218.0965 1555.3 5
  219.1042 10461.9 39
  220.1121 15022.2 57
  221.1199 9948.2 38
  222.1276 28776.1 109
  223.1235 2371 9
  223.1362 4928.1 18
  224.1306 7433 28
  224.1432 20788.5 79
  226.1232 3478.3 13
  231.1048 2147 8
  232.1119 1918.2 7
  233.1203 2132.9 8
  234.1275 36856.1 140
  235.1236 2285 8
  235.1358 11894.6 45
  236.1073 3101.9 11
  236.1433 22477.1 85
  237.0774 1720.8 6
  237.1394 3792.9 14
  238.0858 3093.8 11
  238.1226 3698.5 14
  238.1598 2153.2 8
  239.094 15637.3 59
  239.1543 2969.5 11
  246.1274 4759.2 18
  247.1233 1578.8 6
  248.131 6626.4 25
  248.1432 22075.2 84
  249.1387 9495.2 36
  249.1515 6703 25
  250.0854 2552.4 9
  250.123 1927.4 7
  250.159 14797.8 56
  251.0936 2505.9 9
  252.1016 13021.7 49
  252.1392 2821.4 10
  253.1094 13246.1 50
  253.1698 10188.9 38
  254.118 3785.2 14
  260.1441 3379.3 12
  262.1222 7142.9 27
  262.1473 2182 8
  264.1015 11050.8 42
  265.1096 42546.9 162
  266.1176 34618.6 132
  266.1533 6556.1 25
  267.1253 53307.4 203
  268.1331 69382.8 265
  276.1018 2049.9 7
  277.1339 1885 7
  277.1699 21204.5 81
  278.1176 10104.8 38
  278.1783 5463.8 20
  279.1252 44904.1 171
  280.1329 242858.8 927
  282.1486 7715 29
  290.1178 4747.8 18
  291.1255 9720.4 37
  292.133 21591.1 82
  293.1408 15743.6 60
  294.1487 218961.5 836
  295.1803 29785.8 113
  305.1649 3680.5 14
  306.1484 9150.6 34
  307.144 25522.5 97
  320.1636 6572.3 25
  326.1744 2120.9 8
  337.1907 127514.8 487
  355.2009 10628.5 40
//
