ACCESSION: MSBNK-NaToxAq-NA002733
RECORD_TITLE: Hyoscyamine; LC-ESI-ITFT; MS2; CE: 55%; R=15000; [M+H]+
DATE: 2020.02.21
AUTHORS: Tobias Schulze, Martin Krauss, Helmholtz Centre for Environmental Research GmbH - UFZ, Leipzig, Germany
LICENSE: CC0
COPYRIGHT: Copyright (C) 2020 by Helmholtz Centre for Environmental Research GmbH - UFZ, Leipzig, Germany
COMMENT: CONFIDENCE Reference Standard (Level 1)
COMMENT: INTERNAL_ID 2269
CH$NAME: Hyoscyamine
CH$COMPOUND_CLASS: N/A; Environmental Standard
CH$FORMULA: C17H23NO3
CH$EXACT_MASS: 289.1678
CH$SMILES: CN1[C@@H]2CC[C@H]1C[C@H](C2)OC(=O)[C@H](CO)c3ccccc3
CH$IUPAC: InChI=1S/C17H23NO3/c1-18-13-7-8-14(18)10-15(9-13)21-17(20)16(11-19)12-5-3-2-4-6-12/h2-6,13-16,19H,7-11H2,1H3/t13-,14+,15+,16-/m1/s1
CH$LINK: CAS 101-31-5
CH$LINK: CHEBI CHEBI:17486
CH$LINK: KEGG C02046
CH$LINK: INCHIKEY RKUNBYITZUJHSG-FXUDXRNXSA-N
CH$LINK: CHEMSPIDER 10246417
CH$LINK: COMPTOX DTXSID80889335
AC$INSTRUMENT: LTQ Orbitrap XL Thermo Scientific
AC$INSTRUMENT_TYPE: LC-ESI-ITFT
AC$MASS_SPECTROMETRY: MS_TYPE MS2
AC$MASS_SPECTROMETRY: ION_MODE POSITIVE
AC$MASS_SPECTROMETRY: IONIZATION ESI
AC$MASS_SPECTROMETRY: FRAGMENTATION_MODE HCD
AC$MASS_SPECTROMETRY: COLLISION_ENERGY 55% (nominal)
AC$MASS_SPECTROMETRY: RESOLUTION 15000
AC$CHROMATOGRAPHY: COLUMN_NAME Kinetex Evo C18 2.6 um 50x2.1 mm, Phenomenex
AC$CHROMATOGRAPHY: FLOW_GRADIENT 95/5 at 0 min, 95/5 at 1 min, 0/100 at 13 min, 0/100 at 24 min, 95/5 at 24.3 min, 95/5/0 at 32 min
AC$CHROMATOGRAPHY: FLOW_RATE 300 uL/min
AC$CHROMATOGRAPHY: RETENTION_TIME 2.806 min
AC$CHROMATOGRAPHY: SOLVENT A water with 0.1% formic acid
AC$CHROMATOGRAPHY: SOLVENT B methanol with 0.1% formic acid
MS$FOCUSED_ION: BASE_PEAK 290.1749
MS$FOCUSED_ION: PRECURSOR_M/Z 290.1751
MS$FOCUSED_ION: PRECURSOR_TYPE [M+H]+
MS$DATA_PROCESSING: RECALIBRATE loess on assigned fragments and MS1
MS$DATA_PROCESSING: REANALYZE Peaks with additional N2/O included
MS$DATA_PROCESSING: WHOLE RMassBank 2.14.1
PK$SPLASH: splash10-00dl-3920000000-486c1f3cfb890ac1c4e0
PK$ANNOTATION: m/z tentative_formula formula_count mass error(ppm)
  67.0542 C5H7+ 1 67.0542 -1.05
  70.065 C4H8N+ 1 70.0651 -1.2
  77.0385 C6H5+ 1 77.0386 -1.26
  82.0652 C5H8N+ 1 82.0651 0.7
  83.0731 C5H9N+ 1 83.073 1.32
  91.0543 C7H7+ 1 91.0542 0.4
  93.0699 C7H9+ 1 93.0699 0.19
  95.0855 C7H11+ 1 95.0855 0.24
  96.0809 C6H10N+ 1 96.0808 1.06
  98.0964 C6H12N+ 1 98.0964 0.15
  121.0648 C8H9O+ 1 121.0648 0.31
  124.1121 C8H14N+ 1 124.1121 0.14
  125.1199 C8H15N+ 1 125.1199 0.02
  140.1072 C8H14NO+ 1 140.107 1.27
  142.1226 C8H16NO+ 1 142.1226 -0.16
  260.1642 C16H22NO2+ 1 260.1645 -1.16
  290.1752 C17H24NO3+ 1 290.1751 0.31
PK$NUM_PEAK: 17
PK$PEAK: m/z int. rel.int.
  67.0542 5502.6 12
  70.065 2090.2 4
  77.0385 4479.2 9
  82.0652 5152.5 11
  83.0731 2131.5 4
  91.0543 21676.1 48
  93.0699 130414.6 290
  95.0855 7893.4 17
  96.0809 5535.1 12
  98.0964 3645 8
  121.0648 13332.6 29
  124.1121 447940.9 999
  125.1199 8612.5 19
  140.1072 1567.7 3
  142.1226 9835 21
  260.1642 4999.8 11
  290.1752 138272.9 308
//
