ACCESSION: MSBNK-NaToxAq-NA001618
RECORD_TITLE: Psoralen; LC-ESI-ITFT; MS2; CE: 95%; R=15000; [M+H]+
DATE: 2019.07.31
AUTHORS: Tobias Schulze, Vaidotas Kisielius, Xiaomeng Liang, Mulatu Yohannes Nanusha, Martin Krauss, Helmholtz Centre for Environmental Research GmbH - UFZ, Leipzig, Germany and University of Copenhagen (UCPH), Denmark
LICENSE: CC BY
COPYRIGHT: Copyright (C) 2019
COMMENT: CONFIDENCE Reference Standard (Level 1)
COMMENT: INTERNAL_ID 18
CH$NAME: Psoralen
CH$NAME: furo[3,2-g]chromen-7-one
CH$COMPOUND_CLASS: N/A; Environmental Standard
CH$FORMULA: C11H6O3
CH$EXACT_MASS: 186.0317
CH$SMILES: O=C1OC2=CC3=C(C=CO3)C=C2C=C1
CH$IUPAC: InChI=1S/C11H6O3/c12-11-2-1-7-5-8-3-4-13-9(8)6-10(7)14-11/h1-6H
CH$LINK: CAS 66-97-7
CH$LINK: CHEBI CHEBI:27616
CH$LINK: KEGG C09305
CH$LINK: PUBCHEM CID:6199
CH$LINK: INCHIKEY ZCCUUQDIBDJBTK-UHFFFAOYSA-N
CH$LINK: CHEMSPIDER 5964
CH$LINK: COMPTOX DTXSID00216205
AC$INSTRUMENT: LTQ Orbitrap XL Thermo Scientific
AC$INSTRUMENT_TYPE: LC-ESI-ITFT
AC$MASS_SPECTROMETRY: MS_TYPE MS2
AC$MASS_SPECTROMETRY: ION_MODE POSITIVE
AC$MASS_SPECTROMETRY: IONIZATION ESI
AC$MASS_SPECTROMETRY: FRAGMENTATION_MODE HCD
AC$MASS_SPECTROMETRY: COLLISION_ENERGY 95 % (nominal)
AC$MASS_SPECTROMETRY: RESOLUTION 15000
AC$CHROMATOGRAPHY: COLUMN_NAME Kinetex Evo C18 2.6 um 50x2.1 mm, Phenomenex
AC$CHROMATOGRAPHY: FLOW_GRADIENT 95/5 at 0 min, 95/5 at 1 min, 0/100 at 13 min, 0/100 at 24 min, 95/5 at 24.3 min, 95/5/0 at 32 min
AC$CHROMATOGRAPHY: FLOW_RATE 300 uL/min
AC$CHROMATOGRAPHY: RETENTION_TIME 9.148 min
AC$CHROMATOGRAPHY: SOLVENT A water with 0.1% formic acid
AC$CHROMATOGRAPHY: SOLVENT B methanol with 0.1% formic acid
MS$FOCUSED_ION: BASE_PEAK 187.0388
MS$FOCUSED_ION: PRECURSOR_M/Z 187.039
MS$FOCUSED_ION: PRECURSOR_TYPE [M+H]+
MS$DATA_PROCESSING: RECALIBRATE loess on assigned fragments and MS1
MS$DATA_PROCESSING: REANALYZE Peaks with additional N2/O included
MS$DATA_PROCESSING: WHOLE RMassBank 2.12.0
PK$SPLASH: splash10-001i-0900000000-1aedba3343c11c9eeb4e
PK$ANNOTATION: m/z tentative_formula formula_count mass error(ppm)
  77.0387 C6H5+ 1 77.0386 1.33
  89.0387 C7H5+ 1 89.0386 1.28
  95.0492 C6H7O+ 1 95.0491 0.72
  102.0465 C8H6+ 1 102.0464 0.55
  103.0543 C8H7+ 1 103.0542 0.7
  115.0543 C9H7+ 1 115.0542 0.69
  131.0492 C9H7O+ 1 131.0491 0.64
  143.0492 C10H7O+ 1 143.0491 0.63
  159.0443 C10H7O2+ 1 159.0441 1.41
  187.039 C11H7O3+ 1 187.039 0.38
PK$NUM_PEAK: 10
PK$PEAK: m/z int. rel.int.
  77.0387 63446.5 116
  89.0387 12269.6 22
  95.0492 12598.1 23
  102.0465 9065.8 16
  103.0543 75265.3 138
  115.0543 186911.3 343
  131.0492 543863.2 999
  143.0492 13464.1 24
  159.0443 4475.3 8
  187.039 7632.3 14
//
