ACCESSION: MSBNK-NaToxAq-NA000386
RECORD_TITLE: Angustifoline; LC-ESI-ITFT; MS2; CE: 90%; R=15000; [M+H]+
DATE: 2019.02.28
AUTHORS: Tobias Schulze, Jawameer Hama, Hubert Schupke, Martin Krauss, Helmholtz Centre for Environmental Research GmbH - UFZ, Leipzig, Germany and University of Copenhagen (UCPH), Denmark
LICENSE: CC BY
COPYRIGHT: Copyright (C) 2019
COMMENT: CONFIDENCE Reference Standard (Level 1)
COMMENT: INTERNAL_ID 54
CH$NAME: Angustifoline
CH$NAME: (2R,10S)-10-prop-2-enyl-7,11-diazatricyclo[7.3.1.0^{2,7}]tridecan-6-one
CH$COMPOUND_CLASS: N/A; Environmental Standard
CH$FORMULA: C14H22N2O
CH$EXACT_MASS: 234.1732
CH$SMILES: C=CC[C@@H]1NCC2CC1CN1[C@@H]2CCCC1=O
CH$IUPAC: InChI=1S/C14H22N2O/c1-2-4-12-11-7-10(8-15-12)13-5-3-6-14(17)16(13)9-11/h2,10-13,15H,1,3-9H2/t10?,11?,12-,13+/m0/s1
CH$LINK: CAS 550-43-6
CH$LINK: CHEBI CHEBI:2724
CH$LINK: KEGG C10751
CH$LINK: PUBCHEM CID:102004777
CH$LINK: INCHIKEY VTIPIBIDDZPDAV-IFWUJCSASA-N
CH$LINK: CHEMSPIDER 24536360
AC$INSTRUMENT: LTQ Orbitrap XL Thermo Scientific
AC$INSTRUMENT_TYPE: LC-ESI-ITFT
AC$MASS_SPECTROMETRY: MS_TYPE MS2
AC$MASS_SPECTROMETRY: ION_MODE POSITIVE
AC$MASS_SPECTROMETRY: IONIZATION ESI
AC$MASS_SPECTROMETRY: FRAGMENTATION_MODE CID
AC$MASS_SPECTROMETRY: COLLISION_ENERGY 90 % (nominal)
AC$MASS_SPECTROMETRY: RESOLUTION 15000
AC$CHROMATOGRAPHY: COLUMN_NAME Synergi Polar RP, 2.5 um 100x3.0 mm, Phenomenex
AC$CHROMATOGRAPHY: FLOW_GRADIENT 95/5/0 at 0 min, 95/5/0 at 2 min, 5/95/0 at 8 min, 5/80/15 at 12 min, 5/25/70 at 19 min, 3/2/95 at 19.5 min, 3/2/95 at 22 min, 95/5/0 at 23 min, 95/5/0 at 28 min
AC$CHROMATOGRAPHY: FLOW_RATE 400 uL/min
AC$CHROMATOGRAPHY: RETENTION_TIME 7.343 min
AC$CHROMATOGRAPHY: SOLVENT A water with 0.1% formic acid
AC$CHROMATOGRAPHY: SOLVENT B methanol with 0.1% formic acid
MS$FOCUSED_ION: BASE_PEAK 195.0836
MS$FOCUSED_ION: PRECURSOR_M/Z 235.1805
MS$FOCUSED_ION: PRECURSOR_TYPE [M+H]+
MS$DATA_PROCESSING: RECALIBRATE loess on assigned fragments and MS1
MS$DATA_PROCESSING: REANALYZE Peaks with additional N2/O included
MS$DATA_PROCESSING: WHOLE RMassBank 2.11.0
PK$SPLASH: splash10-0006-0920000000-9ee9aa286b2c5b30f53d
PK$ANNOTATION: m/z tentative_formula formula_count mass error(ppm)
  86.0967 C5H12N+ 1 86.0964 2.72
  94.0654 C6H8N+ 1 94.0651 2.58
  96.0809 C6H10N+ 1 96.0808 1.3
  98.0963 C6H12N+ 1 98.0964 -1.77
  100.0757 C5H10NO+ 1 100.0757 0.2
  112.0758 C6H10NO+ 1 112.0757 0.85
  112.1121 C7H14N+ 1 112.1121 -0.18
  114.0915 C6H12NO+ 1 114.0913 1.48
  119.0858 C9H11+ 1 119.0855 2.54
  122.0962 C8H12N+ 1 122.0964 -1.58
  134.0964 C9H12N+ 1 134.0964 0.08
  136.1121 C9H14N+ 1 136.1121 0.44
  138.1277 C9H16N+ 1 138.1277 0.03
  150.0914 C9H12NO+ 1 150.0913 0.53
  152.1072 C9H14NO+ 1 152.107 1.12
  164.1075 C10H14NO+ 1 164.107 3.36
  166.1228 C10H16NO+ 1 166.1226 1.14
  188.1431 C13H18N+ 1 188.1434 -1.54
  192.1384 C12H18NO+ 1 192.1383 0.32
  193.1337 C11H17N2O+ 1 193.1335 0.95
  206.1541 C13H20NO+ 1 206.1539 0.74
  217.1701 C14H21N2+ 1 217.1699 0.68
  218.1542 C14H20NO+ 1 218.1539 0.98
PK$NUM_PEAK: 23
PK$PEAK: m/z int. rel.int.
  86.0967 1641.2 6
  94.0654 3347.7 12
  96.0809 1942.9 7
  98.0963 3034.6 11
  100.0757 1387.9 5
  112.0758 18468.2 69
  112.1121 3142.2 11
  114.0915 1583.1 5
  119.0858 2124.7 7
  122.0962 1883.3 7
  134.0964 1560 5
  136.1121 36439.3 136
  138.1277 10950.8 41
  150.0914 22320.1 83
  152.1072 2587.3 9
  164.1075 1792.4 6
  166.1228 4126.7 15
  188.1431 2490.7 9
  192.1384 8314.1 31
  193.1337 266134.6 999
  206.1541 6703.3 25
  217.1701 97369.1 365
  218.1542 1626.4 6
//
