ACCESSION: MSBNK-NaToxAq-NA003752
RECORD_TITLE: Kaempferol; LC-ESI-ITFT; MS2; CE: 85%; R=15000; [M+H]+
DATE: 2020.02.22
AUTHORS: Tobias Schulze, Martin Krauss, Helmholtz Centre for Environmental Research GmbH - UFZ, Leipzig, Germany
LICENSE: CC0
COPYRIGHT: Copyright (C) 2020 by Helmholtz Centre for Environmental Research GmbH - UFZ, Leipzig, Germany
COMMENT: CONFIDENCE Reference Standard (Level 1)
COMMENT: INTERNAL_ID 2358
CH$NAME: Kaempferol
CH$NAME: 3,5,7-trihydroxy-2-(4-hydroxyphenyl)chromen-4-one
CH$COMPOUND_CLASS: N/A; Environmental Standard
CH$FORMULA: C15H10O6
CH$EXACT_MASS: 286.0477
CH$SMILES: OC1=CC=C(C=C1)C1=C(O)C(=O)C2=C(O)C=C(O)C=C2O1
CH$IUPAC: InChI=1S/C15H10O6/c16-8-3-1-7(2-4-8)15-14(20)13(19)12-10(18)5-9(17)6-11(12)21-15/h1-6,16-18,20H
CH$LINK: CAS 520-18-3
CH$LINK: CHEBI CHEBI:28499
CH$LINK: KEGG C05903
CH$LINK: LIPIDMAPS LMPK12110003
CH$LINK: PUBCHEM CID:5280863
CH$LINK: INCHIKEY IYRMWMYZSQPJKC-UHFFFAOYSA-N
CH$LINK: CHEMSPIDER 4444395
CH$LINK: COMPTOX DTXSID7020768
AC$INSTRUMENT: LTQ Orbitrap XL Thermo Scientific
AC$INSTRUMENT_TYPE: LC-ESI-ITFT
AC$MASS_SPECTROMETRY: MS_TYPE MS2
AC$MASS_SPECTROMETRY: ION_MODE POSITIVE
AC$MASS_SPECTROMETRY: IONIZATION ESI
AC$MASS_SPECTROMETRY: FRAGMENTATION_MODE HCD
AC$MASS_SPECTROMETRY: COLLISION_ENERGY 85% (nominal)
AC$MASS_SPECTROMETRY: RESOLUTION 15000
AC$CHROMATOGRAPHY: COLUMN_NAME Kinetex Evo C18 2.6 um 50x2.1 mm, Phenomenex
AC$CHROMATOGRAPHY: FLOW_GRADIENT 95/5 at 0 min, 95/5 at 1 min, 0/100 at 13 min, 0/100 at 24 min, 95/5 at 24.3 min, 95/5/0 at 32 min
AC$CHROMATOGRAPHY: FLOW_RATE 300 uL/min
AC$CHROMATOGRAPHY: RETENTION_TIME 10.422 min
AC$CHROMATOGRAPHY: SOLVENT A water with 0.1% formic acid
AC$CHROMATOGRAPHY: SOLVENT B methanol with 0.1% formic acid
MS$FOCUSED_ION: BASE_PEAK 116.9859
MS$FOCUSED_ION: PRECURSOR_M/Z 287.055
MS$FOCUSED_ION: PRECURSOR_TYPE [M+H]+
MS$DATA_PROCESSING: RECALIBRATE loess on assigned fragments and MS1
MS$DATA_PROCESSING: REANALYZE Peaks with additional N2/O included
MS$DATA_PROCESSING: WHOLE RMassBank 2.14.1
PK$SPLASH: splash10-0uk9-0900000000-d6dd2f86bcd3b6ab4ae7
PK$ANNOTATION: m/z tentative_formula formula_count mass error(ppm)
  68.9971 C3HO2+ 1 68.9971 -0.21
  93.0335 C6H5O+ 1 93.0335 -0.39
  105.0339 C7H5O+ 1 105.0335 3.84
  107.0491 C7H7O+ 1 107.0491 -0.71
  119.0494 C8H7O+ 1 119.0491 1.82
  121.0283 C7H5O2+ 1 121.0284 -0.89
  137.0234 C7H5O3+ 1 137.0233 0.61
  147.0439 C9H7O2+ 1 147.0441 -1.02
  153.0182 C7H5O4+ 1 153.0182 0.09
  157.0648 C11H9O+ 1 157.0648 -0.22
  165.0182 C8H5O4+ 1 165.0182 -0.09
  213.0544 C13H9O3+ 1 213.0546 -0.87
  229.049 C13H9O4+ 1 229.0495 -2.19
PK$NUM_PEAK: 13
PK$PEAK: m/z int. rel.int.
  68.9971 5664.9 214
  93.0335 1277.8 48
  105.0339 1337.7 50
  107.0491 4011.9 152
  119.0494 1095.5 41
  121.0283 15182.9 576
  137.0234 3042.5 115
  147.0439 1882.5 71
  153.0182 26324.7 999
  157.0648 6268 237
  165.0182 4040.2 153
  213.0544 5089.9 193
  229.049 1609.8 61
//
