ACCESSION: MSBNK-NaToxAq-NA002598
RECORD_TITLE: Fraxidin; LC-ESI-ITFT; MS2; CE: 20%; R=15000; [M+H]+
DATE: 2020.02.21
AUTHORS: Tobias Schulze, Martin Krauss, Helmholtz Centre for Environmental Research GmbH - UFZ, Leipzig, Germany
LICENSE: CC0
COPYRIGHT: Copyright (C) 2020 by Helmholtz Centre for Environmental Research GmbH - UFZ, Leipzig, Germany
COMMENT: CONFIDENCE Reference Standard (Level 1)
COMMENT: INTERNAL_ID 2344
CH$NAME: Fraxidin
CH$NAME: 8-hydroxy-6,7-dimethoxychromen-2-one
CH$COMPOUND_CLASS: N/A; Environmental Standard
CH$FORMULA: C11H10O5
CH$EXACT_MASS: 222.0528
CH$SMILES: COC1=C(OC)C(O)=C2OC(=O)C=CC2=C1
CH$IUPAC: InChI=1S/C11H10O5/c1-14-7-5-6-3-4-8(12)16-10(6)9(13)11(7)15-2/h3-5,13H,1-2H3
CH$LINK: CAS 525-21-3
CH$LINK: CHEBI CHEBI:81120
CH$LINK: KEGG C17479
CH$LINK: PUBCHEM CID:3083616
CH$LINK: INCHIKEY QNFBKOHHLAWWTC-UHFFFAOYSA-N
CH$LINK: CHEMSPIDER 2340791
CH$LINK: COMPTOX DTXSID70200499
AC$INSTRUMENT: LTQ Orbitrap XL Thermo Scientific
AC$INSTRUMENT_TYPE: LC-ESI-ITFT
AC$MASS_SPECTROMETRY: MS_TYPE MS2
AC$MASS_SPECTROMETRY: ION_MODE POSITIVE
AC$MASS_SPECTROMETRY: IONIZATION ESI
AC$MASS_SPECTROMETRY: FRAGMENTATION_MODE HCD
AC$MASS_SPECTROMETRY: COLLISION_ENERGY 20% (nominal)
AC$MASS_SPECTROMETRY: RESOLUTION 15000
AC$CHROMATOGRAPHY: COLUMN_NAME Kinetex Evo C18 2.6 um 50x2.1 mm, Phenomenex
AC$CHROMATOGRAPHY: FLOW_GRADIENT 95/5 at 0 min, 95/5 at 1 min, 0/100 at 13 min, 0/100 at 24 min, 95/5 at 24.3 min, 95/5/0 at 32 min
AC$CHROMATOGRAPHY: FLOW_RATE 300 uL/min
AC$CHROMATOGRAPHY: RETENTION_TIME 7.584 min
AC$CHROMATOGRAPHY: SOLVENT A water with 0.1% formic acid
AC$CHROMATOGRAPHY: SOLVENT B methanol with 0.1% formic acid
MS$FOCUSED_ION: BASE_PEAK 116.9858
MS$FOCUSED_ION: PRECURSOR_M/Z 223.0601
MS$FOCUSED_ION: PRECURSOR_TYPE [M+H]+
MS$DATA_PROCESSING: RECALIBRATE loess on assigned fragments and MS1
MS$DATA_PROCESSING: REANALYZE Peaks with additional N2/O included
MS$DATA_PROCESSING: WHOLE RMassBank 2.14.1
PK$SPLASH: splash10-00di-0090000000-88b3a1a8b888d79d7b5b
PK$ANNOTATION: m/z tentative_formula formula_count mass error(ppm)
  208.0366 C10H8O5+ 1 208.0366 -0.32
  223.0601 C11H11O5+ 1 223.0601 -0.06
PK$NUM_PEAK: 2
PK$PEAK: m/z int. rel.int.
  208.0366 2303.5 2
  223.0601 1111275.5 999
//
