ACCESSION: MSBNK-NaToxAq-NA002981
RECORD_TITLE: 4-Hydroxycoumarin; LC-ESI-ITFT; MS2; CE: 45%; R=15000; [M+H]+
DATE: 2020.02.21
AUTHORS: Tobias Schulze, Martin Krauss, Helmholtz Centre for Environmental Research GmbH - UFZ, Leipzig, Germany
LICENSE: CC0
COPYRIGHT: Copyright (C) 2020 by Helmholtz Centre for Environmental Research GmbH - UFZ, Leipzig, Germany
COMMENT: CONFIDENCE Reference Standard (Level 1)
COMMENT: INTERNAL_ID 2338
CH$NAME: 4-Hydroxycoumarin
CH$NAME: CID 14101
CH$NAME: 2-hydroxychromen-4-one
CH$COMPOUND_CLASS: N/A; Environmental Standard
CH$FORMULA: C9H6O3
CH$EXACT_MASS: 162.0317
CH$SMILES: OC1=CC(=O)C2=CC=CC=C2O1
CH$IUPAC: InChI=1S/C9H6O3/c10-7-5-9(11)12-8-4-2-1-3-6(7)8/h1-5,11H
CH$LINK: CAS 1076-38-6
CH$LINK: PUBCHEM CID:14101
CH$LINK: INCHIKEY OWBBAPRUYLEWRR-UHFFFAOYSA-N
CH$LINK: CHEMSPIDER 13479
CH$LINK: COMPTOX DTXSID50944748
AC$INSTRUMENT: LTQ Orbitrap XL Thermo Scientific
AC$INSTRUMENT_TYPE: LC-ESI-ITFT
AC$MASS_SPECTROMETRY: MS_TYPE MS2
AC$MASS_SPECTROMETRY: ION_MODE POSITIVE
AC$MASS_SPECTROMETRY: IONIZATION ESI
AC$MASS_SPECTROMETRY: FRAGMENTATION_MODE HCD
AC$MASS_SPECTROMETRY: COLLISION_ENERGY 45% (nominal)
AC$MASS_SPECTROMETRY: RESOLUTION 15000
AC$CHROMATOGRAPHY: COLUMN_NAME Kinetex Evo C18 2.6 um 50x2.1 mm, Phenomenex
AC$CHROMATOGRAPHY: FLOW_GRADIENT 95/5 at 0 min, 95/5 at 1 min, 0/100 at 13 min, 0/100 at 24 min, 95/5 at 24.3 min, 95/5/0 at 32 min
AC$CHROMATOGRAPHY: FLOW_RATE 300 uL/min
AC$CHROMATOGRAPHY: RETENTION_TIME 8.109 min
AC$CHROMATOGRAPHY: SOLVENT A water with 0.1% formic acid
AC$CHROMATOGRAPHY: SOLVENT B methanol with 0.1% formic acid
MS$FOCUSED_ION: BASE_PEAK 116.9858
MS$FOCUSED_ION: PRECURSOR_M/Z 163.039
MS$FOCUSED_ION: PRECURSOR_TYPE [M+H]+
MS$DATA_PROCESSING: RECALIBRATE loess on assigned fragments and MS1
MS$DATA_PROCESSING: REANALYZE Peaks with additional N2/O included
MS$DATA_PROCESSING: WHOLE RMassBank 2.14.1
PK$SPLASH: splash10-03di-0900000000-8de54555957f8da7191e
PK$ANNOTATION: m/z tentative_formula formula_count mass error(ppm)
  68.997 C3HO2+ 1 68.9971 -1.7
  91.0542 C7H7+ 1 91.0542 -0.52
  95.0492 C6H7O+ 1 95.0491 0.66
  119.0489 C8H7O+ 1 119.0491 -1.93
  121.0283 C7H5O2+ 1 121.0284 -0.56
  135.044 C8H7O2+ 1 135.0441 -0.21
  163.0389 C9H7O3+ 1 163.039 -0.7
PK$NUM_PEAK: 7
PK$PEAK: m/z int. rel.int.
  68.997 1692.5 5
  91.0542 5722.6 19
  95.0492 4000.1 13
  119.0489 1986.1 6
  121.0283 25771.7 88
  135.044 1247.4 4
  163.0389 289597.5 999
//
