ACCESSION: MSBNK-NaToxAq-NA001702
RECORD_TITLE: Anabasine; LC-ESI-ITFT; MS2; CE: 85%; R=15000; [M+H]+
DATE: 2019.07.31
AUTHORS: Tobias Schulze, Vaidotas Kisielius, Xiaomeng Liang, Mulatu Yohannes Nanusha, Martin Krauss, Helmholtz Centre for Environmental Research GmbH - UFZ, Leipzig, Germany and University of Copenhagen (UCPH), Denmark
LICENSE: CC BY
COPYRIGHT: Copyright (C) 2019
COMMENT: CONFIDENCE Reference Standard (Level 1)
COMMENT: INTERNAL_ID 8
CH$NAME: Anabasine
CH$COMPOUND_CLASS: N/A; Environmental Standard
CH$FORMULA: C10H14N2
CH$EXACT_MASS: 162.1157
CH$SMILES: C1CCC(NC1)C1=CC=CN=C1
CH$IUPAC: InChI=1S/C10H14N2/c1-2-7-12-10(5-1)9-4-3-6-11-8-9/h3-4,6,8,10,12H,1-2,5,7H2
CH$LINK: INCHIKEY MTXSIJUGVMTTMU-UHFFFAOYSA-N
CH$LINK: PUBCHEM CID:2181
AC$INSTRUMENT: LTQ Orbitrap XL Thermo Scientific
AC$INSTRUMENT_TYPE: LC-ESI-ITFT
AC$MASS_SPECTROMETRY: MS_TYPE MS2
AC$MASS_SPECTROMETRY: ION_MODE POSITIVE
AC$MASS_SPECTROMETRY: IONIZATION ESI
AC$MASS_SPECTROMETRY: FRAGMENTATION_MODE CID
AC$MASS_SPECTROMETRY: COLLISION_ENERGY 85 % (nominal)
AC$MASS_SPECTROMETRY: RESOLUTION 15000
AC$CHROMATOGRAPHY: COLUMN_NAME Kinetex Evo C18 2.6 um 50x2.1 mm, Phenomenex
AC$CHROMATOGRAPHY: FLOW_GRADIENT 95/5 at 0 min, 95/5 at 1 min, 0/100 at 13 min, 0/100 at 24 min, 95/5 at 24.3 min, 95/5/0 at 32 min
AC$CHROMATOGRAPHY: FLOW_RATE 300 uL/min
AC$CHROMATOGRAPHY: RETENTION_TIME 0.481 min
AC$CHROMATOGRAPHY: SOLVENT A water with 0.1% formic acid
AC$CHROMATOGRAPHY: SOLVENT B methanol with 0.1% formic acid
MS$FOCUSED_ION: BASE_PEAK 249.1958
MS$FOCUSED_ION: PRECURSOR_M/Z 163.123
MS$FOCUSED_ION: PRECURSOR_TYPE [M+H]+
MS$DATA_PROCESSING: RECALIBRATE loess on assigned fragments and MS1
MS$DATA_PROCESSING: REANALYZE Peaks with additional N2/O included
MS$DATA_PROCESSING: WHOLE RMassBank 2.12.0
PK$SPLASH: splash10-0002-3900000000-5f86ed8f0f253dab1c0a
PK$ANNOTATION: m/z tentative_formula formula_count mass error(ppm)
  70.0651 C4H8N+ 1 70.0651 -0.22
  80.0495 C5H6N+ 1 80.0495 0.55
  82.0652 C5H8N+ 1 82.0651 0.33
  84.0808 C5H10N+ 1 84.0808 0.48
  92.0495 C6H6N+ 1 92.0495 0.38
  93.0572 C6H7N+ 1 93.0573 -1.5
  94.0652 C6H8N+ 1 94.0651 0.37
  106.0651 C7H8N+ 1 106.0651 -0.01
  108.0808 C7H10N+ 1 108.0808 0.31
  117.0573 C8H7N+ 1 117.0573 0.38
  118.0652 C8H8N+ 1 118.0651 0.51
  120.0808 C8H10N+ 1 120.0808 0.39
  129.0699 C10H9+ 1 129.0699 0.33
  130.0656 C9H8N+ 1 130.0651 3.87
  131.073 C9H9N+ 1 131.073 0.58
  132.0809 C9H10N+ 1 132.0808 1.27
  134.0965 C9H12N+ 1 134.0964 0.58
  144.081 C10H10N+ 1 144.0808 1.35
  146.0965 C10H12N+ 1 146.0964 0.53
PK$NUM_PEAK: 19
PK$PEAK: m/z int. rel.int.
  70.0651 5059.8 7
  80.0495 54186.2 76
  82.0652 26057.1 36
  84.0808 6734.7 9
  92.0495 21916.5 31
  93.0572 1453.6 2
  94.0652 349808.5 495
  106.0651 2310.3 3
  108.0808 9704.5 13
  117.0573 6423.9 9
  118.0652 60445.4 85
  120.0808 292194.5 414
  129.0699 3681.1 5
  130.0656 1876.6 2
  131.073 17362.8 24
  132.0809 4257.8 6
  134.0965 180347.8 255
  144.081 14880.6 21
  146.0965 704855.7 999
//
