ACCESSION: MSBNK-NaToxAq-NA000832
RECORD_TITLE: Coniferaldehyde; LC-ESI-ITFT; MS2; CE: 15%; R=15000; [M+H]+
DATE: 2019.07.31
AUTHORS: Tobias Schulze, Vaidotas Kisielius, Xiaomeng Liang, Mulatu Yohannes Nanusha, Martin Krauss, Helmholtz Centre for Environmental Research GmbH - UFZ, Leipzig, Germany and University of Copenhagen (UCPH), Denmark
LICENSE: CC BY
COPYRIGHT: Copyright (C) 2019
COMMENT: CONFIDENCE Reference Standard (Level 1)
COMMENT: INTERNAL_ID 13
CH$NAME: Coniferaldehyde
CH$COMPOUND_CLASS: N/A; Environmental Standard
CH$FORMULA: C10H10O3
CH$EXACT_MASS: 178.0630
CH$SMILES: COC1=CC(\C=C\C=O)=CC=C1O
CH$IUPAC: InChI=1S/C10H10O3/c1-13-10-7-8(3-2-6-11)4-5-9(10)12/h2-7,12H,1H3/b3-2+
CH$LINK: INCHIKEY DKZBBWMURDFHNE-NSCUHMNNSA-N
CH$LINK: PUBCHEM CID:5280536
CH$LINK: COMPTOX DTXSID10174685
AC$INSTRUMENT: LTQ Orbitrap XL Thermo Scientific
AC$INSTRUMENT_TYPE: LC-ESI-ITFT
AC$MASS_SPECTROMETRY: MS_TYPE MS2
AC$MASS_SPECTROMETRY: ION_MODE POSITIVE
AC$MASS_SPECTROMETRY: IONIZATION ESI
AC$MASS_SPECTROMETRY: FRAGMENTATION_MODE CID
AC$MASS_SPECTROMETRY: COLLISION_ENERGY 15 % (nominal)
AC$MASS_SPECTROMETRY: RESOLUTION 15000
AC$CHROMATOGRAPHY: COLUMN_NAME Kinetex Evo C18 2.6 um 50x2.1 mm, Phenomenex
AC$CHROMATOGRAPHY: FLOW_GRADIENT 95/5 at 0 min, 95/5 at 1 min, 0/100 at 13 min, 0/100 at 24 min, 95/5 at 24.3 min, 95/5/0 at 32 min
AC$CHROMATOGRAPHY: FLOW_RATE 300 uL/min
AC$CHROMATOGRAPHY: RETENTION_TIME 7.421 min
AC$CHROMATOGRAPHY: SOLVENT A water with 0.1% formic acid
AC$CHROMATOGRAPHY: SOLVENT B methanol with 0.1% formic acid
MS$FOCUSED_ION: BASE_PEAK 179.0699
MS$FOCUSED_ION: PRECURSOR_M/Z 179.0703
MS$FOCUSED_ION: PRECURSOR_TYPE [M+H]+
MS$DATA_PROCESSING: RECALIBRATE loess on assigned fragments and MS1
MS$DATA_PROCESSING: REANALYZE Peaks with additional N2/O included
MS$DATA_PROCESSING: WHOLE RMassBank 2.12.0
PK$SPLASH: splash10-004i-0900000000-7fb1116371125eaad67a
PK$ANNOTATION: m/z tentative_formula formula_count mass error(ppm)
  55.0177 C3H3O+ 1 55.0178 -2.07
  105.0699 C8H9+ 1 105.0699 0
  119.0494 C8H7O+ 1 119.0491 1.89
  123.0442 C7H7O2+ 1 123.0441 1.17
  133.0649 C9H9O+ 1 133.0648 0.99
  147.0442 C9H7O2+ 1 147.0441 0.92
  151.0757 C9H11O2+ 1 151.0754 2.13
  161.0599 C10H9O2+ 1 161.0597 1.01
  179.0703 C10H11O3+ 1 179.0703 0.25
PK$NUM_PEAK: 9
PK$PEAK: m/z int. rel.int.
  55.0177 3334.3 1
  105.0699 4087.3 1
  119.0494 4243.9 1
  123.0442 4989 1
  133.0649 21331.5 7
  147.0442 206941.1 75
  151.0757 3864.6 1
  161.0599 212552.4 77
  179.0703 2729517.2 999
//
