ACCESSION: MSBNK-NaToxAq-NA001215
RECORD_TITLE: Coniferaldehyde; LC-ESI-ITFT; MS2; CE: 50%; R=15000; [M+H]+
DATE: 2019.07.31
AUTHORS: Tobias Schulze, Vaidotas Kisielius, Xiaomeng Liang, Mulatu Yohannes Nanusha, Martin Krauss, Helmholtz Centre for Environmental Research GmbH - UFZ, Leipzig, Germany and University of Copenhagen (UCPH), Denmark
LICENSE: CC BY
COPYRIGHT: Copyright (C) 2019
COMMENT: CONFIDENCE Reference Standard (Level 1)
COMMENT: INTERNAL_ID 13
CH$NAME: Coniferaldehyde
CH$COMPOUND_CLASS: N/A; Environmental Standard
CH$FORMULA: C10H10O3
CH$EXACT_MASS: 178.0630
CH$SMILES: COC1=CC(\C=C\C=O)=CC=C1O
CH$IUPAC: InChI=1S/C10H10O3/c1-13-10-7-8(3-2-6-11)4-5-9(10)12/h2-7,12H,1H3/b3-2+
CH$LINK: INCHIKEY DKZBBWMURDFHNE-NSCUHMNNSA-N
CH$LINK: PUBCHEM CID:5280536
CH$LINK: COMPTOX DTXSID10174685
AC$INSTRUMENT: LTQ Orbitrap XL Thermo Scientific
AC$INSTRUMENT_TYPE: LC-ESI-ITFT
AC$MASS_SPECTROMETRY: MS_TYPE MS2
AC$MASS_SPECTROMETRY: ION_MODE POSITIVE
AC$MASS_SPECTROMETRY: IONIZATION ESI
AC$MASS_SPECTROMETRY: FRAGMENTATION_MODE CID
AC$MASS_SPECTROMETRY: COLLISION_ENERGY 50 % (nominal)
AC$MASS_SPECTROMETRY: RESOLUTION 15000
AC$CHROMATOGRAPHY: COLUMN_NAME Kinetex Evo C18 2.6 um 50x2.1 mm, Phenomenex
AC$CHROMATOGRAPHY: FLOW_GRADIENT 95/5 at 0 min, 95/5 at 1 min, 0/100 at 13 min, 0/100 at 24 min, 95/5 at 24.3 min, 95/5/0 at 32 min
AC$CHROMATOGRAPHY: FLOW_RATE 300 uL/min
AC$CHROMATOGRAPHY: RETENTION_TIME 7.534 min
AC$CHROMATOGRAPHY: SOLVENT A water with 0.1% formic acid
AC$CHROMATOGRAPHY: SOLVENT B methanol with 0.1% formic acid
MS$FOCUSED_ION: BASE_PEAK 179.0703
MS$FOCUSED_ION: PRECURSOR_M/Z 179.0703
MS$FOCUSED_ION: PRECURSOR_TYPE [M+H]+
MS$DATA_PROCESSING: RECALIBRATE loess on assigned fragments and MS1
MS$DATA_PROCESSING: REANALYZE Peaks with additional N2/O included
MS$DATA_PROCESSING: WHOLE RMassBank 2.12.0
PK$SPLASH: splash10-01ot-0900000000-f8af2aa083d264c45f3d
PK$ANNOTATION: m/z tentative_formula formula_count mass error(ppm)
  55.0177 C3H3O+ 1 55.0178 -1.72
  95.0493 C6H7O+ 1 95.0491 1.96
  105.07 C8H9+ 1 105.0699 1.27
  115.0544 C9H7+ 1 115.0542 1.28
  119.0493 C8H7O+ 1 119.0491 1.43
  123.0442 C7H7O2+ 1 123.0441 0.96
  123.0808 C8H11O+ 1 123.0804 2.87
  133.065 C9H9O+ 1 133.0648 1.6
  135.0443 C8H7O2+ 1 135.0441 1.91
  137.06 C8H9O2+ 1 137.0597 2.46
  147.0443 C9H7O2+ 1 147.0441 1.4
  149.0598 C9H9O2+ 1 149.0597 0.38
  151.0756 C9H11O2+ 1 151.0754 1.58
  161.06 C10H9O2+ 1 161.0597 1.53
PK$NUM_PEAK: 14
PK$PEAK: m/z int. rel.int.
  55.0177 4129.7 7
  95.0493 6820.4 12
  105.07 16292.5 30
  115.0544 3962.6 7
  119.0493 17848.4 33
  123.0442 14937.7 27
  123.0808 1776.2 3
  133.065 62887.3 116
  135.0443 4827 8
  137.06 3601.1 6
  147.0443 538649.2 999
  149.0598 1518 2
  151.0756 9002.1 16
  161.06 535623.8 993
//
