ACCESSION: MSBNK-NaToxAq-NA003117
RECORD_TITLE: Lycopsamine; LC-ESI-ITFT; MS2; CE: 75%; R=15000; [M+H]+
DATE: 2020.02.22
AUTHORS: Tobias Schulze, Martin Krauss, Helmholtz Centre for Environmental Research GmbH - UFZ, Leipzig, Germany
LICENSE: CC0
COPYRIGHT: Copyright (C) 2020 by Helmholtz Centre for Environmental Research GmbH - UFZ, Leipzig, Germany
COMMENT: CONFIDENCE Reference Standard (Level 1)
COMMENT: INTERNAL_ID 2270
CH$NAME: Lycopsamine
CH$NAME: [(7R,8R)-7-hydroxy-5,6,7,8-tetrahydro-3H-pyrrolizin-1-yl]methyl (2S)-2-hydroxy-2-[(1S)-1-hydroxyethyl]-3-methylbutanoate
CH$COMPOUND_CLASS: N/A; Environmental Standard
CH$FORMULA: C15H25NO5
CH$EXACT_MASS: 299.1733
CH$SMILES: C[C@@H]([C@@](C(C)C)(C(=O)OCC1=CCN2[C@H]1[C@@H](CC2)O)O)O
CH$IUPAC: InChI=1S/C15H25NO5/c1-9(2)15(20,10(3)17)14(19)21-8-11-4-6-16-7-5-12(18)13(11)16/h4,9-10,12-13,17-18,20H,5-8H2,1-3H3/t10-,12+,13+,15-/m0/s1
CH$LINK: CAS 10285-07-1
CH$LINK: CHEBI CHEBI:6598
CH$LINK: KEGG C10347
CH$LINK: PUBCHEM CID:107938
CH$LINK: INCHIKEY SFVVQRJOGUKCEG-ZGFBFQLVSA-N
CH$LINK: CHEMSPIDER 97061
CH$LINK: COMPTOX DTXSID60145542
AC$INSTRUMENT: LTQ Orbitrap XL Thermo Scientific
AC$INSTRUMENT_TYPE: LC-ESI-ITFT
AC$MASS_SPECTROMETRY: MS_TYPE MS2
AC$MASS_SPECTROMETRY: ION_MODE POSITIVE
AC$MASS_SPECTROMETRY: IONIZATION ESI
AC$MASS_SPECTROMETRY: FRAGMENTATION_MODE HCD
AC$MASS_SPECTROMETRY: COLLISION_ENERGY 75% (nominal)
AC$MASS_SPECTROMETRY: RESOLUTION 15000
AC$CHROMATOGRAPHY: COLUMN_NAME Kinetex Evo C18 2.6 um 50x2.1 mm, Phenomenex
AC$CHROMATOGRAPHY: FLOW_GRADIENT 95/5 at 0 min, 95/5 at 1 min, 0/100 at 13 min, 0/100 at 24 min, 95/5 at 24.3 min, 95/5/0 at 32 min
AC$CHROMATOGRAPHY: FLOW_RATE 300 uL/min
AC$CHROMATOGRAPHY: RETENTION_TIME 1.041 min
AC$CHROMATOGRAPHY: SOLVENT A water with 0.1% formic acid
AC$CHROMATOGRAPHY: SOLVENT B methanol with 0.1% formic acid
MS$FOCUSED_ION: BASE_PEAK 143.0015
MS$FOCUSED_ION: PRECURSOR_M/Z 300.1805
MS$FOCUSED_ION: PRECURSOR_TYPE [M+H]+
MS$DATA_PROCESSING: RECALIBRATE loess on assigned fragments and MS1
MS$DATA_PROCESSING: REANALYZE Peaks with additional N2/O included
MS$DATA_PROCESSING: WHOLE RMassBank 2.14.1
PK$SPLASH: splash10-0a4l-6900000000-aea9475302072bda6de3
PK$ANNOTATION: m/z tentative_formula formula_count mass error(ppm)
  67.0416 C4H5N+ 1 67.0417 -0.36
  67.0542 C5H7+ 1 67.0542 -0.63
  80.0494 C5H6N+ 1 80.0495 -0.74
  82.0651 C5H8N+ 1 82.0651 0.14
  86.0601 C4H8NO+ 1 86.06 0.13
  94.0651 C6H8N+ 1 94.0651 0.01
  95.073 C6H9N+ 1 95.073 0.32
  96.0807 C6H10N+ 1 96.0808 -0.73
  108.0807 C7H10N+ 1 108.0808 -0.25
  110.0963 C7H12N+ 1 110.0964 -1.2
  112.0757 C6H10NO+ 1 112.0757 0.21
  120.0807 C8H10N+ 1 120.0808 -0.5
  138.0913 C8H12NO+ 1 138.0913 -0.29
  139.0991 C8H13NO+ 1 139.0992 -0.19
  156.1019 C8H14NO2+ 1 156.1019 0.24
PK$NUM_PEAK: 15
PK$PEAK: m/z int. rel.int.
  67.0416 2710.5 34
  67.0542 2528.5 32
  80.0494 2403.4 30
  82.0651 8365 106
  86.0601 2756 35
  94.0651 63308.7 806
  95.073 13268.1 169
  96.0807 7126.4 90
  108.0807 6707.7 85
  110.0963 1712.1 21
  112.0757 12692.1 161
  120.0807 11181.5 142
  138.0913 12870.5 163
  139.0991 9227.2 117
  156.1019 78407.7 999
//
