ACCESSION: MSBNK-NaToxAq-NA002554
RECORD_TITLE: Vincamin; LC-ESI-ITFT; MS2; CE: 25%; R=15000; [M+H]+
DATE: 2020.02.21
AUTHORS: Tobias Schulze, Martin Krauss, Helmholtz Centre for Environmental Research GmbH - UFZ, Leipzig, Germany
LICENSE: CC0
COPYRIGHT: Copyright (C) 2020 by Helmholtz Centre for Environmental Research GmbH - UFZ, Leipzig, Germany
COMMENT: CONFIDENCE Reference Standard (Level 1)
COMMENT: INTERNAL_ID 2327
CH$NAME: Vincamin
CH$NAME: Vincamine
CH$NAME: methyl (15S,17S,19S)-15-ethyl-17-hydroxy-1,11-diazapentacyclo[9.6.2.02,7.08,18.015,19]nonadeca-2,4,6,8(18)-tetraene-17-carboxylate
CH$COMPOUND_CLASS: N/A; Environmental Standard
CH$FORMULA: C21H26N2O3
CH$EXACT_MASS: 354.1943
CH$SMILES: CC[C@@]12CCCN3[C@@H]1C4=C(CC3)C5=CC=CC=C5N4[C@](C2)(C(=O)OC)O
CH$IUPAC: InChI=1S/C21H26N2O3/c1-3-20-10-6-11-22-12-9-15-14-7-4-5-8-16(14)23(17(15)18(20)22)21(25,13-20)19(24)26-2/h4-5,7-8,18,25H,3,6,9-13H2,1-2H3/t18-,20+,21+/m1/s1
CH$LINK: CAS 1617-90-9
CH$LINK: CHEBI CHEBI:9985
CH$LINK: KEGG D08677
CH$LINK: PUBCHEM CID:15376
CH$LINK: INCHIKEY RXPRRQLKFXBCSJ-GIVPXCGWSA-N
CH$LINK: CHEMSPIDER 14635
CH$LINK: COMPTOX DTXSID9040134
AC$INSTRUMENT: LTQ Orbitrap XL Thermo Scientific
AC$INSTRUMENT_TYPE: LC-ESI-ITFT
AC$MASS_SPECTROMETRY: MS_TYPE MS2
AC$MASS_SPECTROMETRY: ION_MODE POSITIVE
AC$MASS_SPECTROMETRY: IONIZATION ESI
AC$MASS_SPECTROMETRY: FRAGMENTATION_MODE HCD
AC$MASS_SPECTROMETRY: COLLISION_ENERGY 25% (nominal)
AC$MASS_SPECTROMETRY: RESOLUTION 15000
AC$CHROMATOGRAPHY: COLUMN_NAME Kinetex Evo C18 2.6 um 50x2.1 mm, Phenomenex
AC$CHROMATOGRAPHY: FLOW_GRADIENT 95/5 at 0 min, 95/5 at 1 min, 0/100 at 13 min, 0/100 at 24 min, 95/5 at 24.3 min, 95/5/0 at 32 min
AC$CHROMATOGRAPHY: FLOW_RATE 300 uL/min
AC$CHROMATOGRAPHY: RETENTION_TIME 6.604 min
AC$CHROMATOGRAPHY: SOLVENT A water with 0.1% formic acid
AC$CHROMATOGRAPHY: SOLVENT B methanol with 0.1% formic acid
MS$FOCUSED_ION: BASE_PEAK 355.2015
MS$FOCUSED_ION: PRECURSOR_M/Z 355.2016
MS$FOCUSED_ION: PRECURSOR_TYPE [M+H]+
MS$DATA_PROCESSING: RECALIBRATE loess on assigned fragments and MS1
MS$DATA_PROCESSING: REANALYZE Peaks with additional N2/O included
MS$DATA_PROCESSING: WHOLE RMassBank 2.14.1
PK$SPLASH: splash10-0a4i-0009000000-8eedab5e831035f07206
PK$ANNOTATION: m/z tentative_formula formula_count mass error(ppm)
  212.1286 C11H18NO3+ 1 212.1281 2.29
  280.1318 C18H18NO2+ 1 280.1332 -4.91
  295.1806 C19H23N2O+ 1 295.1805 0.3
  308.1646 C20H22NO2+ 1 308.1645 0.43
  310.179 C20H24NO2+ 1 310.1802 -3.59
  337.1909 C21H25N2O2+ 1 337.1911 -0.32
  355.2014 C21H27N2O3+ 1 355.2016 -0.62
PK$NUM_PEAK: 7
PK$PEAK: m/z int. rel.int.
  212.1286 1691.5 1
  280.1318 1424.6 1
  295.1806 2930.8 2
  308.1646 4110.2 3
  310.179 2043 1
  337.1909 220462.4 180
  355.2014 1223532.6 999
//
