ACCESSION: MSBNK-NaToxAq-NA000295
RECORD_TITLE: Angustifoline; LC-ESI-ITFT; MS2; CE: 40%; R=15000; [M+H]+
DATE: 2019.02.28
AUTHORS: Tobias Schulze, Jawameer Hama, Hubert Schupke, Martin Krauss, Helmholtz Centre for Environmental Research GmbH - UFZ, Leipzig, Germany and University of Copenhagen (UCPH), Denmark
LICENSE: CC BY
COPYRIGHT: Copyright (C) 2019
COMMENT: CONFIDENCE Reference Standard (Level 1)
COMMENT: INTERNAL_ID 25
CH$NAME: Angustifoline
CH$NAME: (2R,10S)-10-prop-2-enyl-7,11-diazatricyclo[7.3.1.0^{2,7}]tridecan-6-one
CH$COMPOUND_CLASS: N/A; Environmental Standard
CH$FORMULA: C14H22N2O
CH$EXACT_MASS: 234.1732
CH$SMILES: C=CC[C@@H]1NCC2CC1CN1[C@@H]2CCCC1=O
CH$IUPAC: InChI=1S/C14H22N2O/c1-2-4-12-11-7-10(8-15-12)13-5-3-6-14(17)16(13)9-11/h2,10-13,15H,1,3-9H2/t10?,11?,12-,13+/m0/s1
CH$LINK: CAS 550-43-6
CH$LINK: CHEBI CHEBI:2724
CH$LINK: KEGG C10751
CH$LINK: PUBCHEM CID:102004777
CH$LINK: INCHIKEY VTIPIBIDDZPDAV-IFWUJCSASA-N
CH$LINK: CHEMSPIDER 24536360
AC$INSTRUMENT: LTQ Orbitrap XL Thermo Scientific
AC$INSTRUMENT_TYPE: LC-ESI-ITFT
AC$MASS_SPECTROMETRY: MS_TYPE MS2
AC$MASS_SPECTROMETRY: ION_MODE POSITIVE
AC$MASS_SPECTROMETRY: IONIZATION ESI
AC$MASS_SPECTROMETRY: FRAGMENTATION_MODE CID
AC$MASS_SPECTROMETRY: COLLISION_ENERGY 40 % (nominal)
AC$MASS_SPECTROMETRY: RESOLUTION 15000
AC$CHROMATOGRAPHY: COLUMN_NAME Synergi Polar RP, 2.5 um 100x3.0 mm, Phenomenex
AC$CHROMATOGRAPHY: FLOW_GRADIENT 95/5/0 at 0 min, 95/5/0 at 2 min, 5/95/0 at 8 min, 5/80/15 at 12 min, 5/25/70 at 19 min, 3/2/95 at 19.5 min, 3/2/95 at 22 min, 95/5/0 at 23 min, 95/5/0 at 28 min
AC$CHROMATOGRAPHY: FLOW_RATE 400 uL/min
AC$CHROMATOGRAPHY: RETENTION_TIME 7.394 min
AC$CHROMATOGRAPHY: SOLVENT A water with 0.1% formic acid
AC$CHROMATOGRAPHY: SOLVENT B methanol with 0.1% formic acid
MS$FOCUSED_ION: BASE_PEAK 236.0738
MS$FOCUSED_ION: PRECURSOR_M/Z 235.1805
MS$FOCUSED_ION: PRECURSOR_TYPE [M+H]+
MS$DATA_PROCESSING: RECALIBRATE loess on assigned fragments and MS1
MS$DATA_PROCESSING: REANALYZE Peaks with additional N2/O included
MS$DATA_PROCESSING: WHOLE RMassBank 2.11.0
PK$SPLASH: splash10-0006-0920000000-7432671fb72ff31ea9f4
PK$ANNOTATION: m/z tentative_formula formula_count mass error(ppm)
  84.0807 C5H10N+ 1 84.0808 -1.46
  86.0965 C5H12N+ 1 86.0964 0.95
  94.0652 C6H8N+ 1 94.0651 0.51
  98.0964 C6H12N+ 1 98.0964 -0.41
  112.0756 C6H10NO+ 1 112.0757 -0.68
  114.0913 C6H12NO+ 1 114.0913 -0.6
  122.0963 C8H12N+ 1 122.0964 -0.93
  136.112 C9H14N+ 1 136.1121 -0.65
  138.1276 C9H16N+ 1 138.1277 -0.93
  150.0912 C9H12NO+ 1 150.0913 -0.78
  166.1224 C10H16NO+ 1 166.1226 -1.25
  192.1383 C12H18NO+ 1 192.1383 0.29
  193.1334 C11H17N2O+ 1 193.1335 -0.48
  206.154 C13H20NO+ 1 206.1539 0.2
  217.1698 C14H21N2+ 1 217.1699 -0.56
PK$NUM_PEAK: 15
PK$PEAK: m/z int. rel.int.
  84.0807 3266.2 6
  86.0965 4792.3 9
  94.0652 7688.4 15
  98.0964 5030.7 9
  112.0756 38351.2 75
  114.0913 2457.7 4
  122.0963 2805.8 5
  136.112 75620.3 148
  138.1276 19531.9 38
  150.0912 45982.8 90
  166.1224 7772.6 15
  192.1383 16954.2 33
  193.1334 507898.4 999
  206.154 13428.4 26
  217.1698 180111.5 354
//
