ACCESSION: MSBNK-NaToxAq-NA001610
RECORD_TITLE: Matairesinol; LC-ESI-ITFT; MS2; CE: 60%; R=15000; [M+H]+
DATE: 2019.07.31
AUTHORS: Tobias Schulze, Vaidotas Kisielius, Xiaomeng Liang, Mulatu Yohannes Nanusha, Martin Krauss, Helmholtz Centre for Environmental Research GmbH - UFZ, Leipzig, Germany and University of Copenhagen (UCPH), Denmark
LICENSE: CC BY
COPYRIGHT: Copyright (C) 2019
COMMENT: CONFIDENCE Reference Standard (Level 1)
COMMENT: INTERNAL_ID 17
CH$NAME: Matairesinol
CH$COMPOUND_CLASS: N/A; Environmental Standard
CH$FORMULA: C20H22O6
CH$EXACT_MASS: 358.1416
CH$SMILES: COC1=CC(C[C@H]2COC(=O)[C@@H]2CC2=CC=C(O)C(OC)=C2)=CC=C1O
CH$IUPAC: InChI=1S/C20H22O6/c1-24-18-9-12(3-5-16(18)21)7-14-11-26-20(23)15(14)8-13-4-6-17(22)19(10-13)25-2/h3-6,9-10,14-15,21-22H,7-8,11H2,1-2H3/t14-,15+/m0/s1
CH$LINK: INCHIKEY MATGKVZWFZHCLI-LSDHHAIUSA-N
CH$LINK: PUBCHEM CID:119205
CH$LINK: COMPTOX DTXSID40920490
AC$INSTRUMENT: LTQ Orbitrap XL Thermo Scientific
AC$INSTRUMENT_TYPE: LC-ESI-ITFT
AC$MASS_SPECTROMETRY: MS_TYPE MS2
AC$MASS_SPECTROMETRY: ION_MODE POSITIVE
AC$MASS_SPECTROMETRY: IONIZATION ESI
AC$MASS_SPECTROMETRY: FRAGMENTATION_MODE CID
AC$MASS_SPECTROMETRY: COLLISION_ENERGY 60 % (nominal)
AC$MASS_SPECTROMETRY: RESOLUTION 15000
AC$CHROMATOGRAPHY: COLUMN_NAME Kinetex Evo C18 2.6 um 50x2.1 mm, Phenomenex
AC$CHROMATOGRAPHY: FLOW_GRADIENT 95/5 at 0 min, 95/5 at 1 min, 0/100 at 13 min, 0/100 at 24 min, 95/5 at 24.3 min, 95/5/0 at 32 min
AC$CHROMATOGRAPHY: FLOW_RATE 300 uL/min
AC$CHROMATOGRAPHY: RETENTION_TIME 9.296 min
AC$CHROMATOGRAPHY: SOLVENT A water with 0.1% formic acid
AC$CHROMATOGRAPHY: SOLVENT B methanol with 0.1% formic acid
MS$FOCUSED_ION: BASE_PEAK 147.0803
MS$FOCUSED_ION: PRECURSOR_M/Z 359.1489
MS$FOCUSED_ION: PRECURSOR_TYPE [M+H]+
MS$DATA_PROCESSING: RECALIBRATE loess on assigned fragments and MS1
MS$DATA_PROCESSING: REANALYZE Peaks with additional N2/O included
MS$DATA_PROCESSING: WHOLE RMassBank 2.12.0
PK$SPLASH: splash10-0006-0349000000-4c2f075c8156c17ef756
PK$ANNOTATION: m/z tentative_formula formula_count mass error(ppm)
  122.0362 C7H6O2+ 1 122.0362 -0.04
  131.0492 C9H7O+ 1 131.0491 0.17
  137.0597 C8H9O2+ 1 137.0597 -0.1
  145.0648 C10H9O+ 1 145.0648 0.32
  149.0599 C9H9O2+ 1 149.0597 1.4
  151.039 C8H7O3+ 1 151.039 0.1
  151.0756 C9H11O2+ 1 151.0754 1.66
  163.0754 C10H11O2+ 1 163.0754 0.25
  177.0554 C10H9O3+ 1 177.0546 4.66
  177.091 C11H13O2+ 1 177.091 -0.13
  179.0703 C10H11O3+ 1 179.0703 0.35
  189.0917 C12H13O2+ 1 189.091 3.86
  191.0702 C11H11O3+ 1 191.0703 -0.14
  203.0703 C12H11O3+ 1 203.0703 0.22
  205.0859 C12H13O3+ 1 205.0859 -0.01
  217.0858 C13H13O3+ 1 217.0859 -0.4
  221.0808 C12H13O4+ 1 221.0808 -0.19
  223.0963 C12H15O4+ 1 223.0965 -0.62
  235.0964 C13H15O4+ 1 235.0965 -0.55
  263.1067 C18H15O2+ 1 263.1067 -0.01
  281.117 C18H17O3+ 1 281.1172 -0.95
  291.1015 C19H15O3+ 1 291.1016 -0.11
  295.1325 C19H19O3+ 1 295.1329 -1.22
  305.1171 C20H17O3+ 1 305.1172 -0.41
  309.112 C19H17O4+ 1 309.1121 -0.44
  323.1276 C20H19O4+ 1 323.1278 -0.52
  341.1382 C20H21O5+ 1 341.1384 -0.35
PK$NUM_PEAK: 27
PK$PEAK: m/z int. rel.int.
  122.0362 13618.7 15
  131.0492 13604.1 15
  137.0597 322828 371
  145.0648 4259.5 4
  149.0599 3087.8 3
  151.039 26069.9 29
  151.0756 1763.2 2
  163.0754 46257.3 53
  177.0554 1638.4 1
  177.091 8731.9 10
  179.0703 6860.4 7
  189.0917 2504 2
  191.0702 37630.4 43
  203.0703 31770.5 36
  205.0859 55075.2 63
  217.0858 14037.5 16
  221.0808 26026.5 29
  223.0963 257473.2 296
  235.0964 92241.7 106
  263.1067 5082.3 5
  281.117 6275.7 7
  291.1015 60669.6 69
  295.1325 12690.8 14
  305.1171 49711.9 57
  309.112 23187.6 26
  323.1276 164754 189
  341.1382 868476.7 999
//
