ACCESSION: MSBNK-NaToxAq-NA003114
RECORD_TITLE: Lycopsamine; LC-ESI-ITFT; MS2; CE: 60%; R=15000; [M+H]+
DATE: 2020.02.22
AUTHORS: Tobias Schulze, Martin Krauss, Helmholtz Centre for Environmental Research GmbH - UFZ, Leipzig, Germany
LICENSE: CC0
COPYRIGHT: Copyright (C) 2020 by Helmholtz Centre for Environmental Research GmbH - UFZ, Leipzig, Germany
COMMENT: CONFIDENCE Reference Standard (Level 1)
COMMENT: INTERNAL_ID 2270
CH$NAME: Lycopsamine
CH$NAME: [(7R,8R)-7-hydroxy-5,6,7,8-tetrahydro-3H-pyrrolizin-1-yl]methyl (2S)-2-hydroxy-2-[(1S)-1-hydroxyethyl]-3-methylbutanoate
CH$COMPOUND_CLASS: N/A; Environmental Standard
CH$FORMULA: C15H25NO5
CH$EXACT_MASS: 299.1733
CH$SMILES: C[C@@H]([C@@](C(C)C)(C(=O)OCC1=CCN2[C@H]1[C@@H](CC2)O)O)O
CH$IUPAC: InChI=1S/C15H25NO5/c1-9(2)15(20,10(3)17)14(19)21-8-11-4-6-16-7-5-12(18)13(11)16/h4,9-10,12-13,17-18,20H,5-8H2,1-3H3/t10-,12+,13+,15-/m0/s1
CH$LINK: CAS 10285-07-1
CH$LINK: CHEBI CHEBI:6598
CH$LINK: KEGG C10347
CH$LINK: PUBCHEM CID:107938
CH$LINK: INCHIKEY SFVVQRJOGUKCEG-ZGFBFQLVSA-N
CH$LINK: CHEMSPIDER 97061
CH$LINK: COMPTOX DTXSID60145542
AC$INSTRUMENT: LTQ Orbitrap XL Thermo Scientific
AC$INSTRUMENT_TYPE: LC-ESI-ITFT
AC$MASS_SPECTROMETRY: MS_TYPE MS2
AC$MASS_SPECTROMETRY: ION_MODE POSITIVE
AC$MASS_SPECTROMETRY: IONIZATION ESI
AC$MASS_SPECTROMETRY: FRAGMENTATION_MODE HCD
AC$MASS_SPECTROMETRY: COLLISION_ENERGY 60% (nominal)
AC$MASS_SPECTROMETRY: RESOLUTION 15000
AC$CHROMATOGRAPHY: COLUMN_NAME Kinetex Evo C18 2.6 um 50x2.1 mm, Phenomenex
AC$CHROMATOGRAPHY: FLOW_GRADIENT 95/5 at 0 min, 95/5 at 1 min, 0/100 at 13 min, 0/100 at 24 min, 95/5 at 24.3 min, 95/5/0 at 32 min
AC$CHROMATOGRAPHY: FLOW_RATE 300 uL/min
AC$CHROMATOGRAPHY: RETENTION_TIME 1.041 min
AC$CHROMATOGRAPHY: SOLVENT A water with 0.1% formic acid
AC$CHROMATOGRAPHY: SOLVENT B methanol with 0.1% formic acid
MS$FOCUSED_ION: BASE_PEAK 143.0015
MS$FOCUSED_ION: PRECURSOR_M/Z 300.1805
MS$FOCUSED_ION: PRECURSOR_TYPE [M+H]+
MS$DATA_PROCESSING: RECALIBRATE loess on assigned fragments and MS1
MS$DATA_PROCESSING: REANALYZE Peaks with additional N2/O included
MS$DATA_PROCESSING: WHOLE RMassBank 2.14.1
PK$SPLASH: splash10-0a4u-5900000000-a779126d3f8182cfde9e
PK$ANNOTATION: m/z tentative_formula formula_count mass error(ppm)
  67.0415 C4H5N+ 1 67.0417 -2.29
  67.0541 C5H7+ 1 67.0542 -1.99
  73.0649 C4H9O+ 1 73.0648 1.54
  80.0495 C5H6N+ 1 80.0495 -0.26
  82.0651 C5H8N+ 1 82.0651 -0.14
  86.06 C4H8NO+ 1 86.06 0.04
  94.0651 C6H8N+ 1 94.0651 -0.4
  95.0729 C6H9N+ 1 95.073 -0.81
  96.0807 C6H10N+ 1 96.0808 -0.49
  108.0807 C7H10N+ 1 108.0808 -0.46
  110.0962 C7H12N+ 1 110.0964 -1.82
  112.0756 C6H10NO+ 1 112.0757 -0.74
  120.0807 C8H10N+ 1 120.0808 -0.37
  138.0913 C8H12NO+ 1 138.0913 -0.29
  139.0991 C8H13NO+ 1 139.0992 -0.3
  156.1019 C8H14NO2+ 1 156.1019 -0.05
  300.1807 C15H26NO5+ 1 300.1805 0.48
PK$NUM_PEAK: 17
PK$PEAK: m/z int. rel.int.
  67.0415 2367.5 12
  67.0541 2535.9 13
  73.0649 1514 8
  80.0495 2070.5 11
  82.0651 10631.2 56
  86.06 2496 13
  94.0651 172734.6 920
  95.0729 12522.7 66
  96.0807 12969.7 69
  108.0807 3583.1 19
  110.0962 1773.3 9
  112.0756 7504.7 39
  120.0807 34230.6 182
  138.0913 63626.2 338
  139.0991 40038.3 213
  156.1019 187513.3 999
  300.1807 15519.4 82
//
