ACCESSION: MSBNK-NaToxAq-NA003749
RECORD_TITLE: Adenine; LC-ESI-ITFT; MS2; CE: 95%; R=15000; [M+H]+
DATE: 2020.02.22
AUTHORS: Tobias Schulze, Martin Krauss, Helmholtz Centre for Environmental Research GmbH - UFZ, Leipzig, Germany
LICENSE: CC0
COPYRIGHT: Copyright (C) 2020 by Helmholtz Centre for Environmental Research GmbH - UFZ, Leipzig, Germany
COMMENT: CONFIDENCE Reference Standard (Level 1)
COMMENT: INTERNAL_ID 2357
CH$NAME: Adenine
CH$NAME: 7H-purin-6-amine
CH$COMPOUND_CLASS: N/A; Environmental Standard
CH$FORMULA: C5H5N5
CH$EXACT_MASS: 135.0545
CH$SMILES: NC1=C2N=CNC2=NC=N1
CH$IUPAC: InChI=1S/C5H5N5/c6-4-3-5(9-1-7-3)10-2-8-4/h1-2H,(H3,6,7,8,9,10)
CH$LINK: CAS 73-24-5
CH$LINK: CHEBI CHEBI:16708
CH$LINK: KEGG D00034
CH$LINK: PUBCHEM CID:190
CH$LINK: INCHIKEY GFFGJBXGBJISGV-UHFFFAOYSA-N
CH$LINK: CHEMSPIDER 185
CH$LINK: COMPTOX DTXSID6022557
AC$INSTRUMENT: LTQ Orbitrap XL Thermo Scientific
AC$INSTRUMENT_TYPE: LC-ESI-ITFT
AC$MASS_SPECTROMETRY: MS_TYPE MS2
AC$MASS_SPECTROMETRY: ION_MODE POSITIVE
AC$MASS_SPECTROMETRY: IONIZATION ESI
AC$MASS_SPECTROMETRY: FRAGMENTATION_MODE HCD
AC$MASS_SPECTROMETRY: COLLISION_ENERGY 95% (nominal)
AC$MASS_SPECTROMETRY: RESOLUTION 15000
AC$CHROMATOGRAPHY: COLUMN_NAME Kinetex Evo C18 2.6 um 50x2.1 mm, Phenomenex
AC$CHROMATOGRAPHY: FLOW_GRADIENT 95/5 at 0 min, 95/5 at 1 min, 0/100 at 13 min, 0/100 at 24 min, 95/5 at 24.3 min, 95/5/0 at 32 min
AC$CHROMATOGRAPHY: FLOW_RATE 300 uL/min
AC$CHROMATOGRAPHY: RETENTION_TIME 0.712 min
AC$CHROMATOGRAPHY: SOLVENT A water with 0.1% formic acid
AC$CHROMATOGRAPHY: SOLVENT B methanol with 0.1% formic acid
MS$FOCUSED_ION: BASE_PEAK 136.0616
MS$FOCUSED_ION: PRECURSOR_M/Z 136.0618
MS$FOCUSED_ION: PRECURSOR_TYPE [M+H]+
MS$DATA_PROCESSING: RECALIBRATE loess on assigned fragments and MS1
MS$DATA_PROCESSING: REANALYZE Peaks with additional N2/O included
MS$DATA_PROCESSING: WHOLE RMassBank 2.14.1
PK$SPLASH: splash10-014r-1900000000-7292953d996fbc6f681a
PK$ANNOTATION: m/z tentative_formula formula_count mass error(ppm)
  67.029 C3H3N2+ 1 67.0291 -0.38
  82.0398 C3H4N3+ 1 82.04 -1.77
  92.0242 C4H2N3+ 1 92.0243 -0.8
  94.04 C4H4N3+ 1 94.04 0.25
  109.0509 C4H5N4+ 1 109.0509 0.05
  119.0352 C5H3N4+ 1 119.0352 -0.53
  136.0617 C5H6N5+ 1 136.0618 -0.25
PK$NUM_PEAK: 7
PK$PEAK: m/z int. rel.int.
  67.029 4135.5 23
  82.0398 1491.8 8
  92.0242 14420.8 80
  94.04 20107.4 112
  109.0509 10085 56
  119.0352 179124.8 999
  136.0617 128421.7 716
//
