ACCESSION: MSBNK-NaToxAq-NA002481
RECORD_TITLE: Aconitin; LC-ESI-ITFT; MS2; CE: 20%; R=15000; [M+H]+
DATE: 2020.02.21
AUTHORS: Tobias Schulze, Martin Krauss, Helmholtz Centre for Environmental Research GmbH - UFZ, Leipzig, Germany
LICENSE: CC0
COPYRIGHT: Copyright (C) 2020 by Helmholtz Centre for Environmental Research GmbH - UFZ, Leipzig, Germany
COMMENT: CONFIDENCE Reference Standard (Level 1)
COMMENT: INTERNAL_ID 2309
CH$NAME: Aconitin
CH$NAME: Aconitine
CH$NAME: [(1S,2R,3R,4R,5R,6S,7S,8R,9R,13R,14R,16S,17S,18R)-8-acetyloxy-11-ethyl-5,7,14-trihydroxy-6,16,18-trimethoxy-13-(methoxymethyl)-11-azahexacyclo[7.7.2.12,5.01,10.03,8.013,17]nonadecan-4-yl] benzoate
CH$COMPOUND_CLASS: N/A; Environmental Standard
CH$FORMULA: C34H47NO11
CH$EXACT_MASS: 645.3149
CH$SMILES: CCN1C[C@@]2([C@@H](C[C@@H]([C@@]34[C@@H]2[C@H]([C@@H](C31)[C@@]5([C@@H]6[C@H]4C[C@@]([C@@H]6OC(=O)C7=CC=CC=C7)([C@H]([C@@H]5O)OC)O)OC(=O)C)OC)OC)O)COC
CH$IUPAC: InChI=1S/C34H47NO11/c1-7-35-15-31(16-41-3)20(37)13-21(42-4)33-19-14-32(40)28(45-30(39)18-11-9-8-10-12-18)22(19)34(46-17(2)36,27(38)29(32)44-6)23(26(33)35)24(43-5)25(31)33/h8-12,19-29,37-38,40H,7,13-16H2,1-6H3/t19-,20-,21+,22-,23+,24+,25-,26?,27+,28-,29+,31+,32-,33+,34-/m1/s1
CH$LINK: CAS 302-27-2
CH$LINK: CHEBI CHEBI:2430
CH$LINK: KEGG C06091
CH$LINK: PUBCHEM CID:245005
CH$LINK: INCHIKEY XFSBVAOIAHNAPC-XTHSEXKGSA-N
CH$LINK: CHEMSPIDER 214292
CH$LINK: COMPTOX DTXSID4046319
AC$INSTRUMENT: LTQ Orbitrap XL Thermo Scientific
AC$INSTRUMENT_TYPE: LC-ESI-ITFT
AC$MASS_SPECTROMETRY: MS_TYPE MS2
AC$MASS_SPECTROMETRY: ION_MODE POSITIVE
AC$MASS_SPECTROMETRY: IONIZATION ESI
AC$MASS_SPECTROMETRY: FRAGMENTATION_MODE HCD
AC$MASS_SPECTROMETRY: COLLISION_ENERGY 20% (nominal)
AC$MASS_SPECTROMETRY: RESOLUTION 15000
AC$CHROMATOGRAPHY: COLUMN_NAME Kinetex Evo C18 2.6 um 50x2.1 mm, Phenomenex
AC$CHROMATOGRAPHY: FLOW_GRADIENT 95/5 at 0 min, 95/5 at 1 min, 0/100 at 13 min, 0/100 at 24 min, 95/5 at 24.3 min, 95/5/0 at 32 min
AC$CHROMATOGRAPHY: FLOW_RATE 300 uL/min
AC$CHROMATOGRAPHY: RETENTION_TIME 9.717 min
AC$CHROMATOGRAPHY: SOLVENT A water with 0.1% formic acid
AC$CHROMATOGRAPHY: SOLVENT B methanol with 0.1% formic acid
MS$FOCUSED_ION: BASE_PEAK 646.3225
MS$FOCUSED_ION: PRECURSOR_M/Z 646.3222
MS$FOCUSED_ION: PRECURSOR_TYPE [M+H]+
MS$DATA_PROCESSING: RECALIBRATE loess on assigned fragments and MS1
MS$DATA_PROCESSING: REANALYZE Peaks with additional N2/O included
MS$DATA_PROCESSING: WHOLE RMassBank 2.14.1
PK$SPLASH: splash10-0002-0000009000-e82db7cb230fd7d8d5ce
PK$ANNOTATION: m/z tentative_formula formula_count mass error(ppm)
  586.3008 C32H44NO9+ 1 586.3011 -0.47
  646.3217 C34H48NO11+ 1 646.3222 -0.73
PK$NUM_PEAK: 2
PK$PEAK: m/z int. rel.int.
  586.3008 2018.1 12
  646.3217 167967.8 999
//
