ACCESSION: MSBNK-NaToxAq-NA001572
RECORD_TITLE: Alpinetin; LC-ESI-ITFT; MS2; CE: 70%; R=15000; [M+H]+
DATE: 2019.07.31
AUTHORS: Tobias Schulze, Vaidotas Kisielius, Xiaomeng Liang, Mulatu Yohannes Nanusha, Martin Krauss, Helmholtz Centre for Environmental Research GmbH - UFZ, Leipzig, Germany and University of Copenhagen (UCPH), Denmark
LICENSE: CC BY
COPYRIGHT: Copyright (C) 2019
COMMENT: CONFIDENCE Reference Standard (Level 1)
COMMENT: INTERNAL_ID 7
CH$NAME: Alpinetin
CH$COMPOUND_CLASS: N/A; Environmental Standard
CH$FORMULA: C16H14O4
CH$EXACT_MASS: 270.0892
CH$SMILES: COC1=C2C(=O)CC(OC2=CC(=C1)O)C3=CC=CC=C3
CH$IUPAC: InChI=1S/C16H14O4/c1-19-14-7-11(17)8-15-16(14)12(18)9-13(20-15)10-5-3-2-4-6-10/h2-8,13,17H,9H2,1H3
CH$LINK: INCHIKEY QQQCWVDPMPFUGF-UHFFFAOYSA-N
CH$LINK: PUBCHEM CID:4053302
CH$LINK: COMPTOX DTXSID30398801
AC$INSTRUMENT: LTQ Orbitrap XL Thermo Scientific
AC$INSTRUMENT_TYPE: LC-ESI-ITFT
AC$MASS_SPECTROMETRY: MS_TYPE MS2
AC$MASS_SPECTROMETRY: ION_MODE POSITIVE
AC$MASS_SPECTROMETRY: IONIZATION ESI
AC$MASS_SPECTROMETRY: FRAGMENTATION_MODE CID
AC$MASS_SPECTROMETRY: COLLISION_ENERGY 70 % (nominal)
AC$MASS_SPECTROMETRY: RESOLUTION 15000
AC$CHROMATOGRAPHY: COLUMN_NAME Kinetex Evo C18 2.6 um 50x2.1 mm, Phenomenex
AC$CHROMATOGRAPHY: FLOW_GRADIENT 95/5 at 0 min, 95/5 at 1 min, 0/100 at 13 min, 0/100 at 24 min, 95/5 at 24.3 min, 95/5/0 at 32 min
AC$CHROMATOGRAPHY: FLOW_RATE 300 uL/min
AC$CHROMATOGRAPHY: RETENTION_TIME 10.247 min
AC$CHROMATOGRAPHY: SOLVENT A water with 0.1% formic acid
AC$CHROMATOGRAPHY: SOLVENT B methanol with 0.1% formic acid
MS$FOCUSED_ION: BASE_PEAK 271.0964
MS$FOCUSED_ION: PRECURSOR_M/Z 271.0965
MS$FOCUSED_ION: PRECURSOR_TYPE [M+H]+
MS$DATA_PROCESSING: RECALIBRATE loess on assigned fragments and MS1
MS$DATA_PROCESSING: REANALYZE Peaks with additional N2/O included
MS$DATA_PROCESSING: WHOLE RMassBank 2.12.0
PK$SPLASH: splash10-014i-0900000000-c84d7658a49cec038f7f
PK$ANNOTATION: m/z tentative_formula formula_count mass error(ppm)
  91.0542 C7H7+ 1 91.0542 0.15
  103.0543 C8H7+ 1 103.0542 0.92
  131.0492 C9H7O+ 1 131.0491 0.52
  152.0107 C7H4O4+ 1 152.0104 1.75
  165.0549 C9H9O3+ 1 165.0546 1.96
  167.0339 C8H7O4+ 1 167.0339 0.24
  169.0649 C12H9O+ 1 169.0648 0.53
  193.0497 C10H9O4+ 1 193.0495 0.77
  197.0597 C13H9O2+ 1 197.0597 -0.15
  201.0911 C13H13O2+ 1 201.091 0.27
  203.1068 C13H15O2+ 1 203.1067 0.86
  211.0756 C14H11O2+ 1 211.0754 0.97
  225.0912 C15H13O2+ 1 225.091 0.71
  227.1067 C15H15O2+ 1 227.1067 0.14
  229.086 C14H13O3+ 1 229.0859 0.5
  239.0704 C15H11O3+ 1 239.0703 0.49
  253.0862 C16H13O3+ 1 253.0859 1.01
PK$NUM_PEAK: 17
PK$PEAK: m/z int. rel.int.
  91.0542 13812.3 1
  103.0543 33091.9 3
  131.0492 559908.4 54
  152.0107 28193.2 2
  165.0549 13222.7 1
  167.0339 10352482 999
  169.0649 11221.6 1
  193.0497 13450.8 1
  197.0597 12800.6 1
  201.0911 21509.5 2
  203.1068 46342.8 4
  211.0756 12214.4 1
  225.0912 18721.7 1
  227.1067 12208.7 1
  229.086 970340.3 93
  239.0704 22065.6 2
  253.0862 119925 11
//
