ACCESSION: MSBNK-NaToxAq-NA002863
RECORD_TITLE: Echimidine; LC-ESI-ITFT; MS2; CE: 55%; R=15000; [M+H]+
DATE: 2020.02.21
AUTHORS: Tobias Schulze, Martin Krauss, Helmholtz Centre for Environmental Research GmbH - UFZ, Leipzig, Germany
LICENSE: CC0
COPYRIGHT: Copyright (C) 2020 by Helmholtz Centre for Environmental Research GmbH - UFZ, Leipzig, Germany
COMMENT: CONFIDENCE Reference Standard (Level 1)
COMMENT: INTERNAL_ID 2304
CH$NAME: Echimidine
CH$NAME: [(7R,8R)-7-[(Z)-2-methylbut-2-enoyl]oxy-5,6,7,8-tetrahydro-3H-pyrrolizin-1-yl]methyl (2R)-2,3-dihydroxy-2-[(1S)-1-hydroxyethyl]-3-methylbutanoate
CH$COMPOUND_CLASS: N/A; Environmental Standard
CH$FORMULA: C20H31NO7
CH$EXACT_MASS: 397.2101
CH$SMILES: C/C=C(/C)\C(=O)O[C@@H]1CCN2[C@@H]1C(=CC2)COC(=O)[C@@]([C@H](C)O)(C(C)(C)O)O
CH$IUPAC: InChI=1S/C20H31NO7/c1-6-12(2)17(23)28-15-8-10-21-9-7-14(16(15)21)11-27-18(24)20(26,13(3)22)19(4,5)25/h6-7,13,15-16,22,25-26H,8-11H2,1-5H3/b12-6-/t13-,15+,16+,20-/m0/s1
CH$LINK: CAS 520-68-3
CH$LINK: CHEBI CHEBI:4744
CH$LINK: KEGG C10299
CH$LINK: PUBCHEM CID:5281729
CH$LINK: INCHIKEY HRSGCYGUWHGOPY-LYHHMGRNSA-N
CH$LINK: CHEMSPIDER 4445044
AC$INSTRUMENT: LTQ Orbitrap XL Thermo Scientific
AC$INSTRUMENT_TYPE: LC-ESI-ITFT
AC$MASS_SPECTROMETRY: MS_TYPE MS2
AC$MASS_SPECTROMETRY: ION_MODE POSITIVE
AC$MASS_SPECTROMETRY: IONIZATION ESI
AC$MASS_SPECTROMETRY: FRAGMENTATION_MODE HCD
AC$MASS_SPECTROMETRY: COLLISION_ENERGY 55% (nominal)
AC$MASS_SPECTROMETRY: RESOLUTION 15000
AC$CHROMATOGRAPHY: COLUMN_NAME Kinetex Evo C18 2.6 um 50x2.1 mm, Phenomenex
AC$CHROMATOGRAPHY: FLOW_GRADIENT 95/5 at 0 min, 95/5 at 1 min, 0/100 at 13 min, 0/100 at 24 min, 95/5 at 24.3 min, 95/5/0 at 32 min
AC$CHROMATOGRAPHY: FLOW_RATE 300 uL/min
AC$CHROMATOGRAPHY: RETENTION_TIME 6.481 min
AC$CHROMATOGRAPHY: SOLVENT A water with 0.1% formic acid
AC$CHROMATOGRAPHY: SOLVENT B methanol with 0.1% formic acid
MS$FOCUSED_ION: BASE_PEAK 398.2173
MS$FOCUSED_ION: PRECURSOR_M/Z 398.2173
MS$FOCUSED_ION: PRECURSOR_TYPE [M+H]+
MS$DATA_PROCESSING: RECALIBRATE loess on assigned fragments and MS1
MS$DATA_PROCESSING: REANALYZE Peaks with additional N2/O included
MS$DATA_PROCESSING: WHOLE RMassBank 2.14.1
PK$SPLASH: splash10-00di-2900000000-64f2eef935c11a3d574d
PK$ANNOTATION: m/z tentative_formula formula_count mass error(ppm)
  55.0541 C4H7+ 1 55.0542 -3.08
  79.0543 C6H7+ 1 79.0542 0.71
  80.0495 C5H6N+ 1 80.0495 -0.32
  83.0491 C5H7O+ 1 83.0491 -0.08
  91.0542 C7H7+ 1 91.0542 0.06
  93.0699 C7H9+ 1 93.0699 0.35
  94.0651 C6H8N+ 1 94.0651 -0.12
  103.0542 C8H7+ 1 103.0542 -0.38
  108.0808 C7H10N+ 1 108.0808 -0.03
  120.0808 C8H10N+ 1 120.0808 -0.18
  121.0885 C8H11N+ 1 121.0886 -0.68
  122.096 C8H12N+ 1 122.0964 -3.11
  138.0913 C8H12NO+ 1 138.0913 -0.25
  156.1018 C8H14NO2+ 1 156.1019 -0.81
  174.1279 C12H16N+ 1 174.1277 0.83
  220.1334 C13H18NO2+ 1 220.1332 0.69
  221.1412 C13H19NO2+ 1 221.141 0.75
  222.1487 C13H20NO2+ 1 222.1489 -0.9
  238.1437 C13H20NO3+ 1 238.1438 -0.1
PK$NUM_PEAK: 19
PK$PEAK: m/z int. rel.int.
  55.0541 43555.5 66
  79.0543 2470.1 3
  80.0495 1956.5 2
  83.0491 151243.4 229
  91.0542 3061.4 4
  93.0699 5804 8
  94.0651 7854.3 11
  103.0542 3480 5
  108.0808 5448.4 8
  120.0808 657708.2 999
  121.0885 14855.4 22
  122.096 2481.8 3
  138.0913 24170 36
  156.1018 2650.1 4
  174.1279 8260.6 12
  220.1334 4829.9 7
  221.1412 4897.3 7
  222.1487 1604.1 2
  238.1437 39010.4 59
//
