ACCESSION: MSBNK-NaToxAq-NA000300
RECORD_TITLE: Lupinine; LC-ESI-ITFT; MS2; CE: 40%; R=15000; [M+H]+
DATE: 2019.02.28
AUTHORS: Tobias Schulze, Jawameer Hama, Hubert Schupke, Martin Krauss, Helmholtz Centre for Environmental Research GmbH - UFZ, Leipzig, Germany and University of Copenhagen (UCPH), Denmark
LICENSE: CC BY
COPYRIGHT: Copyright (C) 2019
COMMENT: CONFIDENCE Reference Standard (Level 1)
COMMENT: INTERNAL_ID 26
CH$NAME: Lupinine
CH$NAME: [(1R,9aR)-2,3,4,6,7,8,9,9a-octahydro-1H-quinolizin-1-yl]methanol
CH$COMPOUND_CLASS: N/A; Environmental Standard
CH$FORMULA: C10H19NO
CH$EXACT_MASS: 169.1467
CH$SMILES: OC[C@@H]1CCCN2CCCC[C@H]12
CH$IUPAC: InChI=1S/C10H19NO/c12-8-9-4-3-7-11-6-2-1-5-10(9)11/h9-10,12H,1-8H2/t9-,10+/m0/s1
CH$LINK: CAS 486-70-4
CH$LINK: CHEBI CHEBI:28012
CH$LINK: KEGG C10773
CH$LINK: PUBCHEM CID:91461
CH$LINK: INCHIKEY HDVAWXXJVMJBAR-VHSXEESVSA-N
CH$LINK: CHEMSPIDER 82587
CH$LINK: COMPTOX DTXSID00197565
AC$INSTRUMENT: LTQ Orbitrap XL Thermo Scientific
AC$INSTRUMENT_TYPE: LC-ESI-ITFT
AC$MASS_SPECTROMETRY: MS_TYPE MS2
AC$MASS_SPECTROMETRY: ION_MODE POSITIVE
AC$MASS_SPECTROMETRY: IONIZATION ESI
AC$MASS_SPECTROMETRY: FRAGMENTATION_MODE CID
AC$MASS_SPECTROMETRY: COLLISION_ENERGY 40 % (nominal)
AC$MASS_SPECTROMETRY: RESOLUTION 15000
AC$CHROMATOGRAPHY: COLUMN_NAME Synergi Polar RP, 2.5 um 100x3.0 mm, Phenomenex
AC$CHROMATOGRAPHY: FLOW_GRADIENT 95/5/0 at 0 min, 95/5/0 at 2 min, 5/95/0 at 8 min, 5/80/15 at 12 min, 5/25/70 at 19 min, 3/2/95 at 19.5 min, 3/2/95 at 22 min, 95/5/0 at 23 min, 95/5/0 at 28 min
AC$CHROMATOGRAPHY: FLOW_RATE 400 uL/min
AC$CHROMATOGRAPHY: RETENTION_TIME 3.877 min
AC$CHROMATOGRAPHY: SOLVENT A water with 0.1% formic acid
AC$CHROMATOGRAPHY: SOLVENT B methanol with 0.1% formic acid
MS$FOCUSED_ION: BASE_PEAK 236.0739
MS$FOCUSED_ION: PRECURSOR_M/Z 170.1539
MS$FOCUSED_ION: PRECURSOR_TYPE [M+H]+
MS$DATA_PROCESSING: RECALIBRATE loess on assigned fragments and MS1
MS$DATA_PROCESSING: REANALYZE Peaks with additional N2/O included
MS$DATA_PROCESSING: WHOLE RMassBank 2.11.0
PK$SPLASH: splash10-0udi-0900000000-b613eeedf89b91c93606
PK$ANNOTATION: m/z tentative_formula formula_count mass error(ppm)
  67.0542 C5H7+ 1 67.0542 -0.82
  70.0651 C4H8N+ 1 70.0651 -0.78
  79.0543 C6H7+ 1 79.0542 1.21
  81.0698 C6H9+ 1 81.0699 -0.66
  84.0808 C5H10N+ 1 84.0808 0.53
  93.0699 C7H9+ 1 93.0699 0.71
  96.0808 C6H10N+ 1 96.0808 0.66
  98.0964 C6H12N+ 1 98.0964 0.06
  107.0858 C8H11+ 1 107.0855 2.5
  109.1013 C8H13+ 1 109.1012 0.67
  110.0963 C7H12N+ 1 110.0964 -0.71
  124.1121 C8H14N+ 1 124.1121 0.02
  137.1199 C9H15N+ 1 137.1199 -0.13
  150.1276 C10H16N+ 1 150.1277 -0.54
  152.1434 C10H18N+ 1 152.1434 -0.12
  170.154 C10H20NO+ 1 170.1539 0.29
PK$NUM_PEAK: 16
PK$PEAK: m/z int. rel.int.
  67.0542 3140.1 7
  70.0651 2335.8 5
  79.0543 3318.2 7
  81.0698 2921.2 6
  84.0808 7816.1 17
  93.0699 6575.9 14
  96.0808 4962.5 11
  98.0964 22677.6 50
  107.0858 3920.6 8
  109.1013 1678.6 3
  110.0963 7592 17
  124.1121 39069.4 87
  137.1199 10635.5 23
  150.1276 7878.4 17
  152.1434 444848.2 999
  170.154 160398.4 360
//
