ACCESSION: MSBNK-NaToxAq-NA002899
RECORD_TITLE: (-)-Nuciferine; LC-ESI-ITFT; MS2; CE: 35%; R=15000; [M+H]+
DATE: 2020.02.21
AUTHORS: Tobias Schulze, Martin Krauss, Helmholtz Centre for Environmental Research GmbH - UFZ, Leipzig, Germany
LICENSE: CC0
COPYRIGHT: Copyright (C) 2020 by Helmholtz Centre for Environmental Research GmbH - UFZ, Leipzig, Germany
COMMENT: CONFIDENCE Reference Standard (Level 1)
COMMENT: INTERNAL_ID 2317
CH$NAME: (-)-Nuciferine
CH$NAME: Nuciferine
CH$NAME: (6aR)-1,2-dimethoxy-6-methyl-5,6,6a,7-tetrahydro-4H-dibenzo[de,g]quinoline
CH$COMPOUND_CLASS: N/A; Environmental Standard
CH$FORMULA: C19H21NO2
CH$EXACT_MASS: 295.1572
CH$SMILES: CN1CCc2cc(c(c-3c2[C@H]1Cc4c3cccc4)OC)OC
CH$IUPAC: InChI=1S/C19H21NO2/c1-20-9-8-13-11-16(21-2)19(22-3)18-14-7-5-4-6-12(14)10-15(20)17(13)18/h4-7,11,15H,8-10H2,1-3H3/t15-/m1/s1
CH$LINK: CAS 475-83-2
CH$LINK: PUBCHEM CID:10146
CH$LINK: INCHIKEY ORJVQPIHKOARKV-OAHLLOKOSA-N
CH$LINK: CHEMSPIDER 9740
CH$LINK: COMPTOX DTXSID40963862
AC$INSTRUMENT: LTQ Orbitrap XL Thermo Scientific
AC$INSTRUMENT_TYPE: LC-ESI-ITFT
AC$MASS_SPECTROMETRY: MS_TYPE MS2
AC$MASS_SPECTROMETRY: ION_MODE POSITIVE
AC$MASS_SPECTROMETRY: IONIZATION ESI
AC$MASS_SPECTROMETRY: FRAGMENTATION_MODE HCD
AC$MASS_SPECTROMETRY: COLLISION_ENERGY 35% (nominal)
AC$MASS_SPECTROMETRY: RESOLUTION 15000
AC$CHROMATOGRAPHY: COLUMN_NAME Kinetex Evo C18 2.6 um 50x2.1 mm, Phenomenex
AC$CHROMATOGRAPHY: FLOW_GRADIENT 95/5 at 0 min, 95/5 at 1 min, 0/100 at 13 min, 0/100 at 24 min, 95/5 at 24.3 min, 95/5/0 at 32 min
AC$CHROMATOGRAPHY: FLOW_RATE 300 uL/min
AC$CHROMATOGRAPHY: RETENTION_TIME 7.654 min
AC$CHROMATOGRAPHY: SOLVENT A water with 0.1% formic acid
AC$CHROMATOGRAPHY: SOLVENT B methanol with 0.1% formic acid
MS$FOCUSED_ION: BASE_PEAK 296.1644
MS$FOCUSED_ION: PRECURSOR_M/Z 296.1645
MS$FOCUSED_ION: PRECURSOR_TYPE [M+H]+
MS$DATA_PROCESSING: RECALIBRATE loess on assigned fragments and MS1
MS$DATA_PROCESSING: REANALYZE Peaks with additional N2/O included
MS$DATA_PROCESSING: WHOLE RMassBank 2.14.1
PK$SPLASH: splash10-014i-0090000000-850522c30863f1f75a0b
PK$ANNOTATION: m/z tentative_formula formula_count mass error(ppm)
  205.1016 C16H13+ 1 205.1012 2.16
  221.0967 C16H13O+ 1 221.0961 2.76
  222.0675 C15H10O2+ 1 222.0675 -0.03
  222.1039 C16H14O+ 1 222.1039 0
  233.096 C17H13O+ 1 233.0961 -0.35
  234.1039 C17H14O+ 1 234.1039 -0.15
  235.0751 C16H11O2+ 1 235.0754 -1.02
  235.1118 C17H15O+ 1 235.1117 0.44
  236.0832 C16H12O2+ 1 236.0832 0.02
  237.0907 C16H13O2+ 1 237.091 -1.2
  238.0994 C16H14O2+ 1 238.0988 2.34
  249.091 C17H13O2+ 1 249.091 0.09
  250.0988 C17H14O2+ 1 250.0988 -0.21
  253.1223 C17H17O2+ 1 253.1223 -0.12
  265.1222 C18H17O2+ 1 265.1223 -0.35
  296.1645 C19H22NO2+ 1 296.1645 0.01
PK$NUM_PEAK: 16
PK$PEAK: m/z int. rel.int.
  205.1016 1679.7 1
  221.0967 2988.8 2
  222.0675 2801.8 2
  222.1039 2037.4 1
  233.096 15456.2 13
  234.1039 138768.3 118
  235.0751 5467.3 4
  235.1118 8122.3 6
  236.0832 29353.8 25
  237.0907 12726 10
  238.0994 2924.2 2
  249.091 1245.1 1
  250.0988 335629.3 287
  253.1223 14213.1 12
  265.1222 1166435.4 999
  296.1645 139905.4 119
//
