ACCESSION: MSBNK-NaToxAq-NA001632
RECORD_TITLE: Digitoxigenin; LC-ESI-ITFT; MS2; CE: 70%; R=15000; [M+H]+
DATE: 2019.07.31
AUTHORS: Tobias Schulze, Vaidotas Kisielius, Xiaomeng Liang, Mulatu Yohannes Nanusha, Martin Krauss, Helmholtz Centre for Environmental Research GmbH - UFZ, Leipzig, Germany and University of Copenhagen (UCPH), Denmark
LICENSE: CC BY
COPYRIGHT: Copyright (C) 2019
COMMENT: CONFIDENCE Reference Standard (Level 1)
COMMENT: INTERNAL_ID 23
CH$NAME: Digitoxigenin
CH$COMPOUND_CLASS: N/A; Environmental Standard
CH$FORMULA: C23H34O4
CH$EXACT_MASS: 374.2457
CH$SMILES: C[C@]12CC[C@H]3[C@@H](CC[C@@H]4C[C@@H](O)CC[C@]34C)[C@@]1(O)CC[C@@H]2C1=CC(=O)OC1
CH$IUPAC: InChI=1S/C23H34O4/c1-21-8-5-16(24)12-15(21)3-4-19-18(21)6-9-22(2)17(7-10-23(19,22)26)14-11-20(25)27-13-14/h11,15-19,24,26H,3-10,12-13H2,1-2H3/t15-,16+,17-,18+,19-,21+,22-,23+/m1/s1
CH$LINK: INCHIKEY XZTUSOXSLKTKJQ-CESUGQOBSA-N
CH$LINK: PUBCHEM CID:4369270
CH$LINK: COMPTOX DTXSID80162276
AC$INSTRUMENT: LTQ Orbitrap XL Thermo Scientific
AC$INSTRUMENT_TYPE: LC-ESI-ITFT
AC$MASS_SPECTROMETRY: MS_TYPE MS2
AC$MASS_SPECTROMETRY: ION_MODE POSITIVE
AC$MASS_SPECTROMETRY: IONIZATION ESI
AC$MASS_SPECTROMETRY: FRAGMENTATION_MODE CID
AC$MASS_SPECTROMETRY: COLLISION_ENERGY 70 % (nominal)
AC$MASS_SPECTROMETRY: RESOLUTION 15000
AC$CHROMATOGRAPHY: COLUMN_NAME Kinetex Evo C18 2.6 um 50x2.1 mm, Phenomenex
AC$CHROMATOGRAPHY: FLOW_GRADIENT 95/5 at 0 min, 95/5 at 1 min, 0/100 at 13 min, 0/100 at 24 min, 95/5 at 24.3 min, 95/5/0 at 32 min
AC$CHROMATOGRAPHY: FLOW_RATE 300 uL/min
AC$CHROMATOGRAPHY: RETENTION_TIME 11.040 min
AC$CHROMATOGRAPHY: SOLVENT A water with 0.1% formic acid
AC$CHROMATOGRAPHY: SOLVENT B methanol with 0.1% formic acid
MS$FOCUSED_ION: BASE_PEAK 416.3515
MS$FOCUSED_ION: PRECURSOR_M/Z 375.253
MS$FOCUSED_ION: PRECURSOR_TYPE [M+H]+
MS$DATA_PROCESSING: RECALIBRATE loess on assigned fragments and MS1
MS$DATA_PROCESSING: REANALYZE Peaks with additional N2/O included
MS$DATA_PROCESSING: WHOLE RMassBank 2.12.0
PK$SPLASH: splash10-000i-0009000000-9788c93b9af9e367d4c0
PK$ANNOTATION: m/z tentative_formula formula_count mass error(ppm)
  135.1168 C10H15+ 1 135.1168 0.11
  231.1377 C15H19O2+ 1 231.138 -1.21
  257.1535 C17H21O2+ 1 257.1536 -0.39
  293.2273 C22H29+ 1 293.2264 3.25
  295.2429 C22H31+ 1 295.242 2.93
  311.2379 C22H31O+ 1 311.2369 3.22
  321.2214 C23H29O+ 1 321.2213 0.24
  339.232 C23H31O2+ 1 339.2319 0.45
  357.2428 C23H33O3+ 1 357.2424 1.01
PK$NUM_PEAK: 9
PK$PEAK: m/z int. rel.int.
  135.1168 3651.9 24
  231.1377 1348.3 9
  257.1535 1494.1 10
  293.2273 5825.7 39
  295.2429 1293.7 8
  311.2379 1276.6 8
  321.2214 6873.9 46
  339.232 149072.6 999
  357.2428 23949.1 160
//
