ACCESSION: MSBNK-NaToxAq-NA000149
RECORD_TITLE: Piperine; LC-ESI-ITFT; MS2; CE: 10%; R=15000; [M+H]+
DATE: 2018.08.29
AUTHORS: Tobias Schulze, Hubert Schupke, Martin Krauss, Department of Effect-Directed Analysis, Helmholtz Centre for Environmental Research GmbH - UFZ, Leipzig, Germany
LICENSE: CC BY
COPYRIGHT: Copyright (C) 2018
COMMENT: CONFIDENCE Reference Standard (Level 1)
COMMENT: NaToxAq - Natural Toxins and Drinking Water Quality - From Source to Tap (https://natoxaq.ku.dk)
CH$NAME: Piperine
CH$NAME: (2E,4E)-5-(1,3-benzodioxol-5-yl)-1-piperidin-1-ylpenta-2,4-dien-1-one
CH$COMPOUND_CLASS: N/A; Environmental Standard
CH$FORMULA: C17H19NO3
CH$EXACT_MASS: 285.1365
CH$SMILES: O=C(\C=C\C=C\C1=CC2=C(OCO2)C=C1)N1CCCCC1
CH$IUPAC: InChI=1S/C17H19NO3/c19-17(18-10-4-1-5-11-18)7-3-2-6-14-8-9-15-16(12-14)21-13-20-15/h2-3,6-9,12H,1,4-5,10-11,13H2/b6-2+,7-3+
CH$LINK: CAS 94-62-2
CH$LINK: CHEBI CHEBI:28821
CH$LINK: KEGG C03882
CH$LINK: PUBCHEM CID:638024
CH$LINK: INCHIKEY MXXWOMGUGJBKIW-YPCIICBESA-N
CH$LINK: CHEMSPIDER 553590
CH$LINK: COMPTOX DTXSID3021805
AC$INSTRUMENT: LTQ Orbitrap XL Thermo Scientific
AC$INSTRUMENT_TYPE: LC-ESI-ITFT
AC$MASS_SPECTROMETRY: MS_TYPE MS2
AC$MASS_SPECTROMETRY: ION_MODE POSITIVE
AC$MASS_SPECTROMETRY: IONIZATION ESI
AC$MASS_SPECTROMETRY: FRAGMENTATION_MODE HCD
AC$MASS_SPECTROMETRY: COLLISION_ENERGY 10 % (nominal)
AC$MASS_SPECTROMETRY: RESOLUTION 15000
AC$CHROMATOGRAPHY: COLUMN_NAME Kinetex Evo C18 2.6 um 50x2.1 mm, Phenomenex
AC$CHROMATOGRAPHY: FLOW_GRADIENT 95/5 at 0 min, 95/5 at 1 min, 0/100 at 13 min, 0/100 at 24 min, 95/5 at 24.3 min, 95/5 at 32 min
AC$CHROMATOGRAPHY: FLOW_RATE 300 uL/min
AC$CHROMATOGRAPHY: RETENTION_TIME 11.768 min
AC$CHROMATOGRAPHY: SOLVENT A water with 0.1% formic acid
AC$CHROMATOGRAPHY: SOLVENT B methanol with 0.1% formic acid
MS$FOCUSED_ION: BASE_PEAK 286.1441
MS$FOCUSED_ION: PRECURSOR_M/Z 286.1438
MS$FOCUSED_ION: PRECURSOR_TYPE [M+H]+
MS$DATA_PROCESSING: RECALIBRATE loess on assigned fragments and MS1
MS$DATA_PROCESSING: REANALYZE Peaks with additional N2/O included
MS$DATA_PROCESSING: WHOLE RMassBank 2.9.1
PK$SPLASH: splash10-000i-0090000000-a00f7c22528e38046cb6
PK$ANNOTATION: m/z tentative_formula formula_count mass error(ppm)
  201.0543 C12H9O3+ 1 201.0546 -1.79
  286.1432 C17H20NO3+ 1 286.1438 -1.86
PK$NUM_PEAK: 2
PK$PEAK: m/z int. rel.int.
  201.0543 17351.4 6
  286.1432 2848732.2 999
//
