ACCESSION: MSBNK-NaToxAq-NA000143
RECORD_TITLE: 6-beta-Hydroxycortisol; LC-ESI-ITFT; MS2; CE: 140%; R=15000; [M+H]+
DATE: 2018.08.29
AUTHORS: Tobias Schulze, Hubert Schupke, Martin Krauss, Department of Effect-Directed Analysis, Helmholtz Centre for Environmental Research GmbH - UFZ, Leipzig, Germany
LICENSE: CC BY
COPYRIGHT: Copyright (C) 2018
COMMENT: CONFIDENCE Reference Standard (Level 1)
COMMENT: NaToxAq - Natural Toxins and Drinking Water Quality - From Source to Tap (https://natoxaq.ku.dk)
CH$NAME: 6-beta-Hydroxycortisol
CH$NAME: 6beta-Hydroxycortisol
CH$NAME: (6R,8S,9S,10R,11S,13S,14S,17R)-6,11,17-trihydroxy-17-(2-hydroxyacetyl)-10,13-dimethyl-2,6,7,8,9,11,12,14,15,16-decahydro-1H-cyclopenta[a]phenanthren-3-one
CH$COMPOUND_CLASS: N/A; Environmental Standard
CH$FORMULA: C21H30O6
CH$EXACT_MASS: 378.2042
CH$SMILES: C[C@]12C[C@H](O)[C@H]3[C@@H](C[C@@H](O)C4=CC(=O)CC[C@]34C)[C@@H]1CC[C@]2(O)C(=O)CO
CH$IUPAC: InChI=1S/C21H30O6/c1-19-5-3-11(23)7-14(19)15(24)8-12-13-4-6-21(27,17(26)10-22)20(13,2)9-16(25)18(12)19/h7,12-13,15-16,18,22,24-25,27H,3-6,8-10H2,1-2H3/t12-,13-,15+,16-,18+,19-,20-,21-/m0/s1
CH$LINK: CAS 53-35-0
CH$LINK: CHEBI CHEBI:139271
CH$LINK: PUBCHEM CID:6852390
CH$LINK: INCHIKEY GNFTWPCIRXSCQF-UJXAPRPESA-N
CH$LINK: CHEMSPIDER 5254712
CH$LINK: COMPTOX DTXSID80425873
AC$INSTRUMENT: LTQ Orbitrap XL Thermo Scientific
AC$INSTRUMENT_TYPE: LC-ESI-ITFT
AC$MASS_SPECTROMETRY: MS_TYPE MS2
AC$MASS_SPECTROMETRY: ION_MODE POSITIVE
AC$MASS_SPECTROMETRY: IONIZATION ESI
AC$MASS_SPECTROMETRY: FRAGMENTATION_MODE HCD
AC$MASS_SPECTROMETRY: COLLISION_ENERGY 140 % (nominal)
AC$MASS_SPECTROMETRY: RESOLUTION 15000
AC$CHROMATOGRAPHY: COLUMN_NAME Kinetex Evo C18 2.6 um 50x2.1 mm, Phenomenex
AC$CHROMATOGRAPHY: FLOW_GRADIENT 95/5 at 0 min, 95/5 at 1 min, 0/100 at 13 min, 0/100 at 24 min, 95/5 at 24.3 min, 95/5 at 32 min
AC$CHROMATOGRAPHY: FLOW_RATE 300 uL/min
AC$CHROMATOGRAPHY: RETENTION_TIME 6.535 min
AC$CHROMATOGRAPHY: SOLVENT A water with 0.1% formic acid
AC$CHROMATOGRAPHY: SOLVENT B methanol with 0.1% formic acid
MS$FOCUSED_ION: BASE_PEAK 379.2118
MS$FOCUSED_ION: PRECURSOR_M/Z 379.2115
MS$FOCUSED_ION: PRECURSOR_TYPE [M+H]+
MS$DATA_PROCESSING: RECALIBRATE loess on assigned fragments and MS1
MS$DATA_PROCESSING: REANALYZE Peaks with additional N2/O included
MS$DATA_PROCESSING: WHOLE RMassBank 2.9.1
PK$SPLASH: splash10-00mo-5900000000-09f8bef6ec17e2ce986d
PK$ANNOTATION: m/z tentative_formula formula_count mass error(ppm)
  77.0388 C6H5+ 1 77.0386 2.87
  91.0546 C7H7+ 1 91.0542 4.33
  105.0704 C8H9+ 1 105.0699 4.79
  115.0545 C9H7+ 1 115.0542 2.64
  128.0626 C10H8+ 1 128.0621 4.26
  141.0701 C11H9+ 1 141.0699 1.29
  152.0626 C12H8+ 1 152.0621 3.69
  153.0704 C12H9+ 1 153.0699 3.64
  165.0707 C13H9+ 1 165.0699 4.75
PK$NUM_PEAK: 9
PK$PEAK: m/z int. rel.int.
  77.0388 2476.5 441
  91.0546 5606.5 999
  105.0704 1538 274
  115.0545 2865.3 510
  128.0626 2420.2 431
  141.0701 1029.7 183
  152.0626 929.8 165
  153.0704 1710.6 304
  165.0707 2963.6 528
//
