ACCESSION: MSBNK-NaToxAq-NA003297
RECORD_TITLE: Europine; LC-ESI-ITFT; MS2; CE: 75%; R=15000; [M+H]+
DATE: 2020.02.22
AUTHORS: Tobias Schulze, Martin Krauss, Helmholtz Centre for Environmental Research GmbH - UFZ, Leipzig, Germany
LICENSE: CC0
COPYRIGHT: Copyright (C) 2020 by Helmholtz Centre for Environmental Research GmbH - UFZ, Leipzig, Germany
COMMENT: CONFIDENCE Reference Standard (Level 1)
COMMENT: INTERNAL_ID 2321
CH$NAME: Europine
CH$NAME: [(7S,8R)-7-hydroxy-5,6,7,8-tetrahydro-3H-pyrrolizin-1-yl]methyl (2R)-2,3-dihydroxy-2-[(1S)-1-methoxyethyl]-3-methylbutanoate
CH$COMPOUND_CLASS: N/A; Environmental Standard
CH$FORMULA: C16H27NO6
CH$EXACT_MASS: 329.1838
CH$SMILES: C[C@@H]([C@](C(=O)OCC1=CCN2[C@H]1[C@H](CC2)O)(C(C)(C)O)O)OC
CH$IUPAC: InChI=1S/C16H27NO6/c1-10(22-4)16(21,15(2,3)20)14(19)23-9-11-5-7-17-8-6-12(18)13(11)17/h5,10,12-13,18,20-21H,6-9H2,1-4H3/t10-,12-,13+,16-/m0/s1
CH$LINK: CAS 570-19-4
CH$LINK: CHEBI CHEBI:4943
CH$LINK: KEGG C10301
CH$LINK: PUBCHEM CID:5462451
CH$LINK: INCHIKEY ZNEMYFCJOCCUJN-VFFTVRQLSA-N
CH$LINK: CHEMSPIDER 4575419
AC$INSTRUMENT: LTQ Orbitrap XL Thermo Scientific
AC$INSTRUMENT_TYPE: LC-ESI-ITFT
AC$MASS_SPECTROMETRY: MS_TYPE MS2
AC$MASS_SPECTROMETRY: ION_MODE POSITIVE
AC$MASS_SPECTROMETRY: IONIZATION ESI
AC$MASS_SPECTROMETRY: FRAGMENTATION_MODE HCD
AC$MASS_SPECTROMETRY: COLLISION_ENERGY 75% (nominal)
AC$MASS_SPECTROMETRY: RESOLUTION 15000
AC$CHROMATOGRAPHY: COLUMN_NAME Kinetex Evo C18 2.6 um 50x2.1 mm, Phenomenex
AC$CHROMATOGRAPHY: FLOW_GRADIENT 95/5 at 0 min, 95/5 at 1 min, 0/100 at 13 min, 0/100 at 24 min, 95/5 at 24.3 min, 95/5/0 at 32 min
AC$CHROMATOGRAPHY: FLOW_RATE 300 uL/min
AC$CHROMATOGRAPHY: RETENTION_TIME 1.033 min
AC$CHROMATOGRAPHY: SOLVENT A water with 0.1% formic acid
AC$CHROMATOGRAPHY: SOLVENT B methanol with 0.1% formic acid
MS$FOCUSED_ION: BASE_PEAK 143.0014
MS$FOCUSED_ION: PRECURSOR_M/Z 330.1911
MS$FOCUSED_ION: PRECURSOR_TYPE [M+H]+
MS$DATA_PROCESSING: RECALIBRATE loess on assigned fragments and MS1
MS$DATA_PROCESSING: REANALYZE Peaks with additional N2/O included
MS$DATA_PROCESSING: WHOLE RMassBank 2.14.1
PK$SPLASH: splash10-0a4r-3900000000-f7fcddd142da8d852708
PK$ANNOTATION: m/z tentative_formula formula_count mass error(ppm)
  59.049 C3H7O+ 1 59.0491 -2.21
  67.0415 C4H5N+ 1 67.0417 -1.95
  80.0494 C5H6N+ 1 80.0495 -1.5
  82.0652 C5H8N+ 1 82.0651 0.42
  86.06 C4H8NO+ 1 86.06 -0.31
  94.0651 C6H8N+ 1 94.0651 0.09
  95.073 C6H9N+ 1 95.073 0.16
  96.0808 C6H10N+ 1 96.0808 0.39
  108.0809 C7H10N+ 1 108.0808 0.74
  110.06 C6H8NO+ 1 110.06 -0.43
  112.0756 C6H10NO+ 1 112.0757 -0.95
  120.0808 C8H10N+ 1 120.0808 0.26
  138.0914 C8H12NO+ 1 138.0913 0.26
  139.0992 C8H13NO+ 1 139.0992 0.47
  156.1019 C8H14NO2+ 1 156.1019 0.24
PK$NUM_PEAK: 15
PK$PEAK: m/z int. rel.int.
  59.049 2346.1 43
  67.0415 1951.5 35
  80.0494 2931.4 53
  82.0652 12788.3 234
  86.06 1776.5 32
  94.0651 25256.9 463
  95.073 9401.6 172
  96.0808 10364.9 190
  108.0809 13991.9 257
  110.06 2572.3 47
  112.0756 3418.7 62
  120.0808 23668.1 434
  138.0914 47573.7 873
  139.0992 6632 121
  156.1019 54380.8 999
//
