ACCESSION: MSBNK-NaToxAq-NA002811
RECORD_TITLE: Formononetin; LC-ESI-ITFT; MS2; CE: 45%; R=15000; [M+H]+
DATE: 2020.02.21
AUTHORS: Tobias Schulze, Martin Krauss, Helmholtz Centre for Environmental Research GmbH - UFZ, Leipzig, Germany
LICENSE: CC0
COPYRIGHT: Copyright (C) 2020 by Helmholtz Centre for Environmental Research GmbH - UFZ, Leipzig, Germany
COMMENT: CONFIDENCE Reference Standard (Level 1)
COMMENT: INTERNAL_ID 2291
CH$NAME: Formononetin
CH$NAME: 7-hydroxy-3-(4-methoxyphenyl)chromen-4-one
CH$COMPOUND_CLASS: N/A; Environmental Standard
CH$FORMULA: C16H12O4
CH$EXACT_MASS: 268.0736
CH$SMILES: COc1ccc(cc1)c2coc3cc(ccc3c2=O)O
CH$IUPAC: InChI=1S/C16H12O4/c1-19-12-5-2-10(3-6-12)14-9-20-15-8-11(17)4-7-13(15)16(14)18/h2-9,17H,1H3
CH$LINK: CAS 485-72-3
CH$LINK: CHEBI CHEBI:18088
CH$LINK: KEGG C00858
CH$LINK: LIPIDMAPS LMPK12050037
CH$LINK: PUBCHEM CID:5280378
CH$LINK: INCHIKEY HKQYGTCOTHHOMP-UHFFFAOYSA-N
CH$LINK: CHEMSPIDER 4444070
CH$LINK: COMPTOX DTXSID4022311
AC$INSTRUMENT: LTQ Orbitrap XL Thermo Scientific
AC$INSTRUMENT_TYPE: LC-ESI-ITFT
AC$MASS_SPECTROMETRY: MS_TYPE MS2
AC$MASS_SPECTROMETRY: ION_MODE POSITIVE
AC$MASS_SPECTROMETRY: IONIZATION ESI
AC$MASS_SPECTROMETRY: FRAGMENTATION_MODE HCD
AC$MASS_SPECTROMETRY: COLLISION_ENERGY 45% (nominal)
AC$MASS_SPECTROMETRY: RESOLUTION 15000
AC$CHROMATOGRAPHY: COLUMN_NAME Kinetex Evo C18 2.6 um 50x2.1 mm, Phenomenex
AC$CHROMATOGRAPHY: FLOW_GRADIENT 95/5 at 0 min, 95/5 at 1 min, 0/100 at 13 min, 0/100 at 24 min, 95/5 at 24.3 min, 95/5/0 at 32 min
AC$CHROMATOGRAPHY: FLOW_RATE 300 uL/min
AC$CHROMATOGRAPHY: RETENTION_TIME 10.645 min
AC$CHROMATOGRAPHY: SOLVENT A water with 0.1% formic acid
AC$CHROMATOGRAPHY: SOLVENT B methanol with 0.1% formic acid
MS$FOCUSED_ION: BASE_PEAK 116.9858
MS$FOCUSED_ION: PRECURSOR_M/Z 269.0808
MS$FOCUSED_ION: PRECURSOR_TYPE [M+H]+
MS$DATA_PROCESSING: RECALIBRATE loess on assigned fragments and MS1
MS$DATA_PROCESSING: REANALYZE Peaks with additional N2/O included
MS$DATA_PROCESSING: WHOLE RMassBank 2.14.1
PK$SPLASH: splash10-014i-0090000000-85d03be8a8fa7ebc0a6b
PK$ANNOTATION: m/z tentative_formula formula_count mass error(ppm)
  107.0492 C7H7O+ 1 107.0491 0.09
  118.0415 C8H6O+ 1 118.0413 1.15
  136.0156 C7H4O3+ 1 136.0155 0.75
  213.091 C14H13O2+ 1 213.091 0.15
  226.0621 C14H10O3+ 1 226.0624 -1.49
  237.0549 C15H9O3+ 1 237.0546 1.35
  253.049 C15H9O4+ 1 253.0495 -2.16
  254.0574 C15H10O4+ 1 254.0574 0.32
  269.0809 C16H13O4+ 1 269.0808 0.09
PK$NUM_PEAK: 9
PK$PEAK: m/z int. rel.int.
  107.0492 2165 10
  118.0415 2394.6 11
  136.0156 1276.5 6
  213.091 14070.4 70
  226.0621 1794.6 8
  237.0549 4605.3 23
  253.049 3079.9 15
  254.0574 15089.7 75
  269.0809 200015.3 999
//
