ACCESSION: MSBNK-NaToxAq-NA003034
RECORD_TITLE: Monocrotaline; LC-ESI-ITFT; MS2; CE: 60%; R=15000; [M+H]+
DATE: 2020.02.22
AUTHORS: Tobias Schulze, Martin Krauss, Helmholtz Centre for Environmental Research GmbH - UFZ, Leipzig, Germany
LICENSE: CC0
COPYRIGHT: Copyright (C) 2020 by Helmholtz Centre for Environmental Research GmbH - UFZ, Leipzig, Germany
COMMENT: CONFIDENCE Reference Standard (Level 1)
COMMENT: INTERNAL_ID 2249
CH$NAME: Monocrotaline
CH$NAME: (1R,4R,5R,6R,16R)-5,6-dihydroxy-4,5,6-trimethyl-2,8-dioxa-13-azatricyclo[8.5.1.013,16]hexadec-10-ene-3,7-dione
CH$COMPOUND_CLASS: N/A; Environmental Standard
CH$FORMULA: C16H23NO6
CH$EXACT_MASS: 325.1525
CH$SMILES: C[C@H]1C(=O)O[C@@H]2CCN3[C@@H]2C(=CC3)COC(=O)[C@]([C@]1(C)O)(C)O
CH$IUPAC: InChI=1S/C16H23NO6/c1-9-13(18)23-11-5-7-17-6-4-10(12(11)17)8-22-14(19)16(3,21)15(9,2)20/h4,9,11-12,20-21H,5-8H2,1-3H3/t9-,11+,12+,15+,16-/m0/s1
CH$LINK: CAS 315-22-0
CH$LINK: CHEBI CHEBI:6980
CH$LINK: KEGG C10350
CH$LINK: PUBCHEM CID:9415
CH$LINK: INCHIKEY QVCMHGGNRFRMAD-XFGHUUIASA-N
CH$LINK: CHEMSPIDER 9044
CH$LINK: COMPTOX DTXSID9020902
AC$INSTRUMENT: LTQ Orbitrap XL Thermo Scientific
AC$INSTRUMENT_TYPE: LC-ESI-ITFT
AC$MASS_SPECTROMETRY: MS_TYPE MS2
AC$MASS_SPECTROMETRY: ION_MODE POSITIVE
AC$MASS_SPECTROMETRY: IONIZATION ESI
AC$MASS_SPECTROMETRY: FRAGMENTATION_MODE HCD
AC$MASS_SPECTROMETRY: COLLISION_ENERGY 60% (nominal)
AC$MASS_SPECTROMETRY: RESOLUTION 15000
AC$CHROMATOGRAPHY: COLUMN_NAME Kinetex Evo C18 2.6 um 50x2.1 mm, Phenomenex
AC$CHROMATOGRAPHY: FLOW_GRADIENT 95/5 at 0 min, 95/5 at 1 min, 0/100 at 13 min, 0/100 at 24 min, 95/5 at 24.3 min, 95/5/0 at 32 min
AC$CHROMATOGRAPHY: FLOW_RATE 300 uL/min
AC$CHROMATOGRAPHY: RETENTION_TIME 0.626 min
AC$CHROMATOGRAPHY: SOLVENT A water with 0.1% formic acid
AC$CHROMATOGRAPHY: SOLVENT B methanol with 0.1% formic acid
MS$FOCUSED_ION: BASE_PEAK 326.1596
MS$FOCUSED_ION: PRECURSOR_M/Z 326.1598
MS$FOCUSED_ION: PRECURSOR_TYPE [M+H]+
MS$DATA_PROCESSING: RECALIBRATE loess on assigned fragments and MS1
MS$DATA_PROCESSING: REANALYZE Peaks with additional N2/O included
MS$DATA_PROCESSING: WHOLE RMassBank 2.14.1
PK$SPLASH: splash10-00di-2910000000-baf2cc572ba64a4a64b5
PK$ANNOTATION: m/z tentative_formula formula_count mass error(ppm)
  67.0417 C4H5N+ 1 67.0417 0.1
  68.0494 C4H6N+ 1 68.0495 -1.24
  79.0542 C6H7+ 1 79.0542 0.21
  80.0495 C5H6N+ 1 80.0495 0.31
  82.0651 C5H8N+ 1 82.0651 -0.14
  91.0543 C7H7+ 1 91.0542 1.04
  92.062 C7H8+ 1 92.0621 -0.64
  93.0574 C6H7N+ 1 93.0573 0.6
  93.0699 C7H9+ 1 93.0699 -0.25
  94.0651 C6H8N+ 1 94.0651 0.25
  95.073 C6H9N+ 1 95.073 0.4
  96.0808 C6H10N+ 1 96.0808 0.15
  103.0545 C8H7+ 1 103.0542 2.35
  106.0652 C7H8N+ 1 106.0651 0.45
  108.0807 C7H10N+ 1 108.0808 -0.25
  110.06 C6H8NO+ 1 110.06 -0.57
  110.0965 C7H12N+ 1 110.0964 0.39
  120.0808 C8H10N+ 1 120.0808 0.52
  121.0886 C8H11N+ 1 121.0886 0.27
  122.0964 C8H12N+ 1 122.0964 -0.04
  138.0914 C8H12NO+ 1 138.0913 0.15
  139.0991 C8H13NO+ 1 139.0992 -0.3
  140.1069 C8H14NO+ 1 140.107 -0.63
  146.0962 C10H12N+ 1 146.0964 -1.87
  156.1018 C8H14NO2+ 1 156.1019 -0.54
  164.1071 C10H14NO+ 1 164.107 0.7
  180.1028 C10H14NO2+ 1 180.1019 4.95
  182.1178 C10H16NO2+ 1 182.1176 1.22
  184.0971 C9H14NO3+ 1 184.0968 1.51
  194.1175 C11H16NO2+ 1 194.1176 -0.07
  195.1254 C11H17NO2+ 1 195.1254 -0.07
  210.1127 C11H16NO3+ 1 210.1125 1.32
  212.128 C11H18NO3+ 1 212.1281 -0.64
  228.1229 C11H18NO4+ 1 228.123 -0.68
  237.1359 C13H19NO3+ 1 237.1359 -0.04
  238.1439 C13H20NO3+ 1 238.1438 0.36
  241.9837 C12H2O6+ 1 241.9846 -3.82
  252.1228 C13H18NO4+ 1 252.123 -1.04
  254.1382 C13H20NO4+ 1 254.1387 -2.04
  280.1546 C15H22NO4+ 1 280.1543 0.97
  298.1649 C15H24NO5+ 1 298.1649 -0.05
  326.16 C16H24NO6+ 1 326.1598 0.56
PK$NUM_PEAK: 42
PK$PEAK: m/z int. rel.int.
  67.0417 7496.1 43
  68.0494 3853.2 22
  79.0542 2733.7 15
  80.0495 5734.8 33
  82.0651 2838.4 16
  91.0543 1267.8 7
  92.062 1495.6 8
  93.0574 2389.7 13
  93.0699 5193.4 30
  94.0651 30536.7 177
  95.073 43004.4 250
  96.0808 6141.7 35
  103.0545 1328.9 7
  106.0652 4218.3 24
  108.0807 6238.1 36
  110.06 2440.3 14
  110.0965 2522.7 14
  120.0808 105043.7 611
  121.0886 171718.6 999
  122.0964 24945.1 145
  138.0914 37262 216
  139.0991 9068.5 52
  140.1069 6425.7 37
  146.0962 1190.4 6
  156.1018 7326.6 42
  164.1071 18882.6 109
  180.1028 1861.9 10
  182.1178 2018.5 11
  184.0971 11763.3 68
  194.1175 37672.2 219
  195.1254 8623.4 50
  210.1127 3088.7 17
  212.128 4276.8 24
  228.1229 3078.9 17
  237.1359 30132.6 175
  238.1439 7733.8 44
  241.9837 966.9 5
  252.1228 2433.8 14
  254.1382 3007.2 17
  280.1546 11162.3 64
  298.1649 10383.3 60
  326.16 50050.3 291
//
