ACCESSION: MSBNK-NaToxAq-NA002317
RECORD_TITLE: Nicotine; LC-ESI-ITFT; MS2; CE: 25%; R=15000; [M+H]+
DATE: 2020.02.21
AUTHORS: Tobias Schulze, Martin Krauss, Helmholtz Centre for Environmental Research GmbH - UFZ, Leipzig, Germany
LICENSE: CC0
COPYRIGHT: Copyright (C) 2020 by Helmholtz Centre for Environmental Research GmbH - UFZ, Leipzig, Germany
COMMENT: CONFIDENCE Reference Standard (Level 1)
COMMENT: INTERNAL_ID 2264
CH$NAME: Nicotine
CH$NAME: 3-[(2S)-1-methylpyrrolidin-2-yl]pyridine
CH$COMPOUND_CLASS: N/A; Environmental Standard
CH$FORMULA: C10H14N2
CH$EXACT_MASS: 162.1157
CH$SMILES: CN1CCC[C@H]1c2cccnc2
CH$IUPAC: InChI=1S/C10H14N2/c1-12-7-3-5-10(12)9-4-2-6-11-8-9/h2,4,6,8,10H,3,5,7H2,1H3/t10-/m0/s1
CH$LINK: CAS 54-11-5
CH$LINK: CHEBI CHEBI:17688
CH$LINK: KEGG D03365
CH$LINK: PUBCHEM CID:89594
CH$LINK: INCHIKEY SNICXCGAKADSCV-JTQLQIEISA-N
CH$LINK: CHEMSPIDER 80863
CH$LINK: COMPTOX DTXSID1020930
AC$INSTRUMENT: LTQ Orbitrap XL Thermo Scientific
AC$INSTRUMENT_TYPE: LC-ESI-ITFT
AC$MASS_SPECTROMETRY: MS_TYPE MS2
AC$MASS_SPECTROMETRY: ION_MODE POSITIVE
AC$MASS_SPECTROMETRY: IONIZATION ESI
AC$MASS_SPECTROMETRY: FRAGMENTATION_MODE HCD
AC$MASS_SPECTROMETRY: COLLISION_ENERGY 25% (nominal)
AC$MASS_SPECTROMETRY: RESOLUTION 15000
AC$CHROMATOGRAPHY: COLUMN_NAME Kinetex Evo C18 2.6 um 50x2.1 mm, Phenomenex
AC$CHROMATOGRAPHY: FLOW_GRADIENT 95/5 at 0 min, 95/5 at 1 min, 0/100 at 13 min, 0/100 at 24 min, 95/5 at 24.3 min, 95/5/0 at 32 min
AC$CHROMATOGRAPHY: FLOW_RATE 300 uL/min
AC$CHROMATOGRAPHY: RETENTION_TIME 0.637 min
AC$CHROMATOGRAPHY: SOLVENT A water with 0.1% formic acid
AC$CHROMATOGRAPHY: SOLVENT B methanol with 0.1% formic acid
MS$FOCUSED_ION: BASE_PEAK 163.123
MS$FOCUSED_ION: PRECURSOR_M/Z 163.123
MS$FOCUSED_ION: PRECURSOR_TYPE [M+H]+
MS$DATA_PROCESSING: RECALIBRATE loess on assigned fragments and MS1
MS$DATA_PROCESSING: REANALYZE Peaks with additional N2/O included
MS$DATA_PROCESSING: WHOLE RMassBank 2.14.1
PK$SPLASH: splash10-03di-0900000000-17cba1e1ecc5994c64d7
PK$ANNOTATION: m/z tentative_formula formula_count mass error(ppm)
  84.0806 C5H10N+ 1 84.0808 -2.31
  106.0651 C7H8N+ 1 106.0651 -0.36
  120.0808 C8H10N+ 1 120.0808 -0.1
  130.0651 C9H8N+ 1 130.0651 -0.3
  132.0808 C9H10N+ 1 132.0808 0.18
  163.1231 C10H15N2+ 1 163.123 0.49
PK$NUM_PEAK: 6
PK$PEAK: m/z int. rel.int.
  84.0806 2023 2
  106.0651 8616.5 12
  120.0808 2893.6 4
  130.0651 7209.1 10
  132.0808 41317.2 60
  163.1231 683457.5 999
//
