ACCESSION: MSBNK-NaToxAq-NA000504
RECORD_TITLE: Jacobine N-oxide; LC-ESI-ITFT; MS2; CE: 30%; R=15000; [M+H]+
DATE: 2019.02.28
AUTHORS: Tobias Schulze, Jawameer Hama, Hubert Schupke, Martin Krauss, Helmholtz Centre for Environmental Research GmbH - UFZ, Leipzig, Germany and University of Copenhagen (UCPH), Denmark
LICENSE: CC BY
COPYRIGHT: Copyright (C) 2019
COMMENT: CONFIDENCE Reference Standard (Level 1)
COMMENT: INTERNAL_ID 119
CH$NAME: Jacobine N-oxide
CH$NAME: (1R,3`S,4S,6R,7R,17R)-7-hydroxy-3`,6,7-trimethyl-14-oxidospiro[2,9-dioxa-14-azoniatricyclo[9.5.1.0^{14,17}]heptadec-11-ene-4,2`-oxirane]-3,8-dione
CH$COMPOUND_CLASS: N/A; Environmental Standard
CH$FORMULA: C18H25NO7
CH$EXACT_MASS: 367.1631
CH$SMILES: C[C@@H]1O[C@@]11C[C@@H](C)[C@@](C)(O)C(=O)OCC2=CCN3(=O)CC[C@@H](OC1=O)[C@@H]23
CH$IUPAC: InChI=1S/C18H25NO7/c1-10-8-18(11(2)26-18)16(21)25-13-5-7-19(23)6-4-12(14(13)19)9-24-15(20)17(10,3)22/h4,10-11,13-14,22H,5-9H2,1-3H3/t10-,11+,13-,14-,17-,18+,19?/m1/s1
CH$LINK: CHEBI CHEBI:136451
CH$LINK: PUBCHEM CID:132282048
CH$LINK: INCHIKEY NKRQJWQYBNTAEV-SAJQNFQWSA-N
AC$INSTRUMENT: LTQ Orbitrap XL Thermo Scientific
AC$INSTRUMENT_TYPE: LC-ESI-ITFT
AC$MASS_SPECTROMETRY: MS_TYPE MS2
AC$MASS_SPECTROMETRY: ION_MODE POSITIVE
AC$MASS_SPECTROMETRY: IONIZATION ESI
AC$MASS_SPECTROMETRY: FRAGMENTATION_MODE CID
AC$MASS_SPECTROMETRY: COLLISION_ENERGY 30 % (nominal)
AC$MASS_SPECTROMETRY: RESOLUTION 15000
AC$CHROMATOGRAPHY: COLUMN_NAME Kinetex Evo C18 2.6 um 50x2.1 mm, Phenomenex
AC$CHROMATOGRAPHY: FLOW_GRADIENT 95/5 at 0 min, 95/5 at 1 min, 0/100 at 13 min, 0/100 at 24 min, 95/5 at 24.3 min, 95/5 at 32 min
AC$CHROMATOGRAPHY: FLOW_RATE 300 uL/min
AC$CHROMATOGRAPHY: RETENTION_TIME 1.468 min
AC$CHROMATOGRAPHY: SOLVENT A water with 0.1% formic acid
AC$CHROMATOGRAPHY: SOLVENT B methanol with 0.1% formic acid
MS$FOCUSED_ION: BASE_PEAK 99.0804
MS$FOCUSED_ION: PRECURSOR_M/Z 368.1704
MS$FOCUSED_ION: PRECURSOR_TYPE [M+H]+
MS$DATA_PROCESSING: RECALIBRATE loess on assigned fragments and MS1
MS$DATA_PROCESSING: REANALYZE Peaks with additional N2/O included
MS$DATA_PROCESSING: WHOLE RMassBank 2.11.0
PK$SPLASH: splash10-0002-0090000000-021499a505bf8bf57334
PK$ANNOTATION: m/z tentative_formula formula_count mass error(ppm)
  120.0807 C8H10N+ 1 120.0808 -0.54
  296.1493 C15H22NO5+ 1 296.1492 0.06
  324.144 C16H22NO6+ 1 324.1442 -0.52
PK$NUM_PEAK: 3
PK$PEAK: m/z int. rel.int.
  120.0807 2639.6 27
  296.1493 94816.2 999
  324.144 6442.3 67
//
