ACCESSION: MSBNK-NaToxAq-NA002824
RECORD_TITLE: Lycopsamine N-oxide; LC-ESI-ITFT; MS2; CE: 35%; R=15000; [M+H]+
DATE: 2020.02.21
AUTHORS: Tobias Schulze, Martin Krauss, Helmholtz Centre for Environmental Research GmbH - UFZ, Leipzig, Germany
LICENSE: CC0
COPYRIGHT: Copyright (C) 2020 by Helmholtz Centre for Environmental Research GmbH - UFZ, Leipzig, Germany
COMMENT: CONFIDENCE Reference Standard (Level 1)
COMMENT: INTERNAL_ID 2294
CH$NAME: Lycopsamine N-oxide
CH$NAME: [(7R,8R)-7-hydroxy-4-oxido-5,6,7,8-tetrahydro-3H-pyrrolizin-4-ium-1-yl]methyl (2S)-2-hydroxy-2-[(1S)-1-hydroxyethyl]-3-methylbutanoate
CH$COMPOUND_CLASS: N/A; Environmental Standard
CH$FORMULA: C15H25NO6
CH$EXACT_MASS: 315.1682
CH$SMILES: C[C@@H]([C@@](C(C)C)(C(=O)OCC1=CC[N+]2([C@H]1[C@@H](CC2)O)[O-])O)O
CH$IUPAC: InChI=1S/C15H25NO6/c1-9(2)15(20,10(3)17)14(19)22-8-11-4-6-16(21)7-5-12(18)13(11)16/h4,9-10,12-13,17-18,20H,5-8H2,1-3H3/t10-,12+,13+,15-,16?/m0/s1
CH$LINK: PUBCHEM CID:340067
CH$LINK: INCHIKEY DNAWGBOKUFFVMB-FVZLBROTSA-N
CH$LINK: CHEMSPIDER 301478
AC$INSTRUMENT: LTQ Orbitrap XL Thermo Scientific
AC$INSTRUMENT_TYPE: LC-ESI-ITFT
AC$MASS_SPECTROMETRY: MS_TYPE MS2
AC$MASS_SPECTROMETRY: ION_MODE POSITIVE
AC$MASS_SPECTROMETRY: IONIZATION ESI
AC$MASS_SPECTROMETRY: FRAGMENTATION_MODE HCD
AC$MASS_SPECTROMETRY: COLLISION_ENERGY 35% (nominal)
AC$MASS_SPECTROMETRY: RESOLUTION 15000
AC$CHROMATOGRAPHY: COLUMN_NAME Kinetex Evo C18 2.6 um 50x2.1 mm, Phenomenex
AC$CHROMATOGRAPHY: FLOW_GRADIENT 95/5 at 0 min, 95/5 at 1 min, 0/100 at 13 min, 0/100 at 24 min, 95/5 at 24.3 min, 95/5/0 at 32 min
AC$CHROMATOGRAPHY: FLOW_RATE 300 uL/min
AC$CHROMATOGRAPHY: RETENTION_TIME 1.288 min
AC$CHROMATOGRAPHY: SOLVENT A water with 0.1% formic acid
AC$CHROMATOGRAPHY: SOLVENT B methanol with 0.1% formic acid
MS$FOCUSED_ION: BASE_PEAK 143.0015
MS$FOCUSED_ION: PRECURSOR_M/Z 316.1755
MS$FOCUSED_ION: PRECURSOR_TYPE [M+H]+
MS$DATA_PROCESSING: RECALIBRATE loess on assigned fragments and MS1
MS$DATA_PROCESSING: REANALYZE Peaks with additional N2/O included
MS$DATA_PROCESSING: WHOLE RMassBank 2.14.1
PK$SPLASH: splash10-014i-0009000000-826e84169bd801eac773
PK$ANNOTATION: m/z tentative_formula formula_count mass error(ppm)
  93.0573 C6H7N+ 1 93.0573 -0.19
  94.065 C6H8N+ 1 94.0651 -0.85
  136.0758 C8H10NO+ 1 136.0757 0.76
  137.0832 C8H11NO+ 1 137.0835 -2.48
  138.0913 C8H12NO+ 1 138.0913 -0.03
  154.0862 C8H12NO2+ 1 154.0863 -0.21
  155.094 C8H13NO2+ 1 155.0941 -0.42
  172.0969 C8H14NO3+ 1 172.0968 0.28
  226.143 C12H20NO3+ 1 226.1438 -3.42
  272.1495 C13H22NO5+ 1 272.1492 0.9
  316.1755 C15H26NO6+ 1 316.1755 0.08
PK$NUM_PEAK: 11
PK$PEAK: m/z int. rel.int.
  93.0573 2115.7 2
  94.065 2374.7 2
  136.0758 5707.4 6
  137.0832 1529.6 1
  138.0913 21884.6 25
  154.0862 6115.1 7
  155.094 6627.2 7
  172.0969 40535 46
  226.143 1762.4 2
  272.1495 5930.9 6
  316.1755 865418.2 999
//
