ACCESSION: MSBNK-NaToxAq-NA000107
RECORD_TITLE: Harmine; LC-ESI-ITFT; MS2; CE: 100%; R=15000; [M+H]+
DATE: 2018.08.29
AUTHORS: Tobias Schulze, Hubert Schupke, Martin Krauss, Department of Effect-Directed Analysis, Helmholtz Centre for Environmental Research GmbH - UFZ, Leipzig, Germany
LICENSE: CC BY
COPYRIGHT: Copyright (C) 2018
COMMENT: CONFIDENCE Reference Standard (Level 1)
COMMENT: NaToxAq - Natural Toxins and Drinking Water Quality - From Source to Tap (https://natoxaq.ku.dk)
CH$NAME: Harmine
CH$NAME: 7-methoxy-1-methyl-9H-pyrido[3,4-b]indole
CH$COMPOUND_CLASS: N/A; Environmental Standard
CH$FORMULA: C13H12N2O
CH$EXACT_MASS: 212.0950
CH$SMILES: COC1=CC2=C(C=C1)C1=C(N2)C(C)=NC=C1
CH$IUPAC: InChI=1S/C13H12N2O/c1-8-13-11(5-6-14-8)10-4-3-9(16-2)7-12(10)15-13/h3-7,15H,1-2H3
CH$LINK: CAS 343-27-1
CH$LINK: CHEBI CHEBI:28121
CH$LINK: KEGG C06538
CH$LINK: PUBCHEM CID:5280953
CH$LINK: INCHIKEY BXNJHAXVSOCGBA-UHFFFAOYSA-N
CH$LINK: CHEMSPIDER 4444445
CH$LINK: COMPTOX DTXSID30196066
AC$INSTRUMENT: LTQ Orbitrap XL Thermo Scientific
AC$INSTRUMENT_TYPE: LC-ESI-ITFT
AC$MASS_SPECTROMETRY: MS_TYPE MS2
AC$MASS_SPECTROMETRY: ION_MODE POSITIVE
AC$MASS_SPECTROMETRY: IONIZATION ESI
AC$MASS_SPECTROMETRY: FRAGMENTATION_MODE HCD
AC$MASS_SPECTROMETRY: COLLISION_ENERGY 100 % (nominal)
AC$MASS_SPECTROMETRY: RESOLUTION 15000
AC$CHROMATOGRAPHY: COLUMN_NAME Kinetex Evo C18 2.6 um 50x2.1 mm, Phenomenex
AC$CHROMATOGRAPHY: FLOW_GRADIENT 95/5 at 0 min, 95/5 at 1 min, 0/100 at 13 min, 0/100 at 24 min, 95/5 at 24.3 min, 95/5 at 32 min
AC$CHROMATOGRAPHY: FLOW_RATE 300 uL/min
AC$CHROMATOGRAPHY: RETENTION_TIME 6.644 min
AC$CHROMATOGRAPHY: SOLVENT A water with 0.1% formic acid
AC$CHROMATOGRAPHY: SOLVENT B methanol with 0.1% formic acid
MS$FOCUSED_ION: BASE_PEAK 213.103
MS$FOCUSED_ION: PRECURSOR_M/Z 213.1022
MS$FOCUSED_ION: PRECURSOR_TYPE [M+H]+
MS$DATA_PROCESSING: RECALIBRATE loess on assigned fragments and MS1
MS$DATA_PROCESSING: REANALYZE Peaks with additional N2/O included
MS$DATA_PROCESSING: WHOLE RMassBank 2.9.1
PK$SPLASH: splash10-00di-0900000000-47c5e692114bba3b6b9a
PK$ANNOTATION: m/z tentative_formula formula_count mass error(ppm)
  93.0575 C6H7N+ 1 93.0573 1.69
  118.0653 C8H8N+ 1 118.0651 1.49
  129.0576 C9H7N+ 1 129.0573 2.22
  142.0654 C10H8N+ 1 142.0651 1.71
  143.0732 C10H9N+ 1 143.073 1.69
  144.0683 C9H8N2+ 1 144.0682 0.74
  144.0809 C10H10N+ 1 144.0808 0.83
  145.0651 C10H9O+ 1 145.0648 1.92
  155.0605 C10H7N2+ 1 155.0604 0.79
  169.0764 C11H9N2+ 1 169.076 2.05
  170.0839 C11H10N2+ 1 170.0838 0.15
  171.087 C6H11N4O2+ 1 171.0877 -3.82
  183.0922 C12H11N2+ 1 183.0917 2.63
  197.0711 C12H9N2O+ 1 197.0709 0.96
  198.0788 C12H10N2O+ 1 198.0788 0.36
  213.1023 C13H13N2O+ 1 213.1022 0.49
PK$NUM_PEAK: 16
PK$PEAK: m/z int. rel.int.
  93.0575 23244.4 4
  118.0653 14274.1 3
  129.0576 9741.3 2
  142.0654 7361.5 1
  143.0732 26478.2 5
  144.0683 75625 16
  144.0809 177862.5 37
  145.0651 7383 1
  155.0605 141354.1 29
  169.0764 1089670.1 230
  170.0839 4717488.5 999
  171.087 30604.7 6
  183.0922 5118 1
  197.0711 9135.1 1
  198.0788 755707.1 160
  213.1023 58541.1 12
//
