ACCESSION: MSBNK-NaToxAq-NA000644
RECORD_TITLE: Retrorsine; LC-ESI-ITFT; MS2; CE: 90%; R=15000; [M+H]+
DATE: 2019.02.28
AUTHORS: Tobias Schulze, Jawameer Hama, Hubert Schupke, Martin Krauss, Helmholtz Centre for Environmental Research GmbH - UFZ, Leipzig, Germany and University of Copenhagen (UCPH), Denmark
LICENSE: CC BY
COPYRIGHT: Copyright (C) 2019
COMMENT: CONFIDENCE Reference Standard (Level 1)
COMMENT: INTERNAL_ID 147
CH$NAME: Retrorsine
CH$NAME: beta-Longilobine
CH$NAME: (1R,4Z,6R,7S,17R)-4-ethylidene-7-hydroxy-7-(hydroxymethyl)-6-methyl-2,9-dioxa-14-azatricyclo[9.5.1.0^{14,17}]heptadec-11-ene-3,8-dione
CH$COMPOUND_CLASS: N/A; Environmental Standard
CH$FORMULA: C18H25NO6
CH$EXACT_MASS: 351.1682
CH$SMILES: C\C=C1\C[C@@H](C)[C@](O)(CO)C(=O)OCC2=CCN3CC[C@@H](OC1=O)[C@@H]23
CH$IUPAC: InChI=1S/C18H25NO6/c1-3-12-8-11(2)18(23,10-20)17(22)24-9-13-4-6-19-7-5-14(15(13)19)25-16(12)21/h3-4,11,14-15,20,23H,5-10H2,1-2H3/b12-3-/t11-,14-,15-,18-/m1/s1
CH$LINK: CAS 480-54-6
CH$LINK: CHEBI CHEBI:8822
CH$LINK: KEGG C10364
CH$LINK: PUBCHEM CID:5281743
CH$LINK: INCHIKEY BCJMNZRQJAVDLD-CQRYIUNCSA-N
CH$LINK: CHEMSPIDER 10202249
CH$LINK: COMPTOX DTXSID6021242
AC$INSTRUMENT: LTQ Orbitrap XL Thermo Scientific
AC$INSTRUMENT_TYPE: LC-ESI-ITFT
AC$MASS_SPECTROMETRY: MS_TYPE MS2
AC$MASS_SPECTROMETRY: ION_MODE POSITIVE
AC$MASS_SPECTROMETRY: IONIZATION ESI
AC$MASS_SPECTROMETRY: FRAGMENTATION_MODE HCD
AC$MASS_SPECTROMETRY: COLLISION_ENERGY 90 % (nominal)
AC$MASS_SPECTROMETRY: RESOLUTION 15000
AC$CHROMATOGRAPHY: COLUMN_NAME Kinetex Evo C18 2.6 um 50x2.1 mm, Phenomenex
AC$CHROMATOGRAPHY: FLOW_GRADIENT 95/5 at 0 min, 95/5 at 1 min, 0/100 at 13 min, 0/100 at 24 min, 95/5 at 24.3 min, 95/5 at 32 min
AC$CHROMATOGRAPHY: FLOW_RATE 300 uL/min
AC$CHROMATOGRAPHY: RETENTION_TIME 2.488 min
AC$CHROMATOGRAPHY: SOLVENT A water with 0.1% formic acid
AC$CHROMATOGRAPHY: SOLVENT B methanol with 0.1% formic acid
MS$FOCUSED_ION: BASE_PEAK 61.0395
MS$FOCUSED_ION: PRECURSOR_M/Z 352.1755
MS$FOCUSED_ION: PRECURSOR_TYPE [M+H]+
MS$DATA_PROCESSING: RECALIBRATE loess on assigned fragments and MS1
MS$DATA_PROCESSING: REANALYZE Peaks with additional N2/O included
MS$DATA_PROCESSING: WHOLE RMassBank 2.11.0
PK$SPLASH: splash10-0006-9200000000-dcec0da87dfcc0a56d4c
PK$ANNOTATION: m/z tentative_formula formula_count mass error(ppm)
  67.0542 C5H7+ 1 67.0542 -0.53
  80.0495 C5H6N+ 1 80.0495 0.26
  91.0541 C7H7+ 1 91.0542 -1.67
  93.07 C7H9+ 1 93.0699 1.17
  94.0652 C6H8N+ 1 94.0651 0.91
  95.0854 C7H11+ 1 95.0855 -1.24
  96.081 C6H10N+ 1 96.0808 1.95
  108.0807 C7H10N+ 1 108.0808 -0.41
  120.0808 C8H10N+ 1 120.0808 0.42
PK$NUM_PEAK: 9
PK$PEAK: m/z int. rel.int.
  67.0542 2792 615
  80.0495 1336.4 294
  91.0541 2319.2 511
  93.07 1441.4 317
  94.0652 4532.3 999
  95.0854 1429 314
  96.081 1234 271
  108.0807 1609.4 354
  120.0808 3230.1 711
//
