ACCESSION: MSBNK-NaToxAq-NA001570
RECORD_TITLE: Alpinetin; LC-ESI-ITFT; MS2; CE: 60%; R=15000; [M+H]+
DATE: 2019.07.31
AUTHORS: Tobias Schulze, Vaidotas Kisielius, Xiaomeng Liang, Mulatu Yohannes Nanusha, Martin Krauss, Helmholtz Centre for Environmental Research GmbH - UFZ, Leipzig, Germany and University of Copenhagen (UCPH), Denmark
LICENSE: CC BY
COPYRIGHT: Copyright (C) 2019
COMMENT: CONFIDENCE Reference Standard (Level 1)
COMMENT: INTERNAL_ID 7
CH$NAME: Alpinetin
CH$COMPOUND_CLASS: N/A; Environmental Standard
CH$FORMULA: C16H14O4
CH$EXACT_MASS: 270.0892
CH$SMILES: COC1=C2C(=O)CC(OC2=CC(=C1)O)C3=CC=CC=C3
CH$IUPAC: InChI=1S/C16H14O4/c1-19-14-7-11(17)8-15-16(14)12(18)9-13(20-15)10-5-3-2-4-6-10/h2-8,13,17H,9H2,1H3
CH$LINK: INCHIKEY QQQCWVDPMPFUGF-UHFFFAOYSA-N
CH$LINK: PUBCHEM CID:4053302
CH$LINK: COMPTOX DTXSID30398801
AC$INSTRUMENT: LTQ Orbitrap XL Thermo Scientific
AC$INSTRUMENT_TYPE: LC-ESI-ITFT
AC$MASS_SPECTROMETRY: MS_TYPE MS2
AC$MASS_SPECTROMETRY: ION_MODE POSITIVE
AC$MASS_SPECTROMETRY: IONIZATION ESI
AC$MASS_SPECTROMETRY: FRAGMENTATION_MODE CID
AC$MASS_SPECTROMETRY: COLLISION_ENERGY 60 % (nominal)
AC$MASS_SPECTROMETRY: RESOLUTION 15000
AC$CHROMATOGRAPHY: COLUMN_NAME Kinetex Evo C18 2.6 um 50x2.1 mm, Phenomenex
AC$CHROMATOGRAPHY: FLOW_GRADIENT 95/5 at 0 min, 95/5 at 1 min, 0/100 at 13 min, 0/100 at 24 min, 95/5 at 24.3 min, 95/5/0 at 32 min
AC$CHROMATOGRAPHY: FLOW_RATE 300 uL/min
AC$CHROMATOGRAPHY: RETENTION_TIME 10.247 min
AC$CHROMATOGRAPHY: SOLVENT A water with 0.1% formic acid
AC$CHROMATOGRAPHY: SOLVENT B methanol with 0.1% formic acid
MS$FOCUSED_ION: BASE_PEAK 271.0964
MS$FOCUSED_ION: PRECURSOR_M/Z 271.0965
MS$FOCUSED_ION: PRECURSOR_TYPE [M+H]+
MS$DATA_PROCESSING: RECALIBRATE loess on assigned fragments and MS1
MS$DATA_PROCESSING: REANALYZE Peaks with additional N2/O included
MS$DATA_PROCESSING: WHOLE RMassBank 2.12.0
PK$SPLASH: splash10-014i-0910000000-fb01afb0cbddf3d00efe
PK$ANNOTATION: m/z tentative_formula formula_count mass error(ppm)
  91.0544 C7H7+ 1 91.0542 1.49
  103.0543 C8H7+ 1 103.0542 0.85
  105.0339 C7H5O+ 1 105.0335 3.54
  131.0493 C9H7O+ 1 131.0491 1.11
  152.0107 C7H4O4+ 1 152.0104 1.95
  165.0551 C9H9O3+ 1 165.0546 2.7
  167.034 C8H7O4+ 1 167.0339 0.88
  169.0645 C12H9O+ 1 169.0648 -1.82
  171.0805 C12H11O+ 1 171.0804 0.53
  193.0499 C10H9O4+ 1 193.0495 1.95
  197.06 C13H9O2+ 1 197.0597 1.7
  201.0911 C13H13O2+ 1 201.091 0.65
  203.1068 C13H15O2+ 1 203.1067 0.86
  211.0756 C14H11O2+ 1 211.0754 1.19
  225.0913 C15H13O2+ 1 225.091 1.11
  227.1069 C15H15O2+ 1 227.1067 0.88
  229.0862 C14H13O3+ 1 229.0859 1.1
  239.0704 C15H11O3+ 1 239.0703 0.55
  253.0862 C16H13O3+ 1 253.0859 1.13
PK$NUM_PEAK: 19
PK$PEAK: m/z int. rel.int.
  91.0544 11911.8 1
  103.0543 27965.5 3
  105.0339 7596.9 1
  131.0493 414317.2 56
  152.0107 22217.5 3
  165.0551 7698.1 1
  167.034 7265701 999
  169.0645 9304.7 1
  171.0805 9012 1
  193.0499 7918.3 1
  197.06 11191.8 1
  201.0911 17302.6 2
  203.1068 37369.7 5
  211.0756 15145.4 2
  225.0913 12619.1 1
  227.1069 11283 1
  229.0862 681139.2 93
  239.0704 18334.4 2
  253.0862 101458.6 13
//
