ACCESSION: MSBNK-NaToxAq-NA002251
RECORD_TITLE: Zearalenone; LC-ESI-ITFT; MS2; CE: 15%; R=15000; [M+H]+
DATE: 2020.02.21
AUTHORS: Tobias Schulze, Martin Krauss, Helmholtz Centre for Environmental Research GmbH - UFZ, Leipzig, Germany
LICENSE: CC0
COPYRIGHT: Copyright (C) 2020 by Helmholtz Centre for Environmental Research GmbH - UFZ, Leipzig, Germany
COMMENT: CONFIDENCE Reference Standard (Level 1)
COMMENT: INTERNAL_ID 2248
CH$NAME: Zearalenone
CH$NAME: (4S,12E)-16,18-dihydroxy-4-methyl-3-oxabicyclo[12.4.0]octadeca-1(14),12,15,17-tetraene-2,8-dione
CH$COMPOUND_CLASS: N/A; Environmental Standard
CH$FORMULA: C18H22O5
CH$EXACT_MASS: 318.1467
CH$SMILES: C[C@H]1CCCC(=O)CCC/C=C/C2=CC(=CC(=C2C(=O)O1)O)O
CH$IUPAC: InChI=1S/C18H22O5/c1-12-6-5-9-14(19)8-4-2-3-7-13-10-15(20)11-16(21)17(13)18(22)23-12/h3,7,10-12,20-21H,2,4-6,8-9H2,1H3/b7-3+/t12-/m0/s1
CH$LINK: CAS 17924-92-4
CH$LINK: CHEBI CHEBI:10106
CH$LINK: KEGG C09981
CH$LINK: LIPIDMAPS LMPK04000016
CH$LINK: PUBCHEM CID:5281576
CH$LINK: INCHIKEY MBMQEIFVQACCCH-QBODLPLBSA-N
CH$LINK: CHEMSPIDER 4444897
CH$LINK: COMPTOX DTXSID0021460
AC$INSTRUMENT: LTQ Orbitrap XL Thermo Scientific
AC$INSTRUMENT_TYPE: LC-ESI-ITFT
AC$MASS_SPECTROMETRY: MS_TYPE MS2
AC$MASS_SPECTROMETRY: ION_MODE POSITIVE
AC$MASS_SPECTROMETRY: IONIZATION ESI
AC$MASS_SPECTROMETRY: FRAGMENTATION_MODE HCD
AC$MASS_SPECTROMETRY: COLLISION_ENERGY 15% (nominal)
AC$MASS_SPECTROMETRY: RESOLUTION 15000
AC$CHROMATOGRAPHY: COLUMN_NAME Kinetex Evo C18 2.6 um 50x2.1 mm, Phenomenex
AC$CHROMATOGRAPHY: FLOW_GRADIENT 95/5 at 0 min, 95/5 at 1 min, 0/100 at 13 min, 0/100 at 24 min, 95/5 at 24.3 min, 95/5/0 at 32 min
AC$CHROMATOGRAPHY: FLOW_RATE 300 uL/min
AC$CHROMATOGRAPHY: RETENTION_TIME 11.686 min
AC$CHROMATOGRAPHY: SOLVENT A water with 0.1% formic acid
AC$CHROMATOGRAPHY: SOLVENT B methanol with 0.1% formic acid
MS$FOCUSED_ION: BASE_PEAK 116.9859
MS$FOCUSED_ION: PRECURSOR_M/Z 319.154
MS$FOCUSED_ION: PRECURSOR_TYPE [M+H]+
MS$DATA_PROCESSING: RECALIBRATE loess on assigned fragments and MS1
MS$DATA_PROCESSING: REANALYZE Peaks with additional N2/O included
MS$DATA_PROCESSING: WHOLE RMassBank 2.14.1
PK$SPLASH: splash10-014i-0009000000-4b7757b58a361d83c0c1
PK$ANNOTATION: m/z tentative_formula formula_count mass error(ppm)
  283.133 C18H19O3+ 1 283.1329 0.41
  301.1433 C18H21O4+ 1 301.1434 -0.61
  319.1541 C18H23O5+ 1 319.154 0.17
PK$NUM_PEAK: 3
PK$PEAK: m/z int. rel.int.
  283.133 2225.4 53
  301.1433 5703.5 137
  319.1541 41526.1 999
//
