ACCESSION: MSBNK-NaToxAq-NA003044
RECORD_TITLE: Papaverin; LC-ESI-ITFT; MS2; CE: 60%; R=15000; [M+H]+
DATE: 2020.02.22
AUTHORS: Tobias Schulze, Martin Krauss, Helmholtz Centre for Environmental Research GmbH - UFZ, Leipzig, Germany
LICENSE: CC0
COPYRIGHT: Copyright (C) 2020 by Helmholtz Centre for Environmental Research GmbH - UFZ, Leipzig, Germany
COMMENT: CONFIDENCE Reference Standard (Level 1)
COMMENT: INTERNAL_ID 2252
CH$NAME: Papaverin
CH$NAME: Papaverine
CH$NAME: 1-[(3,4-dimethoxyphenyl)methyl]-6,7-dimethoxyisoquinoline
CH$COMPOUND_CLASS: N/A; Environmental Standard
CH$FORMULA: C20H21NO4
CH$EXACT_MASS: 339.1471
CH$SMILES: COC1=C(C=C(C=C1)CC2=NC=CC3=CC(=C(C=C32)OC)OC)OC
CH$IUPAC: InChI=1S/C20H21NO4/c1-22-17-6-5-13(10-18(17)23-2)9-16-15-12-20(25-4)19(24-3)11-14(15)7-8-21-16/h5-8,10-12H,9H2,1-4H3
CH$LINK: CAS 58-74-2
CH$LINK: CHEBI CHEBI:28241
CH$LINK: KEGG C06533
CH$LINK: PUBCHEM CID:4680
CH$LINK: INCHIKEY XQYZDYMELSJDRZ-UHFFFAOYSA-N
CH$LINK: CHEMSPIDER 4518
CH$LINK: COMPTOX DTXSID4023418
AC$INSTRUMENT: LTQ Orbitrap XL Thermo Scientific
AC$INSTRUMENT_TYPE: LC-ESI-ITFT
AC$MASS_SPECTROMETRY: MS_TYPE MS2
AC$MASS_SPECTROMETRY: ION_MODE POSITIVE
AC$MASS_SPECTROMETRY: IONIZATION ESI
AC$MASS_SPECTROMETRY: FRAGMENTATION_MODE HCD
AC$MASS_SPECTROMETRY: COLLISION_ENERGY 60% (nominal)
AC$MASS_SPECTROMETRY: RESOLUTION 15000
AC$CHROMATOGRAPHY: COLUMN_NAME Kinetex Evo C18 2.6 um 50x2.1 mm, Phenomenex
AC$CHROMATOGRAPHY: FLOW_GRADIENT 95/5 at 0 min, 95/5 at 1 min, 0/100 at 13 min, 0/100 at 24 min, 95/5 at 24.3 min, 95/5/0 at 32 min
AC$CHROMATOGRAPHY: FLOW_RATE 300 uL/min
AC$CHROMATOGRAPHY: RETENTION_TIME 7.588 min
AC$CHROMATOGRAPHY: SOLVENT A water with 0.1% formic acid
AC$CHROMATOGRAPHY: SOLVENT B methanol with 0.1% formic acid
MS$FOCUSED_ION: BASE_PEAK 340.1542
MS$FOCUSED_ION: PRECURSOR_M/Z 340.1543
MS$FOCUSED_ION: PRECURSOR_TYPE [M+H]+
MS$DATA_PROCESSING: RECALIBRATE loess on assigned fragments and MS1
MS$DATA_PROCESSING: REANALYZE Peaks with additional N2/O included
MS$DATA_PROCESSING: WHOLE RMassBank 2.14.1
PK$SPLASH: splash10-0fk9-0497000000-c19005f679b71b0f8a48
PK$ANNOTATION: m/z tentative_formula formula_count mass error(ppm)
  95.0491 C6H7O+ 1 95.0491 -0.75
  115.0543 C9H7+ 1 115.0542 0.98
  116.0492 C8H6N+ 1 116.0495 -2.14
  123.044 C7H7O2+ 1 123.0441 -0.22
  128.0495 C9H6N+ 1 128.0495 0.21
  131.0487 C9H7O+ 1 131.0491 -3.71
  136.0524 C8H8O2+ 1 136.0519 3.9
  138.0673 C8H10O2+ 1 138.0675 -2.02
  142.0652 C10H8N+ 1 142.0651 0.26
  144.0439 C9H6NO+ 1 144.0444 -3.41
  144.0806 C10H10N+ 1 144.0808 -1.35
  145.0649 C10H9O+ 1 145.0648 0.9
  146.06 C9H8NO+ 1 146.06 -0.35
  146.0731 C10H10O+ 1 146.0726 3.18
  147.0805 C10H11O+ 1 147.0804 0.55
  148.0519 C9H8O2+ 1 148.0519 0.19
  151.0755 C9H11O2+ 1 151.0754 1.27
  156.0441 C10H6NO+ 1 156.0444 -2.08
  157.0521 C10H7NO+ 1 157.0522 -0.42
  157.0884 C11H11N+ 1 157.0886 -1.44
  158.0601 C10H8NO+ 1 158.06 0.45
  159.0677 C10H9NO+ 1 159.0679 -1.28
  160.0753 C10H10NO+ 1 160.0757 -2.33
  161.0596 C10H9O2+ 1 161.0597 -0.67
  162.0672 C10H10O2+ 1 162.0675 -1.98
  170.06 C11H8NO+ 1 170.06 -0.06
  171.0678 C11H9NO+ 1 171.0679 -0.15
  172.0732 C8H12O4+ 1 172.073 1.06
  174.0549 C10H8NO2+ 1 174.055 -0.44
  174.0677 C11H10O2+ 1 174.0675 0.95
  174.0913 C11H12NO+ 1 174.0913 -0.22
  175.0753 C11H11O2+ 1 175.0754 -0.44
  186.0549 C11H8NO2+ 1 186.055 -0.27
  187.0628 C11H9NO2+ 1 187.0628 -0.1
  188.0709 C11H10NO2+ 1 188.0706 1.61
  189.0786 C11H11NO2+ 1 189.0784 1.12
  190.0863 C11H12NO2+ 1 190.0863 0.08
  202.0862 C12H12NO2+ 1 202.0863 -0.31
  224.107 C15H14NO+ 1 224.107 0.08
  227.0932 C14H13NO2+ 1 227.0941 -4.06
  235.0993 C16H13NO+ 1 235.0992 0.39
  236.1072 C16H14NO+ 1 236.107 0.78
  240.1023 C15H14NO2+ 1 240.1019 1.72
  241.1098 C15H15NO2+ 1 241.1097 0.33
  248.1067 C17H14NO+ 1 248.107 -1.09
  249.1149 C17H15NO+ 1 249.1148 0.27
  252.1018 C16H14NO2+ 1 252.1019 -0.27
  254.1171 C16H16NO2+ 1 254.1176 -1.88
  263.0934 C17H13NO2+ 1 263.0941 -2.73
  264.102 C17H14NO2+ 1 264.1019 0.35
  266.1177 C17H16NO2+ 1 266.1176 0.48
  267.1267 C17H17NO2+ 1 267.1254 4.89
  278.1174 C18H16NO2+ 1 278.1176 -0.54
  279.0886 C17H13NO3+ 1 279.089 -1.32
  279.1255 C18H17NO2+ 1 279.1254 0.29
  280.0968 C17H14NO3+ 1 280.0968 0.06
  281.1054 C17H15NO3+ 1 281.1046 2.73
  282.1126 C17H16NO3+ 1 282.1125 0.51
  292.0965 C18H14NO3+ 1 292.0968 -1
  294.1125 C18H16NO3+ 1 294.1125 0.27
  295.1205 C18H17NO3+ 1 295.1203 0.74
  296.1281 C18H18NO3+ 1 296.1281 -0.23
  306.1132 C19H16NO3+ 1 306.1125 2.34
  308.0917 C18H14NO4+ 1 308.0917 -0.11
  308.1277 C19H18NO3+ 1 308.1281 -1.52
  309.0996 C18H15NO4+ 1 309.0996 0.15
  310.1076 C18H16NO4+ 1 310.1074 0.7
  322.108 C19H16NO4+ 1 322.1074 1.8
  324.1229 C19H18NO4+ 1 324.123 -0.27
  340.1541 C20H22NO4+ 1 340.1543 -0.58
PK$NUM_PEAK: 70
PK$PEAK: m/z int. rel.int.
  95.0491 13279 9
  115.0543 5004.7 3
  116.0492 2469.1 1
  123.044 91964.6 68
  128.0495 3594.9 2
  131.0487 2345.2 1
  136.0524 2176.3 1
  138.0673 3155.3 2
  142.0652 16640 12
  144.0439 2457.1 1
  144.0806 4115.5 3
  145.0649 5270.9 3
  146.06 1990.2 1
  146.0731 2021.4 1
  147.0805 5724.2 4
  148.0519 17292.8 12
  151.0755 10273.8 7
  156.0441 7072.4 5
  157.0521 3699.9 2
  157.0884 6417.3 4
  158.0601 37692.5 28
  159.0677 19332.1 14
  160.0753 5787.6 4
  161.0596 5605.4 4
  162.0672 5090.7 3
  170.06 23162 17
  171.0678 437308.1 325
  172.0732 46761.3 34
  174.0549 4864.9 3
  174.0677 4208.9 3
  174.0913 13702.2 10
  175.0753 30027.1 22
  186.0549 40519.4 30
  187.0628 92685.3 69
  188.0709 23058.8 17
  189.0786 13161.4 9
  190.0863 6367.7 4
  202.0862 1228575.5 914
  224.107 2727.3 2
  227.0932 2093.5 1
  235.0993 7268.2 5
  236.1072 9089.5 6
  240.1023 6532.5 4
  241.1098 7958.4 5
  248.1067 5854.5 4
  249.1149 18157.4 13
  252.1018 17542.8 13
  254.1171 3088.1 2
  263.0934 4323.7 3
  264.102 19519.5 14
  266.1177 24702.4 18
  267.1267 6609.9 4
  278.1174 11677.7 8
  279.0886 3106.3 2
  279.1255 9567.8 7
  280.0968 27179.4 20
  281.1054 6867.3 5
  282.1126 31874.1 23
  292.0965 7575.1 5
  294.1125 41233.1 30
  295.1205 75770.7 56
  296.1281 233261.3 173
  306.1132 2252.6 1
  308.0917 15400.9 11
  308.1277 15820.4 11
  309.0996 23405.3 17
  310.1076 34896.6 25
  322.108 5102.8 3
  324.1229 1341633.8 999
  340.1541 140210.2 104
//
