ACCESSION: MSBNK-NaToxAq-NA002550
RECORD_TITLE: Ajmalicine; LC-ESI-ITFT; MS2; CE: 30%; R=15000; [M+H]+
DATE: 2020.02.21
AUTHORS: Tobias Schulze, Martin Krauss, Helmholtz Centre for Environmental Research GmbH - UFZ, Leipzig, Germany
LICENSE: CC0
COPYRIGHT: Copyright (C) 2020 by Helmholtz Centre for Environmental Research GmbH - UFZ, Leipzig, Germany
COMMENT: CONFIDENCE Reference Standard (Level 1)
COMMENT: INTERNAL_ID 2326
CH$NAME: Ajmalicine
CH$NAME: methyl (1S,15R,16S,20S)-16-methyl-17-oxa-3,13-diazapentacyclo[11.8.0.02,10.04,9.015,20]henicosa-2(10),4,6,8,18-pentaene-19-carboxylate
CH$COMPOUND_CLASS: N/A; Environmental Standard
CH$FORMULA: C21H24N2O3
CH$EXACT_MASS: 352.1787
CH$SMILES: C[C@H]1[C@H]2CN3CCc4c5ccccc5[nH]c4[C@@H]3C[C@@H]2C(=CO1)C(=O)OC
CH$IUPAC: InChI=1S/C21H24N2O3/c1-12-16-10-23-8-7-14-13-5-3-4-6-18(13)22-20(14)19(23)9-15(16)17(11-26-12)21(24)25-2/h3-6,11-12,15-16,19,22H,7-10H2,1-2H3/t12-,15-,16+,19-/m0/s1
CH$LINK: CAS 483-04-5
CH$LINK: CHEBI CHEBI:2524
CH$LINK: KEGG C09024
CH$LINK: PUBCHEM CID:441975
CH$LINK: INCHIKEY GRTOGORTSDXSFK-XJTZBENFSA-N
CH$LINK: CHEMSPIDER 390541
CH$LINK: COMPTOX DTXSID60904151
AC$INSTRUMENT: LTQ Orbitrap XL Thermo Scientific
AC$INSTRUMENT_TYPE: LC-ESI-ITFT
AC$MASS_SPECTROMETRY: MS_TYPE MS2
AC$MASS_SPECTROMETRY: ION_MODE POSITIVE
AC$MASS_SPECTROMETRY: IONIZATION ESI
AC$MASS_SPECTROMETRY: FRAGMENTATION_MODE HCD
AC$MASS_SPECTROMETRY: COLLISION_ENERGY 30% (nominal)
AC$MASS_SPECTROMETRY: RESOLUTION 15000
AC$CHROMATOGRAPHY: COLUMN_NAME Kinetex Evo C18 2.6 um 50x2.1 mm, Phenomenex
AC$CHROMATOGRAPHY: FLOW_GRADIENT 95/5 at 0 min, 95/5 at 1 min, 0/100 at 13 min, 0/100 at 24 min, 95/5 at 24.3 min, 95/5/0 at 32 min
AC$CHROMATOGRAPHY: FLOW_RATE 300 uL/min
AC$CHROMATOGRAPHY: RETENTION_TIME 7.572 min
AC$CHROMATOGRAPHY: SOLVENT A water with 0.1% formic acid
AC$CHROMATOGRAPHY: SOLVENT B methanol with 0.1% formic acid
MS$FOCUSED_ION: BASE_PEAK 353.1857
MS$FOCUSED_ION: PRECURSOR_M/Z 353.186
MS$FOCUSED_ION: PRECURSOR_TYPE [M+H]+
MS$DATA_PROCESSING: RECALIBRATE loess on assigned fragments and MS1
MS$DATA_PROCESSING: REANALYZE Peaks with additional N2/O included
MS$DATA_PROCESSING: WHOLE RMassBank 2.14.1
PK$SPLASH: splash10-0udl-0519000000-242eab8b2d3d9af3d235
PK$ANNOTATION: m/z tentative_formula formula_count mass error(ppm)
  144.0807 C10H10N+ 1 144.0808 -0.65
  158.0963 C11H12N+ 1 158.0964 -0.57
  170.0962 C12H12N+ 1 170.0964 -1.08
  178.0862 C10H12NO2+ 1 178.0863 -0.47
  185.1072 C12H13N2+ 1 185.1073 -0.6
  196.0966 C10H14NO3+ 1 196.0968 -1.25
  199.1228 C13H15N2+ 1 199.123 -0.96
  208.0966 C11H14NO3+ 1 208.0968 -0.91
  210.1123 C11H16NO3+ 1 210.1125 -0.82
  222.1123 C12H16NO3+ 1 222.1125 -0.95
  251.1539 C17H19N2+ 1 251.1543 -1.49
  278.1171 C18H16NO2+ 1 278.1176 -1.56
  284.1279 C17H18NO3+ 1 284.1281 -0.71
  310.1438 C19H20NO3+ 1 310.1438 0.18
  321.1594 C20H21N2O2+ 1 321.1598 -1.02
  324.1592 C20H22NO3+ 1 324.1594 -0.81
  336.1593 C21H22NO3+ 1 336.1594 -0.45
  353.1857 C21H25N2O3+ 1 353.186 -0.73
PK$NUM_PEAK: 18
PK$PEAK: m/z int. rel.int.
  144.0807 484179.6 573
  158.0963 8427.9 9
  170.0962 6879 8
  178.0862 9987.7 11
  185.1072 5028.3 5
  196.0966 7067.7 8
  199.1228 12368.1 14
  208.0966 2874.8 3
  210.1123 96046.1 113
  222.1123 23203.4 27
  251.1539 2406 2
  278.1171 4279.3 5
  284.1279 13240.5 15
  310.1438 5505.1 6
  321.1594 32871.8 38
  324.1592 2805.5 3
  336.1593 4598.1 5
  353.1857 843468.8 999
//
