ACCESSION: MSBNK-NaToxAq-NA003359
RECORD_TITLE: Fraxidin; LC-ESI-ITFT; MS2; CE: 60%; R=15000; [M+H]+
DATE: 2020.02.22
AUTHORS: Tobias Schulze, Martin Krauss, Helmholtz Centre for Environmental Research GmbH - UFZ, Leipzig, Germany
LICENSE: CC0
COPYRIGHT: Copyright (C) 2020 by Helmholtz Centre for Environmental Research GmbH - UFZ, Leipzig, Germany
COMMENT: CONFIDENCE Reference Standard (Level 1)
COMMENT: INTERNAL_ID 2344
CH$NAME: Fraxidin
CH$NAME: 8-hydroxy-6,7-dimethoxychromen-2-one
CH$COMPOUND_CLASS: N/A; Environmental Standard
CH$FORMULA: C11H10O5
CH$EXACT_MASS: 222.0528
CH$SMILES: COC1=C(OC)C(O)=C2OC(=O)C=CC2=C1
CH$IUPAC: InChI=1S/C11H10O5/c1-14-7-5-6-3-4-8(12)16-10(6)9(13)11(7)15-2/h3-5,13H,1-2H3
CH$LINK: CAS 525-21-3
CH$LINK: CHEBI CHEBI:81120
CH$LINK: KEGG C17479
CH$LINK: PUBCHEM CID:3083616
CH$LINK: INCHIKEY QNFBKOHHLAWWTC-UHFFFAOYSA-N
CH$LINK: CHEMSPIDER 2340791
CH$LINK: COMPTOX DTXSID70200499
AC$INSTRUMENT: LTQ Orbitrap XL Thermo Scientific
AC$INSTRUMENT_TYPE: LC-ESI-ITFT
AC$MASS_SPECTROMETRY: MS_TYPE MS2
AC$MASS_SPECTROMETRY: ION_MODE POSITIVE
AC$MASS_SPECTROMETRY: IONIZATION ESI
AC$MASS_SPECTROMETRY: FRAGMENTATION_MODE HCD
AC$MASS_SPECTROMETRY: COLLISION_ENERGY 60% (nominal)
AC$MASS_SPECTROMETRY: RESOLUTION 15000
AC$CHROMATOGRAPHY: COLUMN_NAME Kinetex Evo C18 2.6 um 50x2.1 mm, Phenomenex
AC$CHROMATOGRAPHY: FLOW_GRADIENT 95/5 at 0 min, 95/5 at 1 min, 0/100 at 13 min, 0/100 at 24 min, 95/5 at 24.3 min, 95/5/0 at 32 min
AC$CHROMATOGRAPHY: FLOW_RATE 300 uL/min
AC$CHROMATOGRAPHY: RETENTION_TIME 7.600 min
AC$CHROMATOGRAPHY: SOLVENT A water with 0.1% formic acid
AC$CHROMATOGRAPHY: SOLVENT B methanol with 0.1% formic acid
MS$FOCUSED_ION: BASE_PEAK 116.9858
MS$FOCUSED_ION: PRECURSOR_M/Z 223.0601
MS$FOCUSED_ION: PRECURSOR_TYPE [M+H]+
MS$DATA_PROCESSING: RECALIBRATE loess on assigned fragments and MS1
MS$DATA_PROCESSING: REANALYZE Peaks with additional N2/O included
MS$DATA_PROCESSING: WHOLE RMassBank 2.14.1
PK$SPLASH: splash10-08fu-0930000000-de01ced24a1b54411744
PK$ANNOTATION: m/z tentative_formula formula_count mass error(ppm)
  78.0464 C6H6+ 1 78.0464 0.44
  79.0544 C6H7+ 1 79.0542 2.24
  105.0336 C7H5O+ 1 105.0335 1.38
  106.0414 C7H6O+ 1 106.0413 0.44
  107.0491 C7H7O+ 1 107.0491 -0.42
  118.0415 C8H6O+ 1 118.0413 1.72
  121.0287 C7H5O2+ 1 121.0284 2.47
  123.0443 C7H7O2+ 1 123.0441 2.32
  133.0285 C8H5O2+ 1 133.0284 0.89
  134.0363 C8H6O2+ 1 134.0362 0.54
  135.0441 C8H7O2+ 1 135.0441 0.65
  144.0208 C9H4O2+ 1 144.0206 1.18
  146.0362 C9H6O2+ 1 146.0362 -0.21
  150.0312 C8H6O3+ 1 150.0311 0.64
  151.0395 C8H7O3+ 1 151.039 3.25
  152.0468 C8H8O3+ 1 152.0468 -0.29
  161.0233 C9H5O3+ 1 161.0233 0.05
  162.0313 C9H6O3+ 1 162.0311 0.8
  163.039 C9H7O3+ 1 163.039 0.42
  164.047 C9H8O3+ 1 164.0468 1.16
  165.0186 C8H5O4+ 1 165.0182 1.94
  167.0704 C9H11O3+ 1 167.0703 0.77
  172.0153 C10H4O3+ 1 172.0155 -1.22
  178.0262 C9H6O4+ 1 178.0261 0.62
  179.034 C9H7O4+ 1 179.0339 0.53
  180.0419 C9H8O4+ 1 180.0417 1.21
  190.0261 C10H6O4+ 1 190.0261 0.31
  191.0341 C10H7O4+ 1 191.0339 1.35
  193.0132 C9H5O5+ 1 193.0131 0.44
  195.0652 C10H11O4+ 1 195.0652 0.32
  207.0289 C10H7O5+ 1 207.0288 0.53
  208.0367 C10H8O5+ 1 208.0366 0.31
  223.0602 C11H11O5+ 1 223.0601 0.37
PK$NUM_PEAK: 33
PK$PEAK: m/z int. rel.int.
  78.0464 7029.8 17
  79.0544 2279.6 5
  105.0336 4781.2 11
  106.0414 12374.3 30
  107.0491 8499.1 21
  118.0415 3132 7
  121.0287 1733 4
  123.0443 1506.4 3
  133.0285 5037.9 12
  134.0363 40069.3 100
  135.0441 100538.9 251
  144.0208 3198.8 7
  146.0362 4693.7 11
  150.0312 1220.9 3
  151.0395 1446 3
  152.0468 10006.9 24
  161.0233 3806.4 9
  162.0313 319964.5 798
  163.039 89581.2 223
  164.047 3278.9 8
  165.0186 3241.1 8
  167.0704 12143.7 30
  172.0153 2006.1 5
  178.0262 38639.1 96
  179.034 111160.9 277
  180.0419 15418.1 38
  190.0261 400087.1 999
  191.0341 3318.5 8
  193.0132 9824.3 24
  195.0652 6588.6 16
  207.0289 168125.9 419
  208.0367 211012.5 526
  223.0602 153163.3 382
//
