ACCESSION: MSBNK-NaToxAq-NA002003
RECORD_TITLE: trans-Zeatin; LC-ESI-ITFT; MS2; CE: 125%; R=15000; [M+H]+
DATE: 2019.07.31
AUTHORS: Tobias Schulze, Vaidotas Kisielius, Xiaomeng Liang, Mulatu Yohannes Nanusha, Martin Krauss, Helmholtz Centre for Environmental Research GmbH - UFZ, Leipzig, Germany and University of Copenhagen (UCPH), Denmark
LICENSE: CC BY
COPYRIGHT: Copyright (C) 2019
COMMENT: CONFIDENCE Reference Standard (Level 1)
COMMENT: INTERNAL_ID 24
CH$NAME: trans-Zeatin
CH$COMPOUND_CLASS: N/A; Environmental Standard
CH$FORMULA: C10H13N5O
CH$EXACT_MASS: 219.1120
CH$SMILES: C\C(CO)=C/CNC1=C2N=CNC2=NC=N1
CH$IUPAC: InChI=1S/C10H13N5O/c1-7(4-16)2-3-11-9-8-10(13-5-12-8)15-6-14-9/h2,5-6,16H,3-4H2,1H3,(H2,11,12,13,14,15)/b7-2+
CH$LINK: INCHIKEY UZKQTCBAMSWPJD-FARCUNLSSA-N
CH$LINK: PUBCHEM CID:449093
CH$LINK: COMPTOX DTXSID9040631
AC$INSTRUMENT: LTQ Orbitrap XL Thermo Scientific
AC$INSTRUMENT_TYPE: LC-ESI-ITFT
AC$MASS_SPECTROMETRY: MS_TYPE MS2
AC$MASS_SPECTROMETRY: ION_MODE POSITIVE
AC$MASS_SPECTROMETRY: IONIZATION ESI
AC$MASS_SPECTROMETRY: FRAGMENTATION_MODE HCD
AC$MASS_SPECTROMETRY: COLLISION_ENERGY 125 % (nominal)
AC$MASS_SPECTROMETRY: RESOLUTION 15000
AC$CHROMATOGRAPHY: COLUMN_NAME Kinetex Evo C18 2.6 um 50x2.1 mm, Phenomenex
AC$CHROMATOGRAPHY: FLOW_GRADIENT 95/5 at 0 min, 95/5 at 1 min, 0/100 at 13 min, 0/100 at 24 min, 95/5 at 24.3 min, 95/5/0 at 32 min
AC$CHROMATOGRAPHY: FLOW_RATE 300 uL/min
AC$CHROMATOGRAPHY: RETENTION_TIME 0.927 min
AC$CHROMATOGRAPHY: SOLVENT A water with 0.1% formic acid
AC$CHROMATOGRAPHY: SOLVENT B methanol with 0.1% formic acid
MS$FOCUSED_ION: BASE_PEAK 220.1188
MS$FOCUSED_ION: PRECURSOR_M/Z 220.1193
MS$FOCUSED_ION: PRECURSOR_TYPE [M+H]+
MS$DATA_PROCESSING: RECALIBRATE loess on assigned fragments and MS1
MS$DATA_PROCESSING: REANALYZE Peaks with additional N2/O included
MS$DATA_PROCESSING: WHOLE RMassBank 2.12.0
PK$SPLASH: splash10-014i-3900000000-0cf8e48514eee12a21ae
PK$ANNOTATION: m/z tentative_formula formula_count mass error(ppm)
  55.029 C2H3N2+ 1 55.0291 -1.34
  65.0134 C3HN2+ 1 65.0134 -1.05
  67.029 C3H3N2+ 1 67.0291 -0.48
  67.0543 C5H7+ 1 67.0542 0.35
  77.0135 C4HN2+ 1 77.0134 1.2
  82.0401 C3H4N3+ 1 82.04 1.07
  92.0243 C4H2N3+ 1 92.0243 -0.41
  94.0399 C4H4N3+ 1 94.04 -0.52
  109.0508 C4H5N4+ 1 109.0509 -0.97
  119.0352 C5H3N4+ 1 119.0352 -0.52
  120.0319 C6H4N2O+ 1 120.0318 0.58
  121.0506 C5H5N4+ 1 121.0509 -1.98
  136.0617 C5H6N5+ 1 136.0618 -0.39
  137.0458 C5H5N4O+ 1 137.0458 -0.25
  148.062 C6H6N5+ 1 148.0618 1.8
PK$NUM_PEAK: 15
PK$PEAK: m/z int. rel.int.
  55.029 4026 10
  65.0134 14346.6 37
  67.029 27919.2 73
  67.0543 4913.5 12
  77.0135 3367.4 8
  82.0401 9716.3 25
  92.0243 107894.5 285
  94.0399 29021.9 76
  109.0508 31049.9 82
  119.0352 378008.5 999
  120.0319 2054 5
  121.0506 3941.4 10
  136.0617 57018.5 150
  137.0458 34864.5 92
  148.062 2644.6 6
//
