ACCESSION: MSBNK-NaToxAq-NA003323
RECORD_TITLE: Vincamin; LC-ESI-ITFT; MS2; CE: 80%; R=15000; [M+H]+
DATE: 2020.02.22
AUTHORS: Tobias Schulze, Martin Krauss, Helmholtz Centre for Environmental Research GmbH - UFZ, Leipzig, Germany
LICENSE: CC0
COPYRIGHT: Copyright (C) 2020 by Helmholtz Centre for Environmental Research GmbH - UFZ, Leipzig, Germany
COMMENT: CONFIDENCE Reference Standard (Level 1)
COMMENT: INTERNAL_ID 2327
CH$NAME: Vincamin
CH$NAME: Vincamine
CH$NAME: methyl (15S,17S,19S)-15-ethyl-17-hydroxy-1,11-diazapentacyclo[9.6.2.02,7.08,18.015,19]nonadeca-2,4,6,8(18)-tetraene-17-carboxylate
CH$COMPOUND_CLASS: N/A; Environmental Standard
CH$FORMULA: C21H26N2O3
CH$EXACT_MASS: 354.1943
CH$SMILES: CC[C@@]12CCCN3[C@@H]1C4=C(CC3)C5=CC=CC=C5N4[C@](C2)(C(=O)OC)O
CH$IUPAC: InChI=1S/C21H26N2O3/c1-3-20-10-6-11-22-12-9-15-14-7-4-5-8-16(14)23(17(15)18(20)22)21(25,13-20)19(24)26-2/h4-5,7-8,18,25H,3,6,9-13H2,1-2H3/t18-,20+,21+/m1/s1
CH$LINK: CAS 1617-90-9
CH$LINK: CHEBI CHEBI:9985
CH$LINK: KEGG D08677
CH$LINK: PUBCHEM CID:15376
CH$LINK: INCHIKEY RXPRRQLKFXBCSJ-GIVPXCGWSA-N
CH$LINK: CHEMSPIDER 14635
CH$LINK: COMPTOX DTXSID9040134
AC$INSTRUMENT: LTQ Orbitrap XL Thermo Scientific
AC$INSTRUMENT_TYPE: LC-ESI-ITFT
AC$MASS_SPECTROMETRY: MS_TYPE MS2
AC$MASS_SPECTROMETRY: ION_MODE POSITIVE
AC$MASS_SPECTROMETRY: IONIZATION ESI
AC$MASS_SPECTROMETRY: FRAGMENTATION_MODE HCD
AC$MASS_SPECTROMETRY: COLLISION_ENERGY 80% (nominal)
AC$MASS_SPECTROMETRY: RESOLUTION 15000
AC$CHROMATOGRAPHY: COLUMN_NAME Kinetex Evo C18 2.6 um 50x2.1 mm, Phenomenex
AC$CHROMATOGRAPHY: FLOW_GRADIENT 95/5 at 0 min, 95/5 at 1 min, 0/100 at 13 min, 0/100 at 24 min, 95/5 at 24.3 min, 95/5/0 at 32 min
AC$CHROMATOGRAPHY: FLOW_RATE 300 uL/min
AC$CHROMATOGRAPHY: RETENTION_TIME 6.603 min
AC$CHROMATOGRAPHY: SOLVENT A water with 0.1% formic acid
AC$CHROMATOGRAPHY: SOLVENT B methanol with 0.1% formic acid
MS$FOCUSED_ION: BASE_PEAK 355.2014
MS$FOCUSED_ION: PRECURSOR_M/Z 355.2016
MS$FOCUSED_ION: PRECURSOR_TYPE [M+H]+
MS$DATA_PROCESSING: RECALIBRATE loess on assigned fragments and MS1
MS$DATA_PROCESSING: REANALYZE Peaks with additional N2/O included
MS$DATA_PROCESSING: WHOLE RMassBank 2.14.1
PK$SPLASH: splash10-00kf-1690000000-38d106045e8bc232edb0
PK$ANNOTATION: m/z tentative_formula formula_count mass error(ppm)
  55.054 C4H7+ 1 55.0542 -4.38
  67.0541 C5H7+ 1 67.0542 -1.65
  68.0494 C4H6N+ 1 68.0495 -1.13
  70.065 C4H8N+ 1 70.0651 -1.19
  79.0541 C6H7+ 1 79.0542 -1.04
  80.0493 C5H6N+ 1 80.0495 -1.88
  81.0699 C6H9+ 1 81.0699 0.42
  82.0651 C5H8N+ 1 82.0651 -0.51
  83.0491 C5H7O+ 1 83.0491 -0.48
  84.0808 C5H10N+ 1 84.0808 0.68
  91.0542 C7H7+ 1 91.0542 -0.3
  93.0698 C7H9+ 1 93.0699 -0.82
  94.0652 C6H8N+ 1 94.0651 0.49
  95.0493 C6H7O+ 1 95.0491 1.58
  95.0855 C7H11+ 1 95.0855 -0.68
  96.0807 C6H10N+ 1 96.0808 -1.2
  98.0963 C6H12N+ 1 98.0964 -0.94
  103.0544 C8H7+ 1 103.0542 1.46
  105.0698 C8H9+ 1 105.0699 -0.81
  106.065 C7H8N+ 1 106.0651 -0.98
  107.0494 C7H7O+ 1 107.0491 2.79
  107.0854 C8H11+ 1 107.0855 -1.21
  108.0807 C7H10N+ 1 108.0808 -0.39
  109.0648 C7H9O+ 1 109.0648 0.16
  109.1009 C8H13+ 1 109.1012 -2.99
  110.0963 C7H12N+ 1 110.0964 -0.71
  111.1043 C7H13N+ 1 111.1043 0.12
  112.1121 C7H14N+ 1 112.1121 0.13
  115.0541 C9H7+ 1 115.0542 -0.81
  117.0577 C8H7N+ 1 117.0573 3.04
  117.0698 C9H9+ 1 117.0699 -0.83
  118.0651 C8H8N+ 1 118.0651 -0.01
  119.0856 C9H11+ 1 119.0855 0.29
  120.0809 C8H10N+ 1 120.0808 0.71
  121.0648 C8H9O+ 1 121.0648 0.38
  122.0599 C7H8NO+ 1 122.06 -1.03
  122.0963 C8H12N+ 1 122.0964 -1.1
  123.0804 C8H11O+ 1 123.0804 -0.29
  123.1044 C8H13N+ 1 123.1043 1.02
  124.0756 C7H10NO+ 1 124.0757 -0.82
  124.112 C8H14N+ 1 124.1121 -0.7
  129.0699 C10H9+ 1 129.0699 -0.05
  130.065 C9H8N+ 1 130.0651 -1.2
  131.0729 C9H9N+ 1 131.073 -0.37
  132.0806 C9H10N+ 1 132.0808 -1.18
  133.0648 C9H9O+ 1 133.0648 0.14
  134.0963 C9H12N+ 1 134.0964 -0.82
  135.0804 C9H11O+ 1 135.0804 -0.09
  136.0756 C8H10NO+ 1 136.0757 -0.97
  136.1117 C9H14N+ 1 136.1121 -3.05
  137.0956 C9H13O+ 1 137.0961 -3.65
  143.0729 C10H9N+ 1 143.073 -0.5
  144.0807 C10H10N+ 1 144.0808 -0.72
  146.0965 C10H12N+ 1 146.0964 0.42
  152.1069 C9H14NO+ 1 152.107 -0.79
  154.0651 C11H8N+ 1 154.0651 -0.26
  154.0859 C8H12NO2+ 1 154.0863 -2.62
  155.0605 C10H7N2+ 1 155.0604 0.83
  155.0728 C11H9N+ 1 155.073 -0.86
  156.0807 C11H10N+ 1 156.0808 -0.66
  157.0885 C11H11N+ 1 157.0886 -0.76
  158.0964 C11H12N+ 1 158.0964 -0.47
  162.0912 C10H12NO+ 1 162.0913 -1.08
  167.0731 C12H9N+ 1 167.073 0.71
  168.0806 C12H10N+ 1 168.0808 -1.11
  169.0888 C12H11N+ 1 169.0886 1.15
  170.0599 C11H8NO+ 1 170.06 -0.96
  170.0963 C12H12N+ 1 170.0964 -0.92
  171.0913 C11H11N2+ 1 171.0917 -2.06
  172.1125 C12H14N+ 1 172.1121 2.64
  174.0917 C11H12NO+ 1 174.0913 2.14
  178.0779 C14H10+ 1 178.0777 0.93
  179.0851 C14H11+ 1 179.0855 -2.48
  180.0806 C13H10N+ 1 180.0808 -0.92
  181.0886 C13H11N+ 1 181.0886 -0.24
  182.0963 C13H12N+ 1 182.0964 -0.57
  183.1048 C13H13N+ 1 183.1043 3.11
  184.0757 C12H10NO+ 1 184.0757 -0.09
  184.1122 C13H14N+ 1 184.1121 0.7
  191.0727 C14H9N+ 1 191.073 -1.14
  192.0804 C14H10N+ 1 192.0808 -1.77
  192.0926 C15H12+ 1 192.0934 -4
  193.0886 C14H11N+ 1 193.0886 0.22
  193.1012 C15H13+ 1 193.1012 0.21
  194.0964 C14H12N+ 1 194.0964 -0.25
  194.1175 C11H16NO2+ 1 194.1176 -0.39
  195.1044 C14H13N+ 1 195.1043 0.69
  196.0762 C13H10NO+ 1 196.0757 2.6
  196.112 C14H14N+ 1 196.1121 -0.32
  197.1071 C13H13N2+ 1 197.1073 -1.08
  198.1278 C14H16N+ 1 198.1277 0.22
  204.0806 C15H10N+ 1 204.0808 -0.63
  205.0886 C15H11N+ 1 205.0886 0.19
  206.0963 C15H12N+ 1 206.0964 -0.56
  207.1044 C15H13N+ 1 207.1043 0.62
  207.1165 C16H15+ 1 207.1168 -1.75
  208.0755 C14H10NO+ 1 208.0757 -1.03
  208.112 C15H14N+ 1 208.1121 -0.48
  209.1201 C15H15N+ 1 209.1199 1.05
  210.1282 C15H16N+ 1 210.1277 2.13
  212.1278 C11H18NO3+ 1 212.1281 -1.58
  217.088 C16H11N+ 1 217.0886 -2.54
  218.0963 C16H12N+ 1 218.0964 -0.36
  219.1043 C16H13N+ 1 219.1043 0.4
  220.112 C16H14N+ 1 220.1121 -0.43
  221.1204 C16H15N+ 1 221.1199 2.19
  222.091 C15H12NO+ 1 222.0913 -1.35
  222.1275 C16H16N+ 1 222.1277 -1.05
  223.1235 C15H15N2+ 1 223.123 2.18
  224.1311 C15H16N2+ 1 224.1308 1.28
  224.1434 C16H18N+ 1 224.1434 0.04
  225.1396 C15H17N2+ 1 225.1386 4.19
  226.1224 C15H16NO+ 1 226.1226 -1.21
  230.0958 C17H12N+ 1 230.0964 -2.76
  231.1043 C17H13N+ 1 231.1043 0.09
  232.075 C16H10NO+ 1 232.0757 -2.83
  232.1119 C17H14N+ 1 232.1121 -0.63
  233.083 C16H11NO+ 1 233.0835 -2.1
  233.1075 C16H13N2+ 1 233.1073 0.76
  233.12 C17H15N+ 1 233.1199 0.62
  234.1275 C17H16N+ 1 234.1277 -0.88
  235.1241 C16H15N2+ 1 235.123 4.98
  235.1364 C17H17N+ 1 235.1356 3.54
  236.1066 C16H14NO+ 1 236.107 -1.74
  236.1434 C17H18N+ 1 236.1434 0.1
  237.0782 C15H11NO2+ 1 237.0784 -0.79
  237.1388 C16H17N2+ 1 237.1386 0.63
  238.0863 C15H12NO2+ 1 238.0863 0.31
  238.1227 C16H16NO+ 1 238.1226 0.34
  239.0941 C15H13NO2+ 1 239.0941 0.06
  239.1548 C16H19N2+ 1 239.1543 2.04
  246.1282 C18H16N+ 1 246.1277 1.89
  247.123 C17H15N2+ 1 247.123 0.05
  248.1067 C17H14NO+ 1 248.107 -1.33
  248.1312 C17H16N2+ 1 248.1308 1.66
  248.1433 C18H18N+ 1 248.1434 -0.45
  249.1388 C17H17N2+ 1 249.1386 0.86
  250.086 C16H12NO2+ 1 250.0863 -0.84
  250.1585 C18H20N+ 1 250.159 -2.19
  251.094 C16H13NO2+ 1 251.0941 -0.28
  252.1018 C16H14NO2+ 1 252.1019 -0.39
  253.11 C16H15NO2+ 1 253.1097 0.88
  262.1219 C18H16NO+ 1 262.1226 -2.95
  264.1018 C17H14NO2+ 1 264.1019 -0.57
  265.1097 C17H15NO2+ 1 265.1097 -0.16
  266.1174 C17H16NO2+ 1 266.1176 -0.43
  267.1255 C17H17NO2+ 1 267.1254 0.32
  268.1334 C17H18NO2+ 1 268.1332 0.84
  275.1168 C18H15N2O+ 1 275.1179 -3.87
  276.1021 C18H14NO2+ 1 276.1019 0.54
  277.1705 C19H21N2+ 1 277.1699 2.1
  278.1173 C18H16NO2+ 1 278.1176 -0.87
  279.1253 C18H17NO2+ 1 279.1254 -0.15
  280.1329 C18H18NO2+ 1 280.1332 -0.95
  290.1176 C19H16NO2+ 1 290.1176 0.1
  291.125 C19H17NO2+ 1 291.1254 -1.41
  292.1325 C19H18NO2+ 1 292.1332 -2.28
  293.1414 C19H19NO2+ 1 293.141 1.12
  294.1487 C19H20NO2+ 1 294.1489 -0.69
  295.1807 C19H23N2O+ 1 295.1805 0.59
  307.1439 C19H19N2O2+ 1 307.1441 -0.81
PK$NUM_PEAK: 161
PK$PEAK: m/z int. rel.int.
  55.054 1899.2 10
  67.0541 9317.9 50
  68.0494 3106.8 16
  70.065 13052.5 70
  79.0541 8588.3 46
  80.0493 1887 10
  81.0699 5066.1 27
  82.0651 1614.3 8
  83.0491 17855.8 96
  84.0808 2643 14
  91.0542 11312.3 61
  93.0698 13382.1 72
  94.0652 3737 20
  95.0493 1963.9 10
  95.0855 33903.8 183
  96.0807 5935.5 32
  98.0963 4290.3 23
  103.0544 1632 8
  105.0698 15072.7 81
  106.065 2417.7 13
  107.0494 1642 8
  107.0854 10638.9 57
  108.0807 6796.4 36
  109.0648 3047.7 16
  109.1009 1424.3 7
  110.0963 29659.7 160
  111.1043 3813 20
  112.1121 3588.3 19
  115.0541 3500 18
  117.0577 1595.3 8
  117.0698 18574.6 100
  118.0651 3703.5 20
  119.0856 2691.3 14
  120.0809 3550.7 19
  121.0648 4516.1 24
  122.0599 5168.1 27
  122.0963 3593.5 19
  123.0804 14850.7 80
  123.1044 3431.9 18
  124.0756 4567.3 24
  124.112 27387.6 148
  129.0699 4713.3 25
  130.065 10518.3 56
  131.0729 3882.2 20
  132.0806 4882.1 26
  133.0648 4770.6 25
  134.0963 24679.5 133
  135.0804 6299.7 34
  136.0756 3839.8 20
  136.1117 1448.1 7
  137.0956 1670.6 9
  143.0729 12522.9 67
  144.0807 184744.9 999
  146.0965 3327.9 17
  152.1069 36273.7 196
  154.0651 3182.3 17
  154.0859 2266.7 12
  155.0605 3788.6 20
  155.0728 1736.7 9
  156.0807 12793.1 69
  157.0885 4995.5 27
  158.0964 8658.9 46
  162.0912 5646.3 30
  167.0731 4727.2 25
  168.0806 11202.5 60
  169.0888 2694.3 14
  170.0599 5482.2 29
  170.0963 8294.1 44
  171.0913 2202 11
  172.1125 2620.2 14
  174.0917 1555.1 8
  178.0779 2766.7 14
  179.0851 3243.5 17
  180.0806 15395.3 83
  181.0886 11431.4 61
  182.0963 9432.6 51
  183.1048 1758.3 9
  184.0757 1987.9 10
  184.1122 2786.2 15
  191.0727 6087.7 32
  192.0804 4811.5 26
  192.0926 2955.6 15
  193.0886 10887.4 58
  193.1012 3566.4 19
  194.0964 14286.5 77
  194.1175 1727.1 9
  195.1044 7097.5 38
  196.0762 1861.5 10
  196.112 6221.6 33
  197.1071 1949.7 10
  198.1278 3009.5 16
  204.0806 16105.2 87
  205.0886 18111.2 97
  206.0963 28493.9 154
  207.1044 10940.5 59
  207.1165 2461.1 13
  208.0755 1955.1 10
  208.112 33330.2 180
  209.1201 8940.9 48
  210.1282 5117.8 27
  212.1278 4081.2 22
  217.088 5785.4 31
  218.0963 16050.4 86
  219.1043 22206.3 120
  220.112 35476.1 191
  221.1204 11353.4 61
  222.091 1513.4 8
  222.1275 26799 144
  223.1235 4775.5 25
  224.1311 5174.6 27
  224.1434 6866.1 37
  225.1396 1555.7 8
  226.1224 2078.5 11
  230.0958 1977.4 10
  231.1043 2660.9 14
  232.075 1597.1 8
  232.1119 10913.6 59
  233.083 1303.1 7
  233.1075 2696.3 14
  233.12 5826.7 31
  234.1275 31764.5 171
  235.1241 1568.7 8
  235.1364 4998.7 27
  236.1066 2802.9 15
  236.1434 5900.2 31
  237.0782 3337.3 18
  237.1388 5982.2 32
  238.0863 14098.7 76
  238.1227 1895 10
  239.0941 14695.2 79
  239.1548 2056.7 11
  246.1282 2821 15
  247.123 6494.2 35
  248.1067 1871 10
  248.1312 3459.4 18
  248.1433 10305.1 55
  249.1388 6399.1 34
  250.086 13087.8 70
  250.1585 2268 12
  251.094 16694.1 90
  252.1018 25242 136
  253.11 12316.6 66
  262.1219 2735.7 14
  264.1018 65827.6 355
  265.1097 59229.2 320
  266.1174 55244.5 298
  267.1255 29766.7 160
  268.1334 11292.2 61
  275.1168 1614.9 8
  276.1021 3656 19
  277.1705 2322.7 12
  278.1173 42637.9 230
  279.1253 31986.6 172
  280.1329 71857.2 388
  290.1176 6727.4 36
  291.125 2435.5 13
  292.1325 22519.7 121
  293.1414 3944.4 21
  294.1487 32960.9 178
  295.1807 1454.2 7
  307.1439 13185.5 71
//
