ACCESSION: MSBNK-NaToxAq-NA001525
RECORD_TITLE: Pterosin B; LC-ESI-ITFT; MS2; CE: 55%; R=15000; [M+H]+
DATE: 2019.07.31
AUTHORS: Tobias Schulze, Vaidotas Kisielius, Xiaomeng Liang, Mulatu Yohannes Nanusha, Martin Krauss, Helmholtz Centre for Environmental Research GmbH - UFZ, Leipzig, Germany and University of Copenhagen (UCPH), Denmark
LICENSE: CC BY
COPYRIGHT: Copyright (C) 2019
COMMENT: CONFIDENCE Reference Standard (Level 1)
COMMENT: INTERNAL_ID 33
CH$NAME: Pterosin B
CH$NAME: (2R)-6-(2-hydroxyethyl)-2,5,7-trimethyl-2,3-dihydroinden-1-one
CH$COMPOUND_CLASS: N/A; Environmental Standard
CH$FORMULA: C14H18O2
CH$EXACT_MASS: 218.1307
CH$SMILES: C[C@@H]1CC2=C(C1=O)C(=C(C(=C2)C)CCO)C
CH$IUPAC: InChI=1S/C14H18O2/c1-8-6-11-7-9(2)14(16)13(11)10(3)12(8)4-5-15/h6,9,15H,4-5,7H2,1-3H3/t9-/m1/s1
CH$LINK: CAS 35349-03-2
CH$LINK: PUBCHEM CID:115049
CH$LINK: INCHIKEY SJNCSXMTBXDZQA-SECBINFHSA-N
CH$LINK: CHEMSPIDER 102965
CH$LINK: COMPTOX DTXSID70955715
AC$INSTRUMENT: LTQ Orbitrap XL Thermo Scientific
AC$INSTRUMENT_TYPE: LC-ESI-ITFT
AC$MASS_SPECTROMETRY: MS_TYPE MS2
AC$MASS_SPECTROMETRY: ION_MODE POSITIVE
AC$MASS_SPECTROMETRY: IONIZATION ESI
AC$MASS_SPECTROMETRY: FRAGMENTATION_MODE CID
AC$MASS_SPECTROMETRY: COLLISION_ENERGY 55 % (nominal)
AC$MASS_SPECTROMETRY: RESOLUTION 15000
AC$CHROMATOGRAPHY: COLUMN_NAME Kinetex Evo C18 2.6 um 50x2.1 mm, Phenomenex
AC$CHROMATOGRAPHY: FLOW_GRADIENT 95/5 at 0 min, 95/5 at 1 min, 0/100 at 13 min, 0/100 at 24 min, 95/5 at 24.3 min, 95/5/0 at 32 min
AC$CHROMATOGRAPHY: FLOW_RATE 300 uL/min
AC$CHROMATOGRAPHY: RETENTION_TIME 10.370 min
AC$CHROMATOGRAPHY: SOLVENT A water with 0.1% formic acid
AC$CHROMATOGRAPHY: SOLVENT B methanol with 0.1% formic acid
MS$FOCUSED_ION: BASE_PEAK 219.137
MS$FOCUSED_ION: PRECURSOR_M/Z 219.138
MS$FOCUSED_ION: PRECURSOR_TYPE [M+H]+
MS$DATA_PROCESSING: RECALIBRATE loess on assigned fragments and MS1
MS$DATA_PROCESSING: REANALYZE Peaks with additional N2/O included
MS$DATA_PROCESSING: WHOLE RMassBank 2.12.0
PK$SPLASH: splash10-0udi-0190000000-245c2f6e3ff654b0e81f
PK$ANNOTATION: m/z tentative_formula formula_count mass error(ppm)
  119.0852 C9H11+ 1 119.0855 -2.94
  131.0852 C10H11+ 1 131.0855 -2.3
  133.1007 C10H13+ 1 133.1012 -3.41
  143.0852 C11H11+ 1 143.0855 -2.3
  145.1009 C11H13+ 1 145.1012 -2.21
  149.0958 C10H13O+ 1 149.0961 -2.19
  155.0852 C12H11+ 1 155.0855 -2.1
  157.101 C12H13+ 1 157.1012 -0.9
  159.1166 C12H15+ 1 159.1168 -1.71
  163.1115 C11H15O+ 1 163.1117 -1.38
  168.0931 C13H12+ 1 168.0934 -1.45
  171.1165 C13H15+ 1 171.1168 -1.88
  172.0881 C12H12O+ 1 172.0883 -0.84
  173.0958 C12H13O+ 1 173.0961 -1.8
  173.1322 C13H17+ 1 173.1325 -1.85
  183.1165 C14H15+ 1 183.1168 -1.88
  186.1035 C13H14O+ 1 186.1039 -1.99
  191.1428 C13H19O+ 1 191.143 -1.43
  199.1115 C14H15O+ 1 199.1117 -1.21
  201.1268 C14H17O+ 1 201.1274 -2.74
PK$NUM_PEAK: 20
PK$PEAK: m/z int. rel.int.
  119.0852 3737.8 1
  131.0852 13268.8 3
  133.1007 3915.7 1
  143.0852 4621.9 1
  145.1009 30268.2 8
  149.0958 7866.8 2
  155.0852 16670.8 4
  157.101 11925.2 3
  159.1166 24186.4 7
  163.1115 30591 8
  168.0931 31183.2 9
  171.1165 9186.8 2
  172.0881 3801 1
  173.0958 21107.9 6
  173.1322 119152.1 34
  183.1165 197282.5 57
  186.1035 8794.5 2
  191.1428 29350 8
  199.1115 47106.5 13
  201.1268 3439188 999
//
