ACCESSION: MSBNK-NaToxAq-NA002633
RECORD_TITLE: Cytisin; LC-ESI-ITFT; MS2; CE: 35%; R=15000; [M+H]+
DATE: 2020.02.21
AUTHORS: Tobias Schulze, Martin Krauss, Helmholtz Centre for Environmental Research GmbH - UFZ, Leipzig, Germany
LICENSE: CC0
COPYRIGHT: Copyright (C) 2020 by Helmholtz Centre for Environmental Research GmbH - UFZ, Leipzig, Germany
COMMENT: CONFIDENCE Reference Standard (Level 1)
COMMENT: INTERNAL_ID 2241
CH$NAME: Cytisin
CH$NAME: Cytisine
CH$NAME: (1R,9S)-7,11-diazatricyclo[7.3.1.02,7]trideca-2,4-dien-6-one
CH$COMPOUND_CLASS: N/A; Environmental Standard
CH$FORMULA: C11H14N2O
CH$EXACT_MASS: 190.1106
CH$SMILES: C1[C@H]2CNC[C@@H]1C3=CC=CC(=O)N3C2
CH$IUPAC: InChI=1S/C11H14N2O/c14-11-3-1-2-10-9-4-8(5-12-6-9)7-13(10)11/h1-3,8-9,12H,4-7H2/t8-,9+/m0/s1
CH$LINK: CAS 485-35-8
CH$LINK: CHEBI CHEBI:4055
CH$LINK: PUBCHEM CID:10235
CH$LINK: INCHIKEY ANJTVLIZGCUXLD-DTWKUNHWSA-N
CH$LINK: CHEMSPIDER 9818
CH$LINK: COMPTOX DTXSID00883395
AC$INSTRUMENT: LTQ Orbitrap XL Thermo Scientific
AC$INSTRUMENT_TYPE: LC-ESI-ITFT
AC$MASS_SPECTROMETRY: MS_TYPE MS2
AC$MASS_SPECTROMETRY: ION_MODE POSITIVE
AC$MASS_SPECTROMETRY: IONIZATION ESI
AC$MASS_SPECTROMETRY: FRAGMENTATION_MODE HCD
AC$MASS_SPECTROMETRY: COLLISION_ENERGY 35% (nominal)
AC$MASS_SPECTROMETRY: RESOLUTION 15000
AC$CHROMATOGRAPHY: COLUMN_NAME Kinetex Evo C18 2.6 um 50x2.1 mm, Phenomenex
AC$CHROMATOGRAPHY: FLOW_GRADIENT 95/5 at 0 min, 95/5 at 1 min, 0/100 at 13 min, 0/100 at 24 min, 95/5 at 24.3 min, 95/5/0 at 32 min
AC$CHROMATOGRAPHY: FLOW_RATE 300 uL/min
AC$CHROMATOGRAPHY: RETENTION_TIME 0.553 min
AC$CHROMATOGRAPHY: SOLVENT A water with 0.1% formic acid
AC$CHROMATOGRAPHY: SOLVENT B methanol with 0.1% formic acid
MS$FOCUSED_ION: BASE_PEAK 143.0013
MS$FOCUSED_ION: PRECURSOR_M/Z 191.1179
MS$FOCUSED_ION: PRECURSOR_TYPE [M+H]+
MS$DATA_PROCESSING: RECALIBRATE loess on assigned fragments and MS1
MS$DATA_PROCESSING: REANALYZE Peaks with additional N2/O included
MS$DATA_PROCESSING: WHOLE RMassBank 2.14.1
PK$SPLASH: splash10-0006-0900000000-0d562342a6344c89e1de
PK$ANNOTATION: m/z tentative_formula formula_count mass error(ppm)
  148.0757 C9H10NO+ 1 148.0757 -0.02
  191.1179 C11H15N2O+ 1 191.1179 -0.11
PK$NUM_PEAK: 2
PK$PEAK: m/z int. rel.int.
  148.0757 22622.3 41
  191.1179 540574.2 999
//
