ACCESSION: MSBNK-NaToxAq-NA001121
RECORD_TITLE: alpha-Cyperone; LC-ESI-ITFT; MS2; CE: 60%; R=15000; [M+H]+
DATE: 2019.07.31
AUTHORS: Tobias Schulze, Vaidotas Kisielius, Xiaomeng Liang, Mulatu Yohannes Nanusha, Martin Krauss, Helmholtz Centre for Environmental Research GmbH - UFZ, Leipzig, Germany and University of Copenhagen (UCPH), Denmark
LICENSE: CC BY
COPYRIGHT: Copyright (C) 2019
COMMENT: CONFIDENCE Reference Standard (Level 1)
COMMENT: INTERNAL_ID 22
CH$NAME: alpha-Cyperone
CH$COMPOUND_CLASS: N/A; Environmental Standard
CH$FORMULA: C15H22O
CH$EXACT_MASS: 218.1671
CH$SMILES: CC1=C2CC(CCC2(CCC1=O)C)C(=C)C
CH$IUPAC: InChI=1S/C15H22O/c1-10(2)12-5-7-15(4)8-6-14(16)11(3)13(15)9-12/h12H,1,5-9H2,2-4H3
CH$LINK: INCHIKEY KUFXJZXMWHNCEH-UHFFFAOYSA-N
CH$LINK: PUBCHEM CID:273568
CH$LINK: COMPTOX DTXSID30297885
AC$INSTRUMENT: LTQ Orbitrap XL Thermo Scientific
AC$INSTRUMENT_TYPE: LC-ESI-ITFT
AC$MASS_SPECTROMETRY: MS_TYPE MS2
AC$MASS_SPECTROMETRY: ION_MODE POSITIVE
AC$MASS_SPECTROMETRY: IONIZATION ESI
AC$MASS_SPECTROMETRY: FRAGMENTATION_MODE HCD
AC$MASS_SPECTROMETRY: COLLISION_ENERGY 60 % (nominal)
AC$MASS_SPECTROMETRY: RESOLUTION 15000
AC$CHROMATOGRAPHY: COLUMN_NAME Kinetex Evo C18 2.6 um 50x2.1 mm, Phenomenex
AC$CHROMATOGRAPHY: FLOW_GRADIENT 95/5 at 0 min, 95/5 at 1 min, 0/100 at 13 min, 0/100 at 24 min, 95/5 at 24.3 min, 95/5/0 at 32 min
AC$CHROMATOGRAPHY: FLOW_RATE 300 uL/min
AC$CHROMATOGRAPHY: RETENTION_TIME 13.141 min
AC$CHROMATOGRAPHY: SOLVENT A water with 0.1% formic acid
AC$CHROMATOGRAPHY: SOLVENT B methanol with 0.1% formic acid
MS$FOCUSED_ION: BASE_PEAK 219.1741
MS$FOCUSED_ION: PRECURSOR_M/Z 219.1743
MS$FOCUSED_ION: PRECURSOR_TYPE [M+H]+
MS$DATA_PROCESSING: RECALIBRATE loess on assigned fragments and MS1
MS$DATA_PROCESSING: REANALYZE Peaks with additional N2/O included
MS$DATA_PROCESSING: WHOLE RMassBank 2.12.0
PK$SPLASH: splash10-03di-3900000000-d9ed94f478b6f6509795
PK$ANNOTATION: m/z tentative_formula formula_count mass error(ppm)
  55.0541 C4H7+ 1 55.0542 -2.45
  67.0542 C5H7+ 1 67.0542 -1.07
  69.0699 C5H9+ 1 69.0699 -0.22
  77.0386 C6H5+ 1 77.0386 0.13
  79.0542 C6H7+ 1 79.0542 0.21
  81.0699 C6H9+ 1 81.0699 -0.2
  83.049 C5H7O+ 1 83.0491 -1.42
  83.0855 C6H11+ 1 83.0855 0.22
  91.0542 C7H7+ 1 91.0542 -0.42
  93.0699 C7H9+ 1 93.0699 -0.23
  95.0855 C7H11+ 1 95.0855 -0.09
  97.0648 C6H9O+ 1 97.0648 -0.2
  105.0698 C8H9+ 1 105.0699 -0.68
  107.0855 C8H11+ 1 107.0855 -0.45
  109.0647 C7H9O+ 1 109.0648 -0.85
  109.1011 C8H13+ 1 109.1012 -0.51
  111.0804 C7H11O+ 1 111.0804 -0.7
  117.0698 C9H9+ 1 117.0699 -0.39
  119.0855 C9H11+ 1 119.0855 -0.27
  121.0647 C8H9O+ 1 121.0648 -0.52
  121.1011 C9H13+ 1 121.1012 -0.28
  123.0804 C8H11O+ 1 123.0804 -0.71
  123.1168 C9H15+ 1 123.1168 -0.34
  125.0958 C8H13O+ 1 125.0961 -2.1
  131.0855 C10H11+ 1 131.0855 -0.22
  133.1012 C10H13+ 1 133.1012 -0.08
  135.0804 C9H11O+ 1 135.0804 -0.44
  135.1168 C10H15+ 1 135.1168 -0.39
  137.096 C9H13O+ 1 137.0961 -0.65
  138.1039 C9H14O+ 1 138.1039 -0.2
  145.1011 C11H13+ 1 145.1012 -0.28
  147.1168 C11H15+ 1 147.1168 -0.48
  149.096 C10H13O+ 1 149.0961 -0.32
  149.1329 C11H17+ 1 149.1325 2.59
  150.1038 C10H14O+ 1 150.1039 -0.94
  151.1116 C10H15O+ 1 151.1117 -1.24
  158.1091 C12H14+ 1 158.109 0.74
  159.1168 C12H15+ 1 159.1168 -0.21
  161.096 C11H13O+ 1 161.0961 -0.69
  161.1326 C12H17+ 1 161.1325 0.96
  162.104 C11H14O+ 1 162.1039 0.74
  163.1117 C11H15O+ 1 163.1117 0.01
  164.119 C11H16O+ 1 164.1196 -3.61
  173.1322 C13H17+ 1 173.1325 -1.65
  175.1484 C13H19+ 1 175.1481 1.36
  176.1196 C12H16O+ 1 176.1196 0.02
  177.1273 C12H17O+ 1 177.1274 -0.48
  189.1272 C13H17O+ 1 189.1274 -0.88
  201.1635 C15H21+ 1 201.1638 -1.22
  204.1509 C14H20O+ 1 204.1509 0.33
  219.1743 C15H23O+ 1 219.1743 -0.13
PK$NUM_PEAK: 51
PK$PEAK: m/z int. rel.int.
  55.0541 11628.3 26
  67.0542 55088.3 123
  69.0699 17275.6 38
  77.0386 4958.1 11
  79.0542 31352 70
  81.0699 95702.5 214
  83.049 4509.5 10
  83.0855 10351.4 23
  91.0542 27650.1 61
  93.0699 77100.4 172
  95.0855 88391.6 197
  97.0648 131795 294
  105.0698 50879.5 113
  107.0855 63456.6 142
  109.0647 13309.2 29
  109.1011 113849.8 254
  111.0804 446365.8 999
  117.0698 12463 27
  119.0855 61302.3 137
  121.0647 13798.6 30
  121.1011 42392.8 94
  123.0804 159399.6 356
  123.1168 15599.5 34
  125.0958 6855.3 15
  131.0855 19665.7 44
  133.1012 20627.1 46
  135.0804 44635.9 99
  135.1168 29099.3 65
  137.096 112770.1 252
  138.1039 20131.8 45
  145.1011 46863.9 104
  147.1168 36589.7 81
  149.096 22342.3 50
  149.1329 2757.4 6
  150.1038 6110.1 13
  151.1116 3290.3 7
  158.1091 3162 7
  159.1168 24632.6 55
  161.096 13927.2 31
  161.1326 9713.2 21
  162.104 4881 10
  163.1117 84458 189
  164.119 2776 6
  173.1322 6102.1 13
  175.1484 3363.9 7
  176.1196 12582 28
  177.1273 8959 20
  189.1272 7297.2 16
  201.1635 6485.9 14
  204.1509 7413.6 16
  219.1743 31487.7 70
//
