ACCESSION: MSBNK-NaToxAq-NA003048
RECORD_TITLE: Papaverin; LC-ESI-ITFT; MS2; CE: 80%; R=15000; [M+H]+
DATE: 2020.02.22
AUTHORS: Tobias Schulze, Martin Krauss, Helmholtz Centre for Environmental Research GmbH - UFZ, Leipzig, Germany
LICENSE: CC0
COPYRIGHT: Copyright (C) 2020 by Helmholtz Centre for Environmental Research GmbH - UFZ, Leipzig, Germany
COMMENT: CONFIDENCE Reference Standard (Level 1)
COMMENT: INTERNAL_ID 2252
CH$NAME: Papaverin
CH$NAME: Papaverine
CH$NAME: 1-[(3,4-dimethoxyphenyl)methyl]-6,7-dimethoxyisoquinoline
CH$COMPOUND_CLASS: N/A; Environmental Standard
CH$FORMULA: C20H21NO4
CH$EXACT_MASS: 339.1471
CH$SMILES: COC1=C(C=C(C=C1)CC2=NC=CC3=CC(=C(C=C32)OC)OC)OC
CH$IUPAC: InChI=1S/C20H21NO4/c1-22-17-6-5-13(10-18(17)23-2)9-16-15-12-20(25-4)19(24-3)11-14(15)7-8-21-16/h5-8,10-12H,9H2,1-4H3
CH$LINK: CAS 58-74-2
CH$LINK: CHEBI CHEBI:28241
CH$LINK: KEGG C06533
CH$LINK: PUBCHEM CID:4680
CH$LINK: INCHIKEY XQYZDYMELSJDRZ-UHFFFAOYSA-N
CH$LINK: CHEMSPIDER 4518
CH$LINK: COMPTOX DTXSID4023418
AC$INSTRUMENT: LTQ Orbitrap XL Thermo Scientific
AC$INSTRUMENT_TYPE: LC-ESI-ITFT
AC$MASS_SPECTROMETRY: MS_TYPE MS2
AC$MASS_SPECTROMETRY: ION_MODE POSITIVE
AC$MASS_SPECTROMETRY: IONIZATION ESI
AC$MASS_SPECTROMETRY: FRAGMENTATION_MODE HCD
AC$MASS_SPECTROMETRY: COLLISION_ENERGY 80% (nominal)
AC$MASS_SPECTROMETRY: RESOLUTION 15000
AC$CHROMATOGRAPHY: COLUMN_NAME Kinetex Evo C18 2.6 um 50x2.1 mm, Phenomenex
AC$CHROMATOGRAPHY: FLOW_GRADIENT 95/5 at 0 min, 95/5 at 1 min, 0/100 at 13 min, 0/100 at 24 min, 95/5 at 24.3 min, 95/5/0 at 32 min
AC$CHROMATOGRAPHY: FLOW_RATE 300 uL/min
AC$CHROMATOGRAPHY: RETENTION_TIME 7.588 min
AC$CHROMATOGRAPHY: SOLVENT A water with 0.1% formic acid
AC$CHROMATOGRAPHY: SOLVENT B methanol with 0.1% formic acid
MS$FOCUSED_ION: BASE_PEAK 340.1542
MS$FOCUSED_ION: PRECURSOR_M/Z 340.1543
MS$FOCUSED_ION: PRECURSOR_TYPE [M+H]+
MS$DATA_PROCESSING: RECALIBRATE loess on assigned fragments and MS1
MS$DATA_PROCESSING: REANALYZE Peaks with additional N2/O included
MS$DATA_PROCESSING: WHOLE RMassBank 2.14.1
PK$SPLASH: splash10-00di-0953000000-67daef426b36fbdcdec3
PK$ANNOTATION: m/z tentative_formula formula_count mass error(ppm)
  77.0384 C6H5+ 1 77.0386 -2.5
  91.0542 C7H7+ 1 91.0542 0.03
  95.0491 C6H7O+ 1 95.0491 -0.02
  103.0542 C8H7+ 1 103.0542 -0.09
  107.0491 C7H7O+ 1 107.0491 -0.77
  108.057 C7H8O+ 1 108.057 0.58
  115.0542 C9H7+ 1 115.0542 -0.14
  116.0494 C8H6N+ 1 116.0495 -0.37
  117.0698 C9H9+ 1 117.0699 -0.77
  118.065 C8H8N+ 1 118.0651 -0.66
  121.065 C8H9O+ 1 121.0648 1.95
  123.0441 C7H7O2+ 1 123.0441 -0.04
  128.0495 C9H6N+ 1 128.0495 0.09
  129.0573 C9H7N+ 1 129.0573 0.21
  130.041 C9H6O+ 1 130.0413 -2.21
  130.0651 C9H8N+ 1 130.0651 0.09
  131.0492 C9H7O+ 1 131.0491 0.14
  131.073 C9H9N+ 1 131.073 0.09
  132.057 C9H8O+ 1 132.057 0.14
  133.0287 C8H5O2+ 1 133.0284 2.27
  133.0645 C9H9O+ 1 133.0648 -2.27
  135.0443 C8H7O2+ 1 135.0441 1.44
  136.0518 C8H8O2+ 1 136.0519 -0.36
  138.0677 C8H10O2+ 1 138.0675 1.07
  140.0495 C10H6N+ 1 140.0495 0.06
  141.0573 C10H7N+ 1 141.0573 -0.17
  142.0651 C10H8N+ 1 142.0651 0.04
  143.0727 C10H9N+ 1 143.073 -1.57
  144.0444 C9H6NO+ 1 144.0444 0.08
  144.0573 C10H8O+ 1 144.057 1.97
  144.0806 C10H10N+ 1 144.0808 -1.25
  145.0647 C10H9O+ 1 145.0648 -0.89
  146.06 C9H8NO+ 1 146.06 -0.04
  146.0726 C10H10O+ 1 146.0726 0.05
  147.0806 C10H11O+ 1 147.0804 1.38
  148.0519 C9H8O2+ 1 148.0519 -0.12
  151.0755 C9H11O2+ 1 151.0754 0.67
  155.0364 C10H5NO+ 1 155.0366 -1.3
  155.0729 C11H9N+ 1 155.073 -0.27
  156.0444 C10H6NO+ 1 156.0444 0.37
  157.0516 C10H7NO+ 1 157.0522 -3.62
  157.0886 C11H11N+ 1 157.0886 0.31
  158.0601 C10H8NO+ 1 158.06 0.26
  159.0677 C10H9NO+ 1 159.0679 -0.9
  160.0521 C10H8O2+ 1 160.0519 1.14
  160.0756 C10H10NO+ 1 160.0757 -0.61
  161.0598 C10H9O2+ 1 161.0597 0.66
  162.067 C10H10O2+ 1 162.0675 -3.3
  170.0603 C11H8NO+ 1 170.06 1.28
  171.0679 C11H9NO+ 1 171.0679 0.03
  172.0394 C10H6NO2+ 1 172.0393 0.52
  172.0722 C8H12O4+ 1 172.073 -4.61
  174.0551 C10H8NO2+ 1 174.055 0.62
  174.0675 C11H10O2+ 1 174.0675 -0.1
  174.0915 C11H12NO+ 1 174.0913 0.65
  175.0753 C11H11O2+ 1 175.0754 -0.1
  183.068 C12H9NO+ 1 183.0679 0.66
  186.055 C11H8NO2+ 1 186.055 0.3
  187.0628 C11H9NO2+ 1 187.0628 0.14
  188.0708 C11H10NO2+ 1 188.0706 1.28
  189.0785 C11H11NO2+ 1 189.0784 0.23
  190.0865 C11H12NO2+ 1 190.0863 1.44
  200.0704 C12H10NO2+ 1 200.0706 -0.92
  202.0862 C12H12NO2+ 1 202.0863 -0.09
  204.0651 C11H10NO3+ 1 204.0655 -1.84
  209.0839 C14H11NO+ 1 209.0835 2.04
  220.0757 C15H10NO+ 1 220.0757 0.02
  221.0841 C15H11NO+ 1 221.0835 2.64
  222.0916 C15H12NO+ 1 222.0913 0.98
  223.0999 C15H13NO+ 1 223.0992 3.23
  224.1073 C15H14NO+ 1 224.107 1.37
  227.094 C14H13NO2+ 1 227.0941 -0.43
  234.0914 C16H12NO+ 1 234.0913 0.13
  235.0994 C16H13NO+ 1 235.0992 0.91
  236.1079 C16H14NO+ 1 236.107 3.95
  237.0784 C15H11NO2+ 1 237.0784 0.05
  238.0863 C15H12NO2+ 1 238.0863 0.12
  240.102 C15H14NO2+ 1 240.1019 0.26
  248.0696 C16H10NO2+ 1 248.0706 -4.01
  248.107 C17H14NO+ 1 248.107 0.2
  249.0795 C16H11NO2+ 1 249.0784 4.17
  250.0864 C16H12NO2+ 1 250.0863 0.44
  251.0944 C16H13NO2+ 1 251.0941 1.36
  252.1021 C16H14NO2+ 1 252.1019 0.82
  254.1178 C16H16NO2+ 1 254.1176 0.83
  262.0864 C17H12NO2+ 1 262.0863 0.69
  263.0943 C17H13NO2+ 1 263.0941 0.75
  264.1025 C17H14NO2+ 1 264.1019 2.32
  266.0812 C16H12NO3+ 1 266.0812 -0.06
  266.1175 C17H16NO2+ 1 266.1176 -0.09
  267.0902 C16H13NO3+ 1 267.089 4.46
  278.0815 C17H12NO3+ 1 278.0812 1.36
  278.1171 C18H16NO2+ 1 278.1176 -1.53
  279.0891 C17H13NO3+ 1 279.089 0.54
  280.0968 C17H14NO3+ 1 280.0968 0.06
  282.1128 C17H16NO3+ 1 282.1125 1.16
  292.097 C18H14NO3+ 1 292.0968 0.67
  294.1124 C18H16NO3+ 1 294.1125 -0.25
  296.1281 C18H18NO3+ 1 296.1281 -0.03
  308.0918 C18H14NO4+ 1 308.0917 0.19
  309.099 C18H15NO4+ 1 309.0996 -1.93
  322.1072 C19H16NO4+ 1 322.1074 -0.47
  324.123 C19H18NO4+ 1 324.123 -0.17
PK$NUM_PEAK: 103
PK$PEAK: m/z int. rel.int.
  77.0384 4574.6 9
  91.0542 5672.3 11
  95.0491 37765 79
  103.0542 11744.8 24
  107.0491 9292.6 19
  108.057 3629.1 7
  115.0542 27631.1 58
  116.0494 7579.3 15
  117.0698 6761.1 14
  118.065 6044.7 12
  121.065 2539.8 5
  123.0441 68766.2 144
  128.0495 37736.4 79
  129.0573 7234.2 15
  130.041 2736.7 5
  130.0651 15729.6 33
  131.0492 18111.1 38
  131.073 9138.7 19
  132.057 7665.3 16
  133.0287 3128.3 6
  133.0645 3412.3 7
  135.0443 7556.3 15
  136.0518 4129.3 8
  138.0677 6614.7 13
  140.0495 11362.7 23
  141.0573 17796.3 37
  142.0651 26629 55
  143.0727 6335.5 13
  144.0444 11276.2 23
  144.0573 2398.9 5
  144.0806 5614.3 11
  145.0647 11442 24
  146.06 9944.2 20
  146.0726 1434.6 3
  147.0806 4345 9
  148.0519 15559.5 32
  151.0755 7959.5 16
  155.0364 4955.5 10
  155.0729 2288.7 4
  156.0444 75838.7 159
  157.0516 16019.4 33
  157.0886 3061.9 6
  158.0601 102983.1 216
  159.0677 46833.4 98
  160.0521 5598.4 11
  160.0756 15364.7 32
  161.0598 6160.6 12
  162.067 1344 2
  170.0603 26435.7 55
  171.0679 475133.4 999
  172.0394 7319.8 15
  172.0722 44056.2 92
  174.0551 15432.7 32
  174.0675 2881.8 6
  174.0915 6632.3 13
  175.0753 30059.4 63
  183.068 4741.3 9
  186.055 98297 206
  187.0628 86731.5 182
  188.0708 16704.6 35
  189.0785 31430.6 66
  190.0865 6812.3 14
  200.0704 5940.3 12
  202.0862 336806.1 708
  204.0651 3280.3 6
  209.0839 4221.2 8
  220.0757 11553.2 24
  221.0841 5098.5 10
  222.0916 8629 18
  223.0999 9272.6 19
  224.1073 11194.5 23
  227.094 5586.3 11
  234.0914 12543.3 26
  235.0994 18714.5 39
  236.1079 7168.9 15
  237.0784 5648 11
  238.0863 9641.3 20
  240.102 30597.3 64
  248.0696 4508.3 9
  248.107 2629.6 5
  249.0795 2871.3 6
  250.0864 17139.5 36
  251.0944 20076.6 42
  252.1021 44946.9 94
  254.1178 11038 23
  262.0864 8497 17
  263.0943 22948.8 48
  264.1025 19190.1 40
  266.0812 8626.6 18
  266.1175 30913.6 64
  267.0902 2431.8 5
  278.0815 8225.7 17
  278.1171 6703.7 14
  279.0891 34937.8 73
  280.0968 167277.6 351
  282.1128 22422.2 47
  292.097 7324.8 15
  294.1124 30646.8 64
  296.1281 43049.6 90
  308.0918 192398.2 404
  309.099 35067.3 73
  322.1072 12561.8 26
  324.123 322161.2 677
//
