ACCESSION: MSBNK-NaToxAq-NA001620
RECORD_TITLE: Valerophenone; LC-ESI-ITFT; MS2; CE: 60%; R=15000; [M+H]+
DATE: 2019.07.31
AUTHORS: Tobias Schulze, Vaidotas Kisielius, Xiaomeng Liang, Mulatu Yohannes Nanusha, Martin Krauss, Helmholtz Centre for Environmental Research GmbH - UFZ, Leipzig, Germany and University of Copenhagen (UCPH), Denmark
LICENSE: CC BY
COPYRIGHT: Copyright (C) 2019
COMMENT: CONFIDENCE Reference Standard (Level 1)
COMMENT: INTERNAL_ID 19
CH$NAME: Valerophenone
CH$COMPOUND_CLASS: N/A; Environmental Standard
CH$FORMULA: C11H14O
CH$EXACT_MASS: 162.1045
CH$SMILES: CCCCC(=O)C1=CC=CC=C1
CH$IUPAC: InChI=1S/C11H14O/c1-2-3-9-11(12)10-7-5-4-6-8-10/h4-8H,2-3,9H2,1H3
CH$LINK: INCHIKEY XKGLSKVNOSHTAD-UHFFFAOYSA-N
CH$LINK: PUBCHEM CID:66093
CH$LINK: COMPTOX DTXSID0061406
AC$INSTRUMENT: LTQ Orbitrap XL Thermo Scientific
AC$INSTRUMENT_TYPE: LC-ESI-ITFT
AC$MASS_SPECTROMETRY: MS_TYPE MS2
AC$MASS_SPECTROMETRY: ION_MODE POSITIVE
AC$MASS_SPECTROMETRY: IONIZATION ESI
AC$MASS_SPECTROMETRY: FRAGMENTATION_MODE CID
AC$MASS_SPECTROMETRY: COLLISION_ENERGY 60 % (nominal)
AC$MASS_SPECTROMETRY: RESOLUTION 15000
AC$CHROMATOGRAPHY: COLUMN_NAME Kinetex Evo C18 2.6 um 50x2.1 mm, Phenomenex
AC$CHROMATOGRAPHY: FLOW_GRADIENT 95/5 at 0 min, 95/5 at 1 min, 0/100 at 13 min, 0/100 at 24 min, 95/5 at 24.3 min, 95/5/0 at 32 min
AC$CHROMATOGRAPHY: FLOW_RATE 300 uL/min
AC$CHROMATOGRAPHY: RETENTION_TIME 11.570 min
AC$CHROMATOGRAPHY: SOLVENT A water with 0.1% formic acid
AC$CHROMATOGRAPHY: SOLVENT B methanol with 0.1% formic acid
MS$FOCUSED_ION: BASE_PEAK 305.1357
MS$FOCUSED_ION: PRECURSOR_M/Z 163.1117
MS$FOCUSED_ION: PRECURSOR_TYPE [M+H]+
MS$DATA_PROCESSING: RECALIBRATE loess on assigned fragments and MS1
MS$DATA_PROCESSING: REANALYZE Peaks with additional N2/O included
MS$DATA_PROCESSING: WHOLE RMassBank 2.12.0
PK$SPLASH: splash10-0a4j-6900000000-149613936f93a03d8327
PK$ANNOTATION: m/z tentative_formula formula_count mass error(ppm)
  57.0698 C4H9+ 1 57.0699 -0.54
  67.0542 C5H7+ 1 67.0542 -0.28
  79.0543 C6H7+ 1 79.0542 1.31
  81.0698 C6H9+ 1 81.0699 -0.42
  85.0649 C5H9O+ 1 85.0648 1.08
  91.0543 C7H7+ 1 91.0542 0.99
  93.0699 C7H9+ 1 93.0699 -0.19
  105.07 C8H9+ 1 105.0699 0.84
  107.0492 C7H7O+ 1 107.0491 0.85
  117.07 C9H9+ 1 117.0699 0.73
  119.0856 C9H11+ 1 119.0855 0.27
  121.0649 C8H9O+ 1 121.0648 0.9
  121.1014 C9H13+ 1 121.1012 2.15
  133.1011 C10H13+ 1 133.1012 -0.92
  135.0807 C9H11O+ 1 135.0804 1.76
  135.1168 C10H15+ 1 135.1168 -0.11
  145.1013 C11H13+ 1 145.1012 0.99
PK$NUM_PEAK: 17
PK$PEAK: m/z int. rel.int.
  57.0698 153800.9 758
  67.0542 2027.1 9
  79.0543 16634.4 82
  81.0698 1032.9 5
  85.0649 95437.1 470
  91.0543 44012.4 217
  93.0699 1359 6
  105.07 23355.6 115
  107.0492 137933.3 680
  117.07 13833.5 68
  119.0856 9633.8 47
  121.0649 37635.2 185
  121.1014 3522.6 17
  133.1011 1596.4 7
  135.0807 3187.8 15
  135.1168 3381.3 16
  145.1013 202584.6 999
//
