ACCESSION: MSBNK-NaToxAq-NA001208
RECORD_TITLE: Conessine; LC-ESI-ITFT; MS2; CE: 40%; R=15000; [M+H]+
DATE: 2019.07.31
AUTHORS: Tobias Schulze, Vaidotas Kisielius, Xiaomeng Liang, Mulatu Yohannes Nanusha, Martin Krauss, Helmholtz Centre for Environmental Research GmbH - UFZ, Leipzig, Germany and University of Copenhagen (UCPH), Denmark
LICENSE: CC BY
COPYRIGHT: Copyright (C) 2019
COMMENT: CONFIDENCE Reference Standard (Level 1)
COMMENT: INTERNAL_ID 12
CH$NAME: Conessine
CH$COMPOUND_CLASS: N/A; Environmental Standard
CH$FORMULA: C24H40N2
CH$EXACT_MASS: 356.3191
CH$SMILES: C[C@H]1[C@H]2CC[C@H]3[C@@H]4CC=C5C[C@H](CC[C@]5(C)[C@H]4CC[C@]23CN1C)N(C)C
CH$IUPAC: InChI=1S/C24H40N2/c1-16-20-8-9-22-19-7-6-17-14-18(25(3)4)10-12-23(17,2)21(19)11-13-24(20,22)15-26(16)5/h6,16,18-22H,7-15H2,1-5H3/t16-,18-,19+,20+,21-,22-,23-,24-/m0/s1
CH$LINK: INCHIKEY GPLGAQQQNWMVMM-MYAJQUOBSA-N
CH$LINK: PUBCHEM CID:441082
CH$LINK: COMPTOX DTXSID6046000
AC$INSTRUMENT: LTQ Orbitrap XL Thermo Scientific
AC$INSTRUMENT_TYPE: LC-ESI-ITFT
AC$MASS_SPECTROMETRY: MS_TYPE MS2
AC$MASS_SPECTROMETRY: ION_MODE POSITIVE
AC$MASS_SPECTROMETRY: IONIZATION ESI
AC$MASS_SPECTROMETRY: FRAGMENTATION_MODE CID
AC$MASS_SPECTROMETRY: COLLISION_ENERGY 40 % (nominal)
AC$MASS_SPECTROMETRY: RESOLUTION 15000
AC$CHROMATOGRAPHY: COLUMN_NAME Kinetex Evo C18 2.6 um 50x2.1 mm, Phenomenex
AC$CHROMATOGRAPHY: FLOW_GRADIENT 95/5 at 0 min, 95/5 at 1 min, 0/100 at 13 min, 0/100 at 24 min, 95/5 at 24.3 min, 95/5/0 at 32 min
AC$CHROMATOGRAPHY: FLOW_RATE 300 uL/min
AC$CHROMATOGRAPHY: RETENTION_TIME 5.555 min
AC$CHROMATOGRAPHY: SOLVENT A water with 0.1% formic acid
AC$CHROMATOGRAPHY: SOLVENT B methanol with 0.1% formic acid
MS$FOCUSED_ION: BASE_PEAK 179.1667
MS$FOCUSED_ION: PRECURSOR_M/Z 357.3264
MS$FOCUSED_ION: PRECURSOR_TYPE [M+H]+
MS$DATA_PROCESSING: RECALIBRATE loess on assigned fragments and MS1
MS$DATA_PROCESSING: REANALYZE Peaks with additional N2/O included
MS$DATA_PROCESSING: WHOLE RMassBank 2.12.0
PK$SPLASH: splash10-03di-0729000000-f9d40bd77a5120f8396b
PK$ANNOTATION: m/z tentative_formula formula_count mass error(ppm)
  91.0546 C7H7+ 1 91.0542 3.79
  105.0699 C8H9+ 1 105.0699 0.47
  107.0855 C8H11+ 1 107.0855 0.18
  109.1012 C8H13+ 1 109.1012 0.11
  115.0543 C9H7+ 1 115.0542 0.49
  117.0699 C9H9+ 1 117.0699 0.35
  119.0856 C9H11+ 1 119.0855 0.33
  121.1012 C9H13+ 1 121.1012 0.01
  123.117 C9H15+ 1 123.1168 1.25
  128.0619 C10H8+ 1 128.0621 -1.42
  129.07 C10H9+ 1 129.0699 0.84
  130.0782 C10H10+ 1 130.0777 3.65
  131.0855 C10H11+ 1 131.0855 0.01
  133.1012 C10H13+ 1 133.1012 0.16
  135.1169 C10H15+ 1 135.1168 0.31
  141.0704 C11H9+ 1 141.0699 3.54
  142.0776 C11H10+ 1 142.0777 -0.45
  143.0856 C11H11+ 1 143.0855 0.3
  144.0936 C11H12+ 1 144.0934 1.47
  145.1012 C11H13+ 1 145.1012 0.32
  147.1169 C11H15+ 1 147.1168 0.24
  149.1325 C11H17+ 1 149.1325 0.47
  157.1013 C12H13+ 1 157.1012 0.78
  159.1169 C12H15+ 1 159.1168 0.52
  161.1326 C12H17+ 1 161.1325 0.57
  163.1476 C12H19+ 1 163.1481 -3.41
  169.1014 C13H13+ 1 169.1012 1.12
  171.1169 C13H15+ 1 171.1168 0.58
  173.1326 C13H17+ 1 173.1325 0.77
  175.1483 C13H19+ 1 175.1481 0.87
  183.1169 C14H15+ 1 183.1168 0.34
  185.1326 C14H17+ 1 185.1325 0.83
  187.1483 C14H19+ 1 187.1481 0.66
  189.1642 C14H21+ 1 189.1638 2.27
  197.1326 C15H17+ 1 197.1325 0.53
  199.1482 C15H19+ 1 199.1481 0.15
  200.1558 C15H20+ 1 200.156 -0.61
  201.164 C15H21+ 1 201.1638 0.91
  211.1479 C16H19+ 1 211.1481 -0.87
  213.1638 C16H21+ 1 213.1638 0.12
  215.1797 C16H23+ 1 215.1794 1.1
  225.1639 C17H21+ 1 225.1638 0.5
  227.1795 C17H23+ 1 227.1794 0.41
  239.1795 C18H23+ 1 239.1794 0.41
  240.1874 C18H24+ 1 240.1873 0.72
  241.1946 C18H25+ 1 241.1951 -1.88
  253.1947 C19H25+ 1 253.1951 -1.44
  269.2264 C20H29+ 1 269.2264 0.2
  281.2264 C21H29+ 1 281.2264 0.14
  298.2529 C21H32N+ 1 298.2529 0.05
  299.2609 C21H33N+ 1 299.2608 0.62
  312.2686 C22H34N+ 1 312.2686 0.18
  314.285 C22H36N+ 1 314.2842 2.53
  326.2844 C23H36N+ 1 326.2842 0.4
  357.3265 C24H41N2+ 1 357.3264 0.25
PK$NUM_PEAK: 55
PK$PEAK: m/z int. rel.int.
  91.0546 1659.7 1
  105.0699 18011.8 15
  107.0855 4340.8 3
  109.1012 5310.2 4
  115.0543 7392.4 6
  117.0699 19513.5 16
  119.0856 27199.3 23
  121.1012 9237.6 7
  123.117 3031.3 2
  128.0619 4445.1 3
  129.07 11455.2 9
  130.0782 1735.8 1
  131.0855 40126.7 33
  133.1012 31377.1 26
  135.1169 15544.9 13
  141.0704 1583.1 1
  142.0776 2273.1 1
  143.0856 11822.4 10
  144.0936 4983.1 4
  145.1012 50427.2 42
  147.1169 82220.4 69
  149.1325 9427.4 7
  157.1013 19379.3 16
  159.1169 177926.7 150
  161.1326 145780.9 123
  163.1476 1811.5 1
  169.1014 4184.1 3
  171.1169 20480.3 17
  173.1326 91843.4 77
  175.1483 14188.2 12
  183.1169 3700.8 3
  185.1326 23020.6 19
  187.1483 103341.1 87
  189.1642 4300.4 3
  197.1326 5669.8 4
  199.1482 32722.7 27
  200.1558 3816.6 3
  201.164 14922.2 12
  211.1479 6440.7 5
  213.1638 31073.3 26
  215.1797 1753.7 1
  225.1639 6403.8 5
  227.1795 25153.1 21
  239.1795 4522.9 3
  240.1874 5379.2 4
  241.1946 4581.7 3
  253.1947 3378.8 2
  269.2264 246719.1 208
  281.2264 5409.3 4
  298.2529 6778.7 5
  299.2609 12171.5 10
  312.2686 1179812.5 999
  314.285 3655.1 3
  326.2844 8014.8 6
  357.3265 79840.4 67
//
