ACCESSION: MSBNK-NaToxAq-NA001680
RECORD_TITLE: (+)-Sparteine; LC-ESI-ITFT; MS2; CE: 75%; R=15000; [M+H]+
DATE: 2019.07.31
AUTHORS: Tobias Schulze, Vaidotas Kisielius, Xiaomeng Liang, Mulatu Yohannes Nanusha, Martin Krauss, Helmholtz Centre for Environmental Research GmbH - UFZ, Leipzig, Germany and University of Copenhagen (UCPH), Denmark
LICENSE: CC BY
COPYRIGHT: Copyright (C) 2019
COMMENT: CONFIDENCE Reference Standard (Level 1)
COMMENT: INTERNAL_ID 3
CH$NAME: (+)-Sparteine
CH$COMPOUND_CLASS: N/A; Environmental Standard
CH$FORMULA: C15H26N2
CH$EXACT_MASS: 234.2096
CH$SMILES: C1CCN2C[C@H]3C[C@@H]([C@H]2C1)CN4[C@H]3CCCC4
CH$IUPAC: InChI=1S/C15H26N2/c1-3-7-16-11-13-9-12(14(16)5-1)10-17-8-4-2-6-15(13)17/h12-15H,1-11H2/t12-,13-,14-,15+/m1/s1
CH$LINK: INCHIKEY SLRCCWJSBJZJBV-TUVASFSCSA-N
CH$LINK: PUBCHEM CID:7014
AC$INSTRUMENT: LTQ Orbitrap XL Thermo Scientific
AC$INSTRUMENT_TYPE: LC-ESI-ITFT
AC$MASS_SPECTROMETRY: MS_TYPE MS2
AC$MASS_SPECTROMETRY: ION_MODE POSITIVE
AC$MASS_SPECTROMETRY: IONIZATION ESI
AC$MASS_SPECTROMETRY: FRAGMENTATION_MODE CID
AC$MASS_SPECTROMETRY: COLLISION_ENERGY 75 % (nominal)
AC$MASS_SPECTROMETRY: RESOLUTION 15000
AC$CHROMATOGRAPHY: COLUMN_NAME Kinetex Evo C18 2.6 um 50x2.1 mm, Phenomenex
AC$CHROMATOGRAPHY: FLOW_GRADIENT 95/5 at 0 min, 95/5 at 1 min, 0/100 at 13 min, 0/100 at 24 min, 95/5 at 24.3 min, 95/5/0 at 32 min
AC$CHROMATOGRAPHY: FLOW_RATE 300 uL/min
AC$CHROMATOGRAPHY: RETENTION_TIME 0.549 min
AC$CHROMATOGRAPHY: SOLVENT A water with 0.1% formic acid
AC$CHROMATOGRAPHY: SOLVENT B methanol with 0.1% formic acid
MS$FOCUSED_ION: BASE_PEAK 235.2165
MS$FOCUSED_ION: PRECURSOR_M/Z 235.2169
MS$FOCUSED_ION: PRECURSOR_TYPE [M+H]+
MS$DATA_PROCESSING: RECALIBRATE loess on assigned fragments and MS1
MS$DATA_PROCESSING: REANALYZE Peaks with additional N2/O included
MS$DATA_PROCESSING: WHOLE RMassBank 2.12.0
PK$SPLASH: splash10-0002-9200000000-5b243d820c87df78b585
PK$ANNOTATION: m/z tentative_formula formula_count mass error(ppm)
  70.0651 C4H8N+ 1 70.0651 0
  84.0809 C5H10N+ 1 84.0808 1.84
  96.0809 C6H10N+ 1 96.0808 0.78
  98.0965 C6H12N+ 1 98.0964 0.31
  108.0807 C7H10N+ 1 108.0808 -1.03
  110.0965 C7H12N+ 1 110.0964 0.68
  122.0966 C8H12N+ 1 122.0964 1.28
  124.1122 C8H14N+ 1 124.1121 1.2
  134.0965 C9H12N+ 1 134.0964 0.58
  136.1122 C9H14N+ 1 136.1121 0.92
  138.1278 C9H16N+ 1 138.1277 0.23
  148.1122 C10H14N+ 1 148.1121 0.97
  150.1279 C10H16N+ 1 150.1277 0.86
  152.1435 C10H18N+ 1 152.1434 0.64
  164.1436 C11H18N+ 1 164.1434 1.54
  190.159 C13H20N+ 1 190.159 -0.27
  202.1593 C14H20N+ 1 202.159 1.25
  204.1742 C14H22N+ 1 204.1747 -2.15
PK$NUM_PEAK: 18
PK$PEAK: m/z int. rel.int.
  70.0651 46140 8
  84.0809 38218.8 7
  96.0809 79835.1 14
  98.0965 5371254.5 999
  108.0807 10113.6 1
  110.0965 26447.3 4
  122.0966 10326.1 1
  124.1122 48579.3 9
  134.0965 992719.3 184
  136.1122 22168.6 4
  138.1278 58216.8 10
  148.1122 15000.3 2
  150.1279 121953.6 22
  152.1435 143598 26
  164.1436 62554 11
  190.159 126573.6 23
  202.1593 23244.7 4
  204.1742 19035.6 3
//
