ACCESSION: MSBNK-NaToxAq-NA002640
RECORD_TITLE: Huperzin A; LC-ESI-ITFT; MS2; CE: 45%; R=15000; [M+H]+
DATE: 2020.02.21
AUTHORS: Tobias Schulze, Martin Krauss, Helmholtz Centre for Environmental Research GmbH - UFZ, Leipzig, Germany
LICENSE: CC0
COPYRIGHT: Copyright (C) 2020 by Helmholtz Centre for Environmental Research GmbH - UFZ, Leipzig, Germany
COMMENT: CONFIDENCE Reference Standard (Level 1)
COMMENT: INTERNAL_ID 2242
CH$NAME: Huperzin A
CH$NAME: (-)-Huperazine A
CH$NAME: (1R,9R,13E)-1-amino-13-ethylidene-11-methyl-6-azatricyclo[7.3.1.02,7]trideca-2(7),3,10-trien-5-one
CH$COMPOUND_CLASS: N/A; Environmental Standard
CH$FORMULA: C15H18N2O
CH$EXACT_MASS: 242.1419
CH$SMILES: C/C=C/1\[C@@H]2CC3=C([C@]1(CC(=C2)C)N)C=CC(=O)N3
CH$IUPAC: InChI=1S/C15H18N2O/c1-3-11-10-6-9(2)8-15(11,16)12-4-5-14(18)17-13(12)7-10/h3-6,10H,7-8,16H2,1-2H3,(H,17,18)/b11-3+/t10-,15+/m0/s1
CH$LINK: CAS 1369-64-8
CH$LINK: CHEBI CHEBI:78330
CH$LINK: PUBCHEM CID:854026
CH$LINK: INCHIKEY ZRJBHWIHUMBLCN-YQEJDHNASA-N
CH$LINK: CHEMSPIDER 16736021
CH$LINK: COMPTOX DTXSID8046038
AC$INSTRUMENT: LTQ Orbitrap XL Thermo Scientific
AC$INSTRUMENT_TYPE: LC-ESI-ITFT
AC$MASS_SPECTROMETRY: MS_TYPE MS2
AC$MASS_SPECTROMETRY: ION_MODE POSITIVE
AC$MASS_SPECTROMETRY: IONIZATION ESI
AC$MASS_SPECTROMETRY: FRAGMENTATION_MODE HCD
AC$MASS_SPECTROMETRY: COLLISION_ENERGY 45% (nominal)
AC$MASS_SPECTROMETRY: RESOLUTION 15000
AC$CHROMATOGRAPHY: COLUMN_NAME Kinetex Evo C18 2.6 um 50x2.1 mm, Phenomenex
AC$CHROMATOGRAPHY: FLOW_GRADIENT 95/5 at 0 min, 95/5 at 1 min, 0/100 at 13 min, 0/100 at 24 min, 95/5 at 24.3 min, 95/5/0 at 32 min
AC$CHROMATOGRAPHY: FLOW_RATE 300 uL/min
AC$CHROMATOGRAPHY: RETENTION_TIME 1.536 min
AC$CHROMATOGRAPHY: SOLVENT A water with 0.1% formic acid
AC$CHROMATOGRAPHY: SOLVENT B methanol with 0.1% formic acid
MS$FOCUSED_ION: BASE_PEAK 143.0015
MS$FOCUSED_ION: PRECURSOR_M/Z 243.1492
MS$FOCUSED_ION: PRECURSOR_TYPE [M+H]+
MS$DATA_PROCESSING: RECALIBRATE loess on assigned fragments and MS1
MS$DATA_PROCESSING: REANALYZE Peaks with additional N2/O included
MS$DATA_PROCESSING: WHOLE RMassBank 2.14.1
PK$SPLASH: splash10-0006-0090000000-4a5ea5e4b2854beae745
PK$ANNOTATION: m/z tentative_formula formula_count mass error(ppm)
  134.0959 C9H12N+ 1 134.0964 -3.73
  184.0759 C12H10NO+ 1 184.0757 0.99
  197.0829 C13H11NO+ 1 197.0835 -3.21
  208.1128 C15H14N+ 1 208.1121 3.24
  210.0916 C14H12NO+ 1 210.0913 1.14
  211.0991 C14H13NO+ 1 211.0992 -0.31
  224.1075 C15H14NO+ 1 224.107 2.25
  226.1227 C15H16NO+ 1 226.1226 0.34
  227.1177 C14H15N2O+ 1 227.1179 -0.66
  228.1265 C14H16N2O+ 1 228.1257 3.62
  243.1493 C15H19N2O+ 1 243.1492 0.3
PK$NUM_PEAK: 11
PK$PEAK: m/z int. rel.int.
  134.0959 1253.4 9
  184.0759 2278.9 16
  197.0829 1998.1 14
  208.1128 2616.6 19
  210.0916 2492.8 18
  211.0991 3207.5 23
  224.1075 1381.6 10
  226.1227 30874.2 225
  227.1177 1471.5 10
  228.1265 2045.7 14
  243.1493 136555.2 999
//
