ACCESSION: MSBNK-NaToxAq-NA000853
RECORD_TITLE: Valerophenone; LC-ESI-ITFT; MS2; CE: 20%; R=15000; [M+H]+
DATE: 2019.07.31
AUTHORS: Tobias Schulze, Vaidotas Kisielius, Xiaomeng Liang, Mulatu Yohannes Nanusha, Martin Krauss, Helmholtz Centre for Environmental Research GmbH - UFZ, Leipzig, Germany and University of Copenhagen (UCPH), Denmark
LICENSE: CC BY
COPYRIGHT: Copyright (C) 2019
COMMENT: CONFIDENCE Reference Standard (Level 1)
COMMENT: INTERNAL_ID 19
CH$NAME: Valerophenone
CH$COMPOUND_CLASS: N/A; Environmental Standard
CH$FORMULA: C11H14O
CH$EXACT_MASS: 162.1045
CH$SMILES: CCCCC(=O)C1=CC=CC=C1
CH$IUPAC: InChI=1S/C11H14O/c1-2-3-9-11(12)10-7-5-4-6-8-10/h4-8H,2-3,9H2,1H3
CH$LINK: INCHIKEY XKGLSKVNOSHTAD-UHFFFAOYSA-N
CH$LINK: PUBCHEM CID:66093
CH$LINK: COMPTOX DTXSID0061406
AC$INSTRUMENT: LTQ Orbitrap XL Thermo Scientific
AC$INSTRUMENT_TYPE: LC-ESI-ITFT
AC$MASS_SPECTROMETRY: MS_TYPE MS2
AC$MASS_SPECTROMETRY: ION_MODE POSITIVE
AC$MASS_SPECTROMETRY: IONIZATION ESI
AC$MASS_SPECTROMETRY: FRAGMENTATION_MODE HCD
AC$MASS_SPECTROMETRY: COLLISION_ENERGY 20 % (nominal)
AC$MASS_SPECTROMETRY: RESOLUTION 15000
AC$CHROMATOGRAPHY: COLUMN_NAME Kinetex Evo C18 2.6 um 50x2.1 mm, Phenomenex
AC$CHROMATOGRAPHY: FLOW_GRADIENT 95/5 at 0 min, 95/5 at 1 min, 0/100 at 13 min, 0/100 at 24 min, 95/5 at 24.3 min, 95/5/0 at 32 min
AC$CHROMATOGRAPHY: FLOW_RATE 300 uL/min
AC$CHROMATOGRAPHY: RETENTION_TIME 11.575 min
AC$CHROMATOGRAPHY: SOLVENT A water with 0.1% formic acid
AC$CHROMATOGRAPHY: SOLVENT B methanol with 0.1% formic acid
MS$FOCUSED_ION: BASE_PEAK 163.1116
MS$FOCUSED_ION: PRECURSOR_M/Z 163.1117
MS$FOCUSED_ION: PRECURSOR_TYPE [M+H]+
MS$DATA_PROCESSING: RECALIBRATE loess on assigned fragments and MS1
MS$DATA_PROCESSING: REANALYZE Peaks with additional N2/O included
MS$DATA_PROCESSING: WHOLE RMassBank 2.12.0
PK$SPLASH: splash10-03di-0900000000-a03363c0cf3db3e1faec
PK$ANNOTATION: m/z tentative_formula formula_count mass error(ppm)
  57.0696 C4H9+ 1 57.0699 -4.34
  85.065 C5H9O+ 1 85.0648 2.08
  145.1008 C11H13+ 1 145.1012 -2.52
  163.1117 C11H15O+ 1 163.1117 -0.15
PK$NUM_PEAK: 4
PK$PEAK: m/z int. rel.int.
  57.0696 2178.2 42
  85.065 2656.1 51
  145.1008 2732.6 53
  163.1117 51296.7 999
//
