ACCESSION: MSBNK-NaToxAq-NA001739
RECORD_TITLE: Valerophenone; LC-ESI-ITFT; MS2; CE: 100%; R=15000; [M+H]+
DATE: 2019.07.31
AUTHORS: Tobias Schulze, Vaidotas Kisielius, Xiaomeng Liang, Mulatu Yohannes Nanusha, Martin Krauss, Helmholtz Centre for Environmental Research GmbH - UFZ, Leipzig, Germany and University of Copenhagen (UCPH), Denmark
LICENSE: CC BY
COPYRIGHT: Copyright (C) 2019
COMMENT: CONFIDENCE Reference Standard (Level 1)
COMMENT: INTERNAL_ID 19
CH$NAME: Valerophenone
CH$COMPOUND_CLASS: N/A; Environmental Standard
CH$FORMULA: C11H14O
CH$EXACT_MASS: 162.1045
CH$SMILES: CCCCC(=O)C1=CC=CC=C1
CH$IUPAC: InChI=1S/C11H14O/c1-2-3-9-11(12)10-7-5-4-6-8-10/h4-8H,2-3,9H2,1H3
CH$LINK: INCHIKEY XKGLSKVNOSHTAD-UHFFFAOYSA-N
CH$LINK: PUBCHEM CID:66093
CH$LINK: COMPTOX DTXSID0061406
AC$INSTRUMENT: LTQ Orbitrap XL Thermo Scientific
AC$INSTRUMENT_TYPE: LC-ESI-ITFT
AC$MASS_SPECTROMETRY: MS_TYPE MS2
AC$MASS_SPECTROMETRY: ION_MODE POSITIVE
AC$MASS_SPECTROMETRY: IONIZATION ESI
AC$MASS_SPECTROMETRY: FRAGMENTATION_MODE HCD
AC$MASS_SPECTROMETRY: COLLISION_ENERGY 100 % (nominal)
AC$MASS_SPECTROMETRY: RESOLUTION 15000
AC$CHROMATOGRAPHY: COLUMN_NAME Kinetex Evo C18 2.6 um 50x2.1 mm, Phenomenex
AC$CHROMATOGRAPHY: FLOW_GRADIENT 95/5 at 0 min, 95/5 at 1 min, 0/100 at 13 min, 0/100 at 24 min, 95/5 at 24.3 min, 95/5/0 at 32 min
AC$CHROMATOGRAPHY: FLOW_RATE 300 uL/min
AC$CHROMATOGRAPHY: RETENTION_TIME 11.591 min
AC$CHROMATOGRAPHY: SOLVENT A water with 0.1% formic acid
AC$CHROMATOGRAPHY: SOLVENT B methanol with 0.1% formic acid
MS$FOCUSED_ION: BASE_PEAK 440.3518
MS$FOCUSED_ION: PRECURSOR_M/Z 163.1117
MS$FOCUSED_ION: PRECURSOR_TYPE [M+H]+
MS$DATA_PROCESSING: RECALIBRATE loess on assigned fragments and MS1
MS$DATA_PROCESSING: REANALYZE Peaks with additional N2/O included
MS$DATA_PROCESSING: WHOLE RMassBank 2.12.0
PK$SPLASH: splash10-004i-9200000000-ca8211e880a1087b8ea0
PK$ANNOTATION: m/z tentative_formula formula_count mass error(ppm)
  77.0386 C6H5+ 1 77.0386 -0.02
  79.0543 C6H7+ 1 79.0542 0.86
  91.0543 C7H7+ 1 91.0542 0.55
  95.0494 C6H7O+ 1 95.0491 2.53
  103.0542 C8H7+ 1 103.0542 -0.02
  105.0698 C8H9+ 1 105.0699 -0.28
  107.0493 C7H7O+ 1 107.0491 1.63
  115.0543 C9H7+ 1 115.0542 0.75
  117.07 C9H9+ 1 117.0699 0.68
PK$NUM_PEAK: 9
PK$PEAK: m/z int. rel.int.
  77.0386 6631.4 148
  79.0543 44691.6 999
  91.0543 24251.3 542
  95.0494 1368.7 30
  103.0542 7442.6 166
  105.0698 3030.9 67
  107.0493 1972.8 44
  115.0543 3219.4 71
  117.07 5107.3 114
//
