ACCESSION: MSBNK-NaToxAq-NA000712
RECORD_TITLE: Monocrotaline N-oxide; LC-ESI-ITFT; MS2; CE: 100%; R=15000; [M+H]+
DATE: 2019.02.28
AUTHORS: Tobias Schulze, Jawameer Hama, Hubert Schupke, Martin Krauss, Helmholtz Centre for Environmental Research GmbH - UFZ, Leipzig, Germany and University of Copenhagen (UCPH), Denmark
LICENSE: CC BY
COPYRIGHT: Copyright (C) 2019
COMMENT: CONFIDENCE Reference Standard (Level 1)
COMMENT: INTERNAL_ID 163
CH$NAME: Monocrotaline N-oxide
CH$NAME: (1R,4R,5R,6R,16R)-5,6-dihydroxy-4,5,6-trimethyl-13-oxido-2,8-dioxa-13-azoniatricyclo[8.5.1.0^{13,16}]hexadec-10-ene-3,7-dione
CH$COMPOUND_CLASS: N/A; Environmental Standard
CH$FORMULA: C16H23NO7
CH$EXACT_MASS: 341.1475
CH$SMILES: C[C@H]1C(=O)O[C@@H]2CCN3(=O)CC=C(COC(=O)[C@](C)(O)[C@]1(C)O)[C@H]23
CH$IUPAC: InChI=1S/C16H23NO7/c1-9-13(18)24-11-5-7-17(22)6-4-10(12(11)17)8-23-14(19)16(3,21)15(9,2)20/h4,9,11-12,20-21H,5-8H2,1-3H3/t9-,11+,12+,15+,16-,17?/m0/s1
CH$LINK: PUBCHEM CID:21586627
CH$LINK: INCHIKEY LHVAZUAALQTANZ-ANYXPJNNSA-N
CH$LINK: CHEMSPIDER 10202244
AC$INSTRUMENT: LTQ Orbitrap XL Thermo Scientific
AC$INSTRUMENT_TYPE: LC-ESI-ITFT
AC$MASS_SPECTROMETRY: MS_TYPE MS2
AC$MASS_SPECTROMETRY: ION_MODE POSITIVE
AC$MASS_SPECTROMETRY: IONIZATION ESI
AC$MASS_SPECTROMETRY: FRAGMENTATION_MODE HCD
AC$MASS_SPECTROMETRY: COLLISION_ENERGY 100 % (nominal)
AC$MASS_SPECTROMETRY: RESOLUTION 15000
AC$CHROMATOGRAPHY: COLUMN_NAME Kinetex Evo C18 2.6 um 50x2.1 mm, Phenomenex
AC$CHROMATOGRAPHY: FLOW_GRADIENT 95/5 at 0 min, 95/5 at 1 min, 0/100 at 13 min, 0/100 at 24 min, 95/5 at 24.3 min, 95/5 at 32 min
AC$CHROMATOGRAPHY: FLOW_RATE 300 uL/min
AC$CHROMATOGRAPHY: RETENTION_TIME 1.126 min
AC$CHROMATOGRAPHY: SOLVENT A water with 0.1% formic acid
AC$CHROMATOGRAPHY: SOLVENT B methanol with 0.1% formic acid
MS$FOCUSED_ION: BASE_PEAK 350.1597
MS$FOCUSED_ION: PRECURSOR_M/Z 342.1547
MS$FOCUSED_ION: PRECURSOR_TYPE [M+H]+
MS$DATA_PROCESSING: RECALIBRATE loess on assigned fragments and MS1
MS$DATA_PROCESSING: REANALYZE Peaks with additional N2/O included
MS$DATA_PROCESSING: WHOLE RMassBank 2.11.0
PK$SPLASH: splash10-00kf-5900000000-547599fca7fcec1c6183
PK$ANNOTATION: m/z tentative_formula formula_count mass error(ppm)
  80.0494 C5H6N+ 1 80.0495 -0.74
  93.0572 C6H7N+ 1 93.0573 -1.2
  94.0652 C6H8N+ 1 94.0651 0.73
  108.0808 C7H10N+ 1 108.0808 0.44
  118.0651 C8H8N+ 1 118.0651 -0.28
  119.0731 C8H9N+ 1 119.073 0.95
  120.0808 C8H10N+ 1 120.0808 0.43
  136.0757 C8H10NO+ 1 136.0757 0.06
PK$NUM_PEAK: 8
PK$PEAK: m/z int. rel.int.
  80.0494 1061.2 166
  93.0572 2847.8 445
  94.0652 6379.7 999
  108.0808 2848.3 446
  118.0651 5081.9 795
  119.0731 2433.4 381
  120.0808 3428.7 536
  136.0757 3653.3 572
//
