ACCESSION: MSBNK-NaToxAq-NA003452
RECORD_TITLE: Nicotine; LC-ESI-ITFT; MS2; CE: 100%; R=15000; [M+H]+
DATE: 2020.02.22
AUTHORS: Tobias Schulze, Martin Krauss, Helmholtz Centre for Environmental Research GmbH - UFZ, Leipzig, Germany
LICENSE: CC0
COPYRIGHT: Copyright (C) 2020 by Helmholtz Centre for Environmental Research GmbH - UFZ, Leipzig, Germany
COMMENT: CONFIDENCE Reference Standard (Level 1)
COMMENT: INTERNAL_ID 2264
CH$NAME: Nicotine
CH$NAME: 3-[(2S)-1-methylpyrrolidin-2-yl]pyridine
CH$COMPOUND_CLASS: N/A; Environmental Standard
CH$FORMULA: C10H14N2
CH$EXACT_MASS: 162.1157
CH$SMILES: CN1CCC[C@H]1c2cccnc2
CH$IUPAC: InChI=1S/C10H14N2/c1-12-7-3-5-10(12)9-4-2-6-11-8-9/h2,4,6,8,10H,3,5,7H2,1H3/t10-/m0/s1
CH$LINK: CAS 54-11-5
CH$LINK: CHEBI CHEBI:17688
CH$LINK: KEGG D03365
CH$LINK: PUBCHEM CID:89594
CH$LINK: INCHIKEY SNICXCGAKADSCV-JTQLQIEISA-N
CH$LINK: CHEMSPIDER 80863
CH$LINK: COMPTOX DTXSID1020930
AC$INSTRUMENT: LTQ Orbitrap XL Thermo Scientific
AC$INSTRUMENT_TYPE: LC-ESI-ITFT
AC$MASS_SPECTROMETRY: MS_TYPE MS2
AC$MASS_SPECTROMETRY: ION_MODE POSITIVE
AC$MASS_SPECTROMETRY: IONIZATION ESI
AC$MASS_SPECTROMETRY: FRAGMENTATION_MODE HCD
AC$MASS_SPECTROMETRY: COLLISION_ENERGY 100% (nominal)
AC$MASS_SPECTROMETRY: RESOLUTION 15000
AC$CHROMATOGRAPHY: COLUMN_NAME Kinetex Evo C18 2.6 um 50x2.1 mm, Phenomenex
AC$CHROMATOGRAPHY: FLOW_GRADIENT 95/5 at 0 min, 95/5 at 1 min, 0/100 at 13 min, 0/100 at 24 min, 95/5 at 24.3 min, 95/5/0 at 32 min
AC$CHROMATOGRAPHY: FLOW_RATE 300 uL/min
AC$CHROMATOGRAPHY: RETENTION_TIME 0.457 min
AC$CHROMATOGRAPHY: SOLVENT A water with 0.1% formic acid
AC$CHROMATOGRAPHY: SOLVENT B methanol with 0.1% formic acid
MS$FOCUSED_ION: BASE_PEAK 226.9511
MS$FOCUSED_ION: PRECURSOR_M/Z 163.123
MS$FOCUSED_ION: PRECURSOR_TYPE [M+H]+
MS$DATA_PROCESSING: RECALIBRATE loess on assigned fragments and MS1
MS$DATA_PROCESSING: REANALYZE Peaks with additional N2/O included
MS$DATA_PROCESSING: WHOLE RMassBank 2.14.1
PK$SPLASH: splash10-0159-0900000000-a592882371aee753648a
PK$ANNOTATION: m/z tentative_formula formula_count mass error(ppm)
  77.0385 C6H5+ 1 77.0386 -0.78
  84.081 C5H10N+ 1 84.0808 2.17
  92.0494 C6H6N+ 1 92.0495 -0.45
  103.0544 C8H7+ 1 103.0542 1.23
  105.045 C6H5N2+ 1 105.0447 2.58
  106.0651 C7H8N+ 1 106.0651 0.16
  115.0543 C9H7+ 1 115.0542 0.51
  117.0573 C8H7N+ 1 117.0573 0.09
  120.0809 C8H10N+ 1 120.0808 1.38
  130.0651 C9H8N+ 1 130.0651 -0.14
  131.0728 C9H9N+ 1 131.073 -1.06
  132.0807 C9H10N+ 1 132.0808 -0.24
PK$NUM_PEAK: 12
PK$PEAK: m/z int. rel.int.
  77.0385 1798.5 26
  84.081 2072.2 30
  92.0494 3503.8 51
  103.0544 1572.3 23
  105.045 1680.6 24
  106.0651 11893.1 175
  115.0543 4297.2 63
  117.0573 67860.3 999
  120.0809 3954 58
  130.0651 52819.4 777
  131.0728 1172.2 17
  132.0807 11218.8 165
//
