ACCESSION: MSBNK-NaToxAq-NA001811
RECORD_TITLE: 4-Phenyl-3-buten-2-one; LC-ESI-ITFT; MS2; CE: 115%; R=15000; [M+H]+
DATE: 2019.07.31
AUTHORS: Tobias Schulze, Vaidotas Kisielius, Xiaomeng Liang, Mulatu Yohannes Nanusha, Martin Krauss, Helmholtz Centre for Environmental Research GmbH - UFZ, Leipzig, Germany and University of Copenhagen (UCPH), Denmark
LICENSE: CC BY
COPYRIGHT: Copyright (C) 2019
COMMENT: CONFIDENCE Reference Standard (Level 1)
COMMENT: INTERNAL_ID 6
CH$NAME: 4-Phenyl-3-buten-2-one
CH$COMPOUND_CLASS: N/A; Environmental Standard
CH$FORMULA: C10H10O
CH$EXACT_MASS: 146.0732
CH$SMILES: CC(=O)\C=C\C1=CC=CC=C1
CH$IUPAC: InChI=1S/C10H10O/c1-9(11)7-8-10-5-3-2-4-6-10/h2-8H,1H3/b8-7+
CH$LINK: INCHIKEY BWHOZHOGCMHOBV-BQYQJAHWSA-N
CH$LINK: PUBCHEM CID:637759
CH$LINK: COMPTOX DTXSID1031626
AC$INSTRUMENT: LTQ Orbitrap XL Thermo Scientific
AC$INSTRUMENT_TYPE: LC-ESI-ITFT
AC$MASS_SPECTROMETRY: MS_TYPE MS2
AC$MASS_SPECTROMETRY: ION_MODE POSITIVE
AC$MASS_SPECTROMETRY: IONIZATION ESI
AC$MASS_SPECTROMETRY: FRAGMENTATION_MODE HCD
AC$MASS_SPECTROMETRY: COLLISION_ENERGY 115 % (nominal)
AC$MASS_SPECTROMETRY: RESOLUTION 15000
AC$CHROMATOGRAPHY: COLUMN_NAME Kinetex Evo C18 2.6 um 50x2.1 mm, Phenomenex
AC$CHROMATOGRAPHY: FLOW_GRADIENT 95/5 at 0 min, 95/5 at 1 min, 0/100 at 13 min, 0/100 at 24 min, 95/5 at 24.3 min, 95/5/0 at 32 min
AC$CHROMATOGRAPHY: FLOW_RATE 300 uL/min
AC$CHROMATOGRAPHY: RETENTION_TIME 9.431 min
AC$CHROMATOGRAPHY: SOLVENT A water with 0.1% formic acid
AC$CHROMATOGRAPHY: SOLVENT B methanol with 0.1% formic acid
MS$FOCUSED_ION: BASE_PEAK 147.0804
MS$FOCUSED_ION: PRECURSOR_M/Z 147.0804
MS$FOCUSED_ION: PRECURSOR_TYPE [M+H]+
MS$DATA_PROCESSING: RECALIBRATE loess on assigned fragments and MS1
MS$DATA_PROCESSING: REANALYZE Peaks with additional N2/O included
MS$DATA_PROCESSING: WHOLE RMassBank 2.12.0
PK$SPLASH: splash10-004i-2900000000-2fa78d569fafaec3710b
PK$ANNOTATION: m/z tentative_formula formula_count mass error(ppm)
  65.0384 C5H5+ 1 65.0386 -3.48
  69.0334 C4H5O+ 1 69.0335 -0.91
  77.0386 C6H5+ 1 77.0386 0.04
  79.0542 C6H7+ 1 79.0542 -0.08
  91.0542 C7H7+ 1 91.0542 -0.16
  95.0489 C6H7O+ 1 95.0491 -2.45
  103.0543 C8H7+ 1 103.0542 0.43
  105.0702 C8H9+ 1 105.0699 3.27
  117.07 C9H9+ 1 117.0699 0.75
  126.0469 C10H6+ 1 126.0464 3.69
  127.0542 C10H7+ 1 127.0542 -0.32
  128.0621 C10H8+ 1 128.0621 0.14
  129.0699 C10H9+ 1 129.0699 0.48
  131.0495 C9H7O+ 1 131.0491 2.49
  145.0646 C10H9O+ 1 145.0648 -1.35
PK$NUM_PEAK: 15
PK$PEAK: m/z int. rel.int.
  65.0384 2245.8 14
  69.0334 1151.9 7
  77.0386 9710.7 63
  79.0542 5993.2 39
  91.0542 25240.8 165
  95.0489 1720 11
  103.0543 6728.3 44
  105.0702 1463.3 9
  117.07 1500.3 9
  126.0469 1247 8
  127.0542 13474.5 88
  128.0621 152281.4 999
  129.0699 16569.5 108
  131.0495 2626.8 17
  145.0646 5401.5 35
//
