ACCESSION: MSBNK-NaToxAq-NA001577
RECORD_TITLE: Anabasine; LC-ESI-ITFT; MS2; CE: 70%; R=15000; [M+H]+
DATE: 2019.07.31
AUTHORS: Tobias Schulze, Vaidotas Kisielius, Xiaomeng Liang, Mulatu Yohannes Nanusha, Martin Krauss, Helmholtz Centre for Environmental Research GmbH - UFZ, Leipzig, Germany and University of Copenhagen (UCPH), Denmark
LICENSE: CC BY
COPYRIGHT: Copyright (C) 2019
COMMENT: CONFIDENCE Reference Standard (Level 1)
COMMENT: INTERNAL_ID 8
CH$NAME: Anabasine
CH$COMPOUND_CLASS: N/A; Environmental Standard
CH$FORMULA: C10H14N2
CH$EXACT_MASS: 162.1157
CH$SMILES: C1CCC(NC1)C1=CC=CN=C1
CH$IUPAC: InChI=1S/C10H14N2/c1-2-7-12-10(5-1)9-4-3-6-11-8-9/h3-4,6,8,10,12H,1-2,5,7H2
CH$LINK: INCHIKEY MTXSIJUGVMTTMU-UHFFFAOYSA-N
CH$LINK: PUBCHEM CID:2181
AC$INSTRUMENT: LTQ Orbitrap XL Thermo Scientific
AC$INSTRUMENT_TYPE: LC-ESI-ITFT
AC$MASS_SPECTROMETRY: MS_TYPE MS2
AC$MASS_SPECTROMETRY: ION_MODE POSITIVE
AC$MASS_SPECTROMETRY: IONIZATION ESI
AC$MASS_SPECTROMETRY: FRAGMENTATION_MODE CID
AC$MASS_SPECTROMETRY: COLLISION_ENERGY 70 % (nominal)
AC$MASS_SPECTROMETRY: RESOLUTION 15000
AC$CHROMATOGRAPHY: COLUMN_NAME Kinetex Evo C18 2.6 um 50x2.1 mm, Phenomenex
AC$CHROMATOGRAPHY: FLOW_GRADIENT 95/5 at 0 min, 95/5 at 1 min, 0/100 at 13 min, 0/100 at 24 min, 95/5 at 24.3 min, 95/5/0 at 32 min
AC$CHROMATOGRAPHY: FLOW_RATE 300 uL/min
AC$CHROMATOGRAPHY: RETENTION_TIME 0.419 min
AC$CHROMATOGRAPHY: SOLVENT A water with 0.1% formic acid
AC$CHROMATOGRAPHY: SOLVENT B methanol with 0.1% formic acid
MS$FOCUSED_ION: BASE_PEAK 233.201
MS$FOCUSED_ION: PRECURSOR_M/Z 163.123
MS$FOCUSED_ION: PRECURSOR_TYPE [M+H]+
MS$DATA_PROCESSING: RECALIBRATE loess on assigned fragments and MS1
MS$DATA_PROCESSING: REANALYZE Peaks with additional N2/O included
MS$DATA_PROCESSING: WHOLE RMassBank 2.12.0
PK$SPLASH: splash10-0002-3900000000-b813da6a91ebb526683b
PK$ANNOTATION: m/z tentative_formula formula_count mass error(ppm)
  70.0651 C4H8N+ 1 70.0651 0.19
  80.0495 C5H6N+ 1 80.0495 0.43
  82.0652 C5H8N+ 1 82.0651 0.5
  84.0808 C5H10N+ 1 84.0808 -0.18
  92.0495 C6H6N+ 1 92.0495 0.51
  94.0651 C6H8N+ 1 94.0651 0.13
  106.0653 C7H8N+ 1 106.0651 1.37
  108.0808 C7H10N+ 1 108.0808 0.44
  117.0573 C8H7N+ 1 117.0573 -0.09
  118.0651 C8H8N+ 1 118.0651 0.17
  119.0857 C9H11+ 1 119.0855 1.42
  120.0808 C8H10N+ 1 120.0808 0.04
  129.0698 C10H9+ 1 129.0699 -0.24
  130.0649 C9H8N+ 1 130.0651 -1.39
  131.073 C9H9N+ 1 131.073 0.13
  132.0808 C9H10N+ 1 132.0808 0.13
  134.0964 C9H12N+ 1 134.0964 0.13
  135.092 C8H11N2+ 1 135.0917 2.42
  136.1121 C9H14N+ 1 136.1121 0.02
  144.0809 C10H10N+ 1 144.0808 0.91
  146.0964 C10H12N+ 1 146.0964 0.07
PK$NUM_PEAK: 21
PK$PEAK: m/z int. rel.int.
  70.0651 31104.9 7
  80.0495 276201.9 69
  82.0652 125616.5 31
  84.0808 35929.5 9
  92.0495 133769.7 33
  94.0651 1871924.2 473
  106.0653 17408 4
  108.0808 56822.4 14
  117.0573 35726.1 9
  118.0651 348590.9 88
  119.0857 7089.3 1
  120.0808 1623287.1 410
  129.0698 21094.7 5
  130.0649 8843.5 2
  131.073 114169.3 28
  132.0808 31035 7
  134.0964 1011690.2 256
  135.092 12373.7 3
  136.1121 6324.3 1
  144.0809 75589.6 19
  146.0964 3946809 999
//
