ACCESSION: MSBNK-NaToxAq-NA001763
RECORD_TITLE: Conessine; LC-ESI-ITFT; MS2; CE: 85%; R=15000; [M+H]+
DATE: 2019.07.31
AUTHORS: Tobias Schulze, Vaidotas Kisielius, Xiaomeng Liang, Mulatu Yohannes Nanusha, Martin Krauss, Helmholtz Centre for Environmental Research GmbH - UFZ, Leipzig, Germany and University of Copenhagen (UCPH), Denmark
LICENSE: CC BY
COPYRIGHT: Copyright (C) 2019
COMMENT: CONFIDENCE Reference Standard (Level 1)
COMMENT: INTERNAL_ID 12
CH$NAME: Conessine
CH$COMPOUND_CLASS: N/A; Environmental Standard
CH$FORMULA: C24H40N2
CH$EXACT_MASS: 356.3191
CH$SMILES: C[C@H]1[C@H]2CC[C@H]3[C@@H]4CC=C5C[C@H](CC[C@]5(C)[C@H]4CC[C@]23CN1C)N(C)C
CH$IUPAC: InChI=1S/C24H40N2/c1-16-20-8-9-22-19-7-6-17-14-18(25(3)4)10-12-23(17,2)21(19)11-13-24(20,22)15-26(16)5/h6,16,18-22H,7-15H2,1-5H3/t16-,18-,19+,20+,21-,22-,23-,24-/m0/s1
CH$LINK: INCHIKEY GPLGAQQQNWMVMM-MYAJQUOBSA-N
CH$LINK: PUBCHEM CID:441082
CH$LINK: COMPTOX DTXSID6046000
AC$INSTRUMENT: LTQ Orbitrap XL Thermo Scientific
AC$INSTRUMENT_TYPE: LC-ESI-ITFT
AC$MASS_SPECTROMETRY: MS_TYPE MS2
AC$MASS_SPECTROMETRY: ION_MODE POSITIVE
AC$MASS_SPECTROMETRY: IONIZATION ESI
AC$MASS_SPECTROMETRY: FRAGMENTATION_MODE CID
AC$MASS_SPECTROMETRY: COLLISION_ENERGY 85 % (nominal)
AC$MASS_SPECTROMETRY: RESOLUTION 15000
AC$CHROMATOGRAPHY: COLUMN_NAME Kinetex Evo C18 2.6 um 50x2.1 mm, Phenomenex
AC$CHROMATOGRAPHY: FLOW_GRADIENT 95/5 at 0 min, 95/5 at 1 min, 0/100 at 13 min, 0/100 at 24 min, 95/5 at 24.3 min, 95/5/0 at 32 min
AC$CHROMATOGRAPHY: FLOW_RATE 300 uL/min
AC$CHROMATOGRAPHY: RETENTION_TIME 5.491 min
AC$CHROMATOGRAPHY: SOLVENT A water with 0.1% formic acid
AC$CHROMATOGRAPHY: SOLVENT B methanol with 0.1% formic acid
MS$FOCUSED_ION: BASE_PEAK 179.1666
MS$FOCUSED_ION: PRECURSOR_M/Z 357.3264
MS$FOCUSED_ION: PRECURSOR_TYPE [M+H]+
MS$DATA_PROCESSING: RECALIBRATE loess on assigned fragments and MS1
MS$DATA_PROCESSING: REANALYZE Peaks with additional N2/O included
MS$DATA_PROCESSING: WHOLE RMassBank 2.12.0
PK$SPLASH: splash10-03di-0629000000-56bc7bc928fa3b2fe2ea
PK$ANNOTATION: m/z tentative_formula formula_count mass error(ppm)
  105.0698 C8H9+ 1 105.0699 -1.08
  107.0854 C8H11+ 1 107.0855 -0.8
  109.1008 C8H13+ 1 109.1012 -3.41
  115.0541 C9H7+ 1 115.0542 -0.71
  117.0699 C9H9+ 1 117.0699 -0.17
  119.0855 C9H11+ 1 119.0855 -0.21
  121.1012 C9H13+ 1 121.1012 0.38
  128.0625 C10H8+ 1 128.0621 3.31
  129.07 C10H9+ 1 129.0699 1.15
  131.0855 C10H11+ 1 131.0855 -0.26
  133.1011 C10H13+ 1 133.1012 -0.36
  135.1169 C10H15+ 1 135.1168 0.22
  143.0855 C11H11+ 1 143.0855 -0.48
  145.1012 C11H13+ 1 145.1012 -0.03
  147.1169 C11H15+ 1 147.1168 0.21
  149.1326 C11H17+ 1 149.1325 0.85
  157.1014 C12H13+ 1 157.1012 1.34
  159.1169 C12H15+ 1 159.1168 0.18
  161.1325 C12H17+ 1 161.1325 0.07
  163.1478 C12H19+ 1 163.1481 -2.19
  169.1018 C13H13+ 1 169.1012 3.77
  171.1171 C13H15+ 1 171.1168 1.5
  173.1325 C13H17+ 1 173.1325 0.07
  175.1483 C13H19+ 1 175.1481 1.19
  183.1166 C14H15+ 1 183.1168 -1.49
  185.1324 C14H17+ 1 185.1325 -0.58
  187.148 C14H19+ 1 187.1481 -0.43
  199.1481 C15H19+ 1 199.1481 -0.34
  201.1638 C15H21+ 1 201.1638 0.26
  213.1637 C16H21+ 1 213.1638 -0.36
  225.164 C17H21+ 1 225.1638 1
  227.1792 C17H23+ 1 227.1794 -0.96
  239.1792 C18H23+ 1 239.1794 -0.91
  241.1944 C18H25+ 1 241.1951 -2.85
  269.2263 C20H29+ 1 269.2264 -0.45
  298.2532 C21H32N+ 1 298.2529 1.03
  299.2604 C21H33N+ 1 299.2608 -1.15
  312.2685 C22H34N+ 1 312.2686 -0.33
  326.283 C23H36N+ 1 326.2842 -3.82
PK$NUM_PEAK: 39
PK$PEAK: m/z int. rel.int.
  105.0698 6741.6 13
  107.0854 2591.8 5
  109.1008 1528.2 2
  115.0541 3101.7 6
  117.0699 6720.7 13
  119.0855 10206 19
  121.1012 3764.9 7
  128.0625 1160.9 2
  129.07 4673.6 9
  131.0855 16439.1 31
  133.1011 12510.5 24
  135.1169 6205.6 12
  143.0855 3885.4 7
  145.1012 17764.8 34
  147.1169 29709.8 57
  149.1326 3750.1 7
  157.1014 5869 11
  159.1169 68128.2 132
  161.1325 57133.9 111
  163.1478 1066.6 2
  169.1018 1177 2
  171.1171 7444 14
  173.1325 33422.1 64
  175.1483 5112.3 9
  183.1166 1598.4 3
  185.1324 9336.5 18
  187.148 39697.3 77
  199.1481 11142.4 21
  201.1638 5414 10
  213.1637 9312.3 18
  225.164 2269.4 4
  227.1792 9906.4 19
  239.1792 1692.8 3
  241.1944 2888.2 5
  269.2263 87256.3 169
  298.2532 2899.1 5
  299.2604 4874.7 9
  312.2685 513683.8 999
  326.283 4237.5 8
//
