ACCESSION: MSBNK-NaToxAq-NA000155
RECORD_TITLE: Piperine; LC-ESI-ITFT; MS2; CE: 35%; R=15000; [M+H]+
DATE: 2018.08.29
AUTHORS: Tobias Schulze, Hubert Schupke, Martin Krauss, Department of Effect-Directed Analysis, Helmholtz Centre for Environmental Research GmbH - UFZ, Leipzig, Germany
LICENSE: CC BY
COPYRIGHT: Copyright (C) 2018
COMMENT: CONFIDENCE Reference Standard (Level 1)
COMMENT: NaToxAq - Natural Toxins and Drinking Water Quality - From Source to Tap (https://natoxaq.ku.dk)
CH$NAME: Piperine
CH$NAME: (2E,4E)-5-(1,3-benzodioxol-5-yl)-1-piperidin-1-ylpenta-2,4-dien-1-one
CH$COMPOUND_CLASS: N/A; Environmental Standard
CH$FORMULA: C17H19NO3
CH$EXACT_MASS: 285.1365
CH$SMILES: O=C(\C=C\C=C\C1=CC2=C(OCO2)C=C1)N1CCCCC1
CH$IUPAC: InChI=1S/C17H19NO3/c19-17(18-10-4-1-5-11-18)7-3-2-6-14-8-9-15-16(12-14)21-13-20-15/h2-3,6-9,12H,1,4-5,10-11,13H2/b6-2+,7-3+
CH$LINK: CAS 94-62-2
CH$LINK: CHEBI CHEBI:28821
CH$LINK: KEGG C03882
CH$LINK: PUBCHEM CID:638024
CH$LINK: INCHIKEY MXXWOMGUGJBKIW-YPCIICBESA-N
CH$LINK: CHEMSPIDER 553590
CH$LINK: COMPTOX DTXSID3021805
AC$INSTRUMENT: LTQ Orbitrap XL Thermo Scientific
AC$INSTRUMENT_TYPE: LC-ESI-ITFT
AC$MASS_SPECTROMETRY: MS_TYPE MS2
AC$MASS_SPECTROMETRY: ION_MODE POSITIVE
AC$MASS_SPECTROMETRY: IONIZATION ESI
AC$MASS_SPECTROMETRY: FRAGMENTATION_MODE CID
AC$MASS_SPECTROMETRY: COLLISION_ENERGY 35 % (nominal)
AC$MASS_SPECTROMETRY: RESOLUTION 15000
AC$CHROMATOGRAPHY: COLUMN_NAME Kinetex Evo C18 2.6 um 50x2.1 mm, Phenomenex
AC$CHROMATOGRAPHY: FLOW_GRADIENT 95/5 at 0 min, 95/5 at 1 min, 0/100 at 13 min, 0/100 at 24 min, 95/5 at 24.3 min, 95/5 at 32 min
AC$CHROMATOGRAPHY: FLOW_RATE 300 uL/min
AC$CHROMATOGRAPHY: RETENTION_TIME 11.792 min
AC$CHROMATOGRAPHY: SOLVENT A water with 0.1% formic acid
AC$CHROMATOGRAPHY: SOLVENT B methanol with 0.1% formic acid
MS$FOCUSED_ION: BASE_PEAK 286.1442
MS$FOCUSED_ION: PRECURSOR_M/Z 286.1438
MS$FOCUSED_ION: PRECURSOR_TYPE [M+H]+
MS$DATA_PROCESSING: RECALIBRATE loess on assigned fragments and MS1
MS$DATA_PROCESSING: REANALYZE Peaks with additional N2/O included
MS$DATA_PROCESSING: WHOLE RMassBank 2.9.1
PK$SPLASH: splash10-0udi-0090000000-e1966fed4ec055487b66
PK$ANNOTATION: m/z tentative_formula formula_count mass error(ppm)
  84.0807 C5H10N+ 1 84.0808 -0.53
  86.0964 C5H12N+ 1 86.0964 -0.01
  112.0756 C6H10NO+ 1 112.0757 -0.79
  115.0543 C9H7+ 1 115.0542 0.59
  135.044 C8H7O2+ 1 135.0441 -0.61
  143.049 C10H7O+ 1 143.0491 -0.88
  150.0913 C9H12NO+ 1 150.0913 -0.45
  151.099 C9H13NO+ 1 151.0992 -1.07
  159.044 C10H7O2+ 1 159.0441 -0.16
  171.044 C11H7O2+ 1 171.0441 -0.4
  173.0595 C11H9O2+ 1 173.0597 -0.9
  185.0963 C13H13O+ 1 185.0961 1.11
  201.0544 C12H9O3+ 1 201.0546 -1.07
  203.0697 C12H11O3+ 1 203.0703 -2.59
  215.1064 C14H15O2+ 1 215.1067 -1.15
  286.1434 C17H20NO3+ 1 286.1438 -1.13
PK$NUM_PEAK: 16
PK$PEAK: m/z int. rel.int.
  84.0807 12392.5 1
  86.0964 13012.3 1
  112.0756 43566.3 6
  115.0543 14875.8 2
  135.044 330362.7 46
  143.049 42265.6 5
  150.0913 35822.8 5
  151.099 19990.5 2
  159.044 9991.2 1
  171.044 57657.4 8
  173.0595 133751.6 18
  185.0963 8013.9 1
  201.0544 7110467.5 999
  203.0697 22496.6 3
  215.1064 39786.5 5
  286.1434 509774.9 71
//
