ACCESSION: MSBNK-NaToxAq-NA000623
RECORD_TITLE: Monocrotaline N-oxide; LC-ESI-ITFT; MS2; CE: 80%; R=15000; [M+H]+
DATE: 2019.02.28
AUTHORS: Tobias Schulze, Jawameer Hama, Hubert Schupke, Martin Krauss, Helmholtz Centre for Environmental Research GmbH - UFZ, Leipzig, Germany and University of Copenhagen (UCPH), Denmark
LICENSE: CC BY
COPYRIGHT: Copyright (C) 2019
COMMENT: CONFIDENCE Reference Standard (Level 1)
COMMENT: INTERNAL_ID 143
CH$NAME: Monocrotaline N-oxide
CH$NAME: (1R,4R,5R,6R,16R)-5,6-dihydroxy-4,5,6-trimethyl-13-oxido-2,8-dioxa-13-azoniatricyclo[8.5.1.0^{13,16}]hexadec-10-ene-3,7-dione
CH$COMPOUND_CLASS: N/A; Environmental Standard
CH$FORMULA: C16H23NO7
CH$EXACT_MASS: 341.1475
CH$SMILES: C[C@H]1C(=O)O[C@@H]2CCN3(=O)CC=C(COC(=O)[C@](C)(O)[C@]1(C)O)[C@H]23
CH$IUPAC: InChI=1S/C16H23NO7/c1-9-13(18)24-11-5-7-17(22)6-4-10(12(11)17)8-23-14(19)16(3,21)15(9,2)20/h4,9,11-12,20-21H,5-8H2,1-3H3/t9-,11+,12+,15+,16-,17?/m0/s1
CH$LINK: PUBCHEM CID:21586627
CH$LINK: INCHIKEY LHVAZUAALQTANZ-ANYXPJNNSA-N
CH$LINK: CHEMSPIDER 10202244
AC$INSTRUMENT: LTQ Orbitrap XL Thermo Scientific
AC$INSTRUMENT_TYPE: LC-ESI-ITFT
AC$MASS_SPECTROMETRY: MS_TYPE MS2
AC$MASS_SPECTROMETRY: ION_MODE POSITIVE
AC$MASS_SPECTROMETRY: IONIZATION ESI
AC$MASS_SPECTROMETRY: FRAGMENTATION_MODE HCD
AC$MASS_SPECTROMETRY: COLLISION_ENERGY 80 % (nominal)
AC$MASS_SPECTROMETRY: RESOLUTION 15000
AC$CHROMATOGRAPHY: COLUMN_NAME Kinetex Evo C18 2.6 um 50x2.1 mm, Phenomenex
AC$CHROMATOGRAPHY: FLOW_GRADIENT 95/5 at 0 min, 95/5 at 1 min, 0/100 at 13 min, 0/100 at 24 min, 95/5 at 24.3 min, 95/5 at 32 min
AC$CHROMATOGRAPHY: FLOW_RATE 300 uL/min
AC$CHROMATOGRAPHY: RETENTION_TIME 1.129 min
AC$CHROMATOGRAPHY: SOLVENT A water with 0.1% formic acid
AC$CHROMATOGRAPHY: SOLVENT B methanol with 0.1% formic acid
MS$FOCUSED_ION: BASE_PEAK 350.1595
MS$FOCUSED_ION: PRECURSOR_M/Z 342.1547
MS$FOCUSED_ION: PRECURSOR_TYPE [M+H]+
MS$DATA_PROCESSING: RECALIBRATE loess on assigned fragments and MS1
MS$DATA_PROCESSING: REANALYZE Peaks with additional N2/O included
MS$DATA_PROCESSING: WHOLE RMassBank 2.11.0
PK$SPLASH: splash10-00ku-3900000000-b0d4efc0fdd9d6e1cff7
PK$ANNOTATION: m/z tentative_formula formula_count mass error(ppm)
  79.0542 C6H7+ 1 79.0542 -0.43
  80.0494 C5H6N+ 1 80.0495 -0.69
  81.0698 C6H9+ 1 81.0699 -1.02
  83.0492 C5H7O+ 1 83.0491 0.15
  93.0573 C6H7N+ 1 93.0573 -0.52
  94.0651 C6H8N+ 1 94.0651 -0.55
  95.073 C6H9N+ 1 95.073 0.23
  108.0807 C7H10N+ 1 108.0808 -0.55
  115.0753 C6H11O2+ 1 115.0754 -0.31
  118.0652 C8H8N+ 1 118.0651 0.66
  119.0729 C8H9N+ 1 119.073 -0.1
  120.0807 C8H10N+ 1 120.0808 -0.53
  136.0757 C8H10NO+ 1 136.0757 -0.18
  137.0834 C8H11NO+ 1 137.0835 -0.53
  138.091 C8H12NO+ 1 138.0913 -2.31
  157.0862 C8H13O3+ 1 157.0859 1.62
  236.1277 C13H18NO3+ 1 236.1281 -1.81
PK$NUM_PEAK: 17
PK$PEAK: m/z int. rel.int.
  79.0542 1873.9 108
  80.0494 2979.7 172
  81.0698 1803.5 104
  83.0492 2570.7 148
  93.0573 8919.5 516
  94.0651 11215.5 649
  95.073 1846.8 106
  108.0807 7160.5 414
  115.0753 3109.3 180
  118.0652 9394.7 544
  119.0729 12275.5 710
  120.0807 12717.3 736
  136.0757 17251.1 999
  137.0834 9248.4 535
  138.091 2461.6 142
  157.0862 1782.7 103
  236.1277 1817.2 105
//
