ACCESSION: MSBNK-NaToxAq-NA002996
RECORD_TITLE: [6]-Gingerol; LC-ESI-ITFT; MS2; CE: 45%; R=15000; [M+H]+
DATE: 2020.02.21
AUTHORS: Tobias Schulze, Martin Krauss, Helmholtz Centre for Environmental Research GmbH - UFZ, Leipzig, Germany
LICENSE: CC0
COPYRIGHT: Copyright (C) 2020 by Helmholtz Centre for Environmental Research GmbH - UFZ, Leipzig, Germany
COMMENT: CONFIDENCE Reference Standard (Level 1)
COMMENT: INTERNAL_ID 2347
CH$NAME: [6]-Gingerol
CH$NAME: 5-hydroxy-1-(4-hydroxy-3-methoxyphenyl)decan-3-one
CH$COMPOUND_CLASS: N/A; Environmental Standard
CH$FORMULA: C17H26O4
CH$EXACT_MASS: 294.1831
CH$SMILES: CCCCCC(O)CC(=O)CCC1=CC(OC)=C(O)C=C1
CH$IUPAC: InChI=1S/C17H26O4/c1-3-4-5-6-14(18)12-15(19)9-7-13-8-10-16(20)17(11-13)21-2/h8,10-11,14,18,20H,3-7,9,12H2,1-2H3
CH$LINK: CAS 1391-73-7
CH$LINK: PUBCHEM CID:3473
CH$LINK: INCHIKEY NLDDIKRKFXEWBK-UHFFFAOYSA-N
CH$LINK: CHEMSPIDER 3354
CH$LINK: COMPTOX DTXSID40274400
AC$INSTRUMENT: LTQ Orbitrap XL Thermo Scientific
AC$INSTRUMENT_TYPE: LC-ESI-ITFT
AC$MASS_SPECTROMETRY: MS_TYPE MS2
AC$MASS_SPECTROMETRY: ION_MODE POSITIVE
AC$MASS_SPECTROMETRY: IONIZATION ESI
AC$MASS_SPECTROMETRY: FRAGMENTATION_MODE HCD
AC$MASS_SPECTROMETRY: COLLISION_ENERGY 45% (nominal)
AC$MASS_SPECTROMETRY: RESOLUTION 15000
AC$CHROMATOGRAPHY: COLUMN_NAME Kinetex Evo C18 2.6 um 50x2.1 mm, Phenomenex
AC$CHROMATOGRAPHY: FLOW_GRADIENT 95/5 at 0 min, 95/5 at 1 min, 0/100 at 13 min, 0/100 at 24 min, 95/5 at 24.3 min, 95/5/0 at 32 min
AC$CHROMATOGRAPHY: FLOW_RATE 300 uL/min
AC$CHROMATOGRAPHY: RETENTION_TIME 11.616 min
AC$CHROMATOGRAPHY: SOLVENT A water with 0.1% formic acid
AC$CHROMATOGRAPHY: SOLVENT B methanol with 0.1% formic acid
MS$FOCUSED_ION: BASE_PEAK 116.9858
MS$FOCUSED_ION: PRECURSOR_M/Z 295.1904
MS$FOCUSED_ION: PRECURSOR_TYPE [M+H]+
MS$DATA_PROCESSING: RECALIBRATE loess on assigned fragments and MS1
MS$DATA_PROCESSING: REANALYZE Peaks with additional N2/O included
MS$DATA_PROCESSING: WHOLE RMassBank 2.14.1
PK$SPLASH: splash10-0fgc-1920000000-649aec1e890f19e5923d
PK$ANNOTATION: m/z tentative_formula formula_count mass error(ppm)
  85.0285 C4H5O2+ 1 85.0284 0.8
  101.0233 C4H5O3+ 1 101.0233 -0.11
  139.1119 C9H15O+ 1 139.1117 1.26
  175.1117 C12H15O+ 1 175.1117 -0.09
  193.122 C12H17O2+ 1 193.1223 -1.35
  221.117 C13H17O3+ 1 221.1172 -0.81
PK$NUM_PEAK: 6
PK$PEAK: m/z int. rel.int.
  85.0285 3573.1 616
  101.0233 5791.4 999
  139.1119 2531.6 436
  175.1117 4636.4 799
  193.122 4181.7 721
  221.117 5027.3 867
//
