ACCESSION: MSBNK-Chubu_Univ-UT002408
RECORD_TITLE: Phosphatidylcholine 17:0-18:1 / 16:0-19:1; LC-ESI-ITFT; MS3; [M+CH3COO]-/[M-CH3]-; RT: 29.80; Exp: 2
DATE: 2016.01.19 (Created 2010.05.07, modified 2011.08.03)
AUTHORS: Taguchi R, Graduate School of Medicine, The University of Tokyo
LICENSE: CC BY-NC-SA
PUBLICATION: Taguchi, R.; Ishikawa, M. Precise and Global Identification of Phospholipid Molecular Species by an Orbitrap Mass Spectrometer and Automated Search Engine Lipid Search. Journal of Chromatography A 2010, 1217 (25), 4229–39. DOI:10.1016/j.chroma.2010.04.034
CH$NAME: Phosphatidylcholine 17:0-18:1 / 16:0-19:1
CH$COMPOUND_CLASS: Natural Product; Glycerophospholipids; Glycerophosphocholines; Diacylglycerophosphocholines
CH$FORMULA: C86H168N2O16P2
CH$EXACT_MASS: 1547.18691
CH$SMILES: CCCCCCCCCCCCCCCCC(=O)OCC(COP(=O)([O-])OCC[N+](C)(C)C)OC(=O)CC/C=C\CCCCCCCCCCCCC.CCCCCCCCCCCCCCCC(=O)OCC(COP(=O)([O-])OCC[N+](C)(C)C)OC(=O)CC/C=C\CCCCCCCCCCCCCC
CH$IUPAC: InChI=1S/2C43H84NO8P/c1-6-8-10-12-14-16-18-20-21-22-24-26-28-30-32-34-36-43(46)52-41(40-51-53(47,48)50-38-37-44(3,4)5)39-49-42(45)35-33-31-29-27-25-23-19-17-15-13-11-9-7-2;1-6-8-10-12-14-16-18-20-22-24-26-28-30-32-34-36-43(46)52-41(40-51-53(47,48)50-38-37-44(3,4)5)39-49-42(45)35-33-31-29-27-25-23-21-19-17-15-13-11-9-7-2/h2*30,32,41H,6-29,31,33-40H2,1-5H3/b2*32-30-
CH$LINK: INCHIKEY DKJGMIGXHNBMND-SLIPDVOTSA-N
CH$LINK: PUBCHEM CID:134727003
SP$SCIENTIFIC_NAME: Mus musculus
SP$LINEAGE: cellular organisms; Eukaryota; Fungi/Metazoa group; Metazoa; Eumetazoa; Bilateria; Coelomata; Deuterostomia; Chordata; Craniata; Vertebrata; Gnathostomata; Teleostomi; Euteleostomi; Sarcopterygii; Tetrapoda; Amniota; Mammalia; Theria; Eutheria; Euarchontoglires; Glires; Rodentia; Sciurognathi; Muroidea; Muridae; Murinae; Mus
SP$LINK: NCBI-TAXONOMY 10090
SP$SAMPLE: brain
AC$INSTRUMENT: LC-10ADVPmicro HPLC, Shimadzu; LTQ Orbitrap, Thermo Scientific
AC$INSTRUMENT_TYPE: LC-ESI-ITFT
AC$MASS_SPECTROMETRY: MS_TYPE MS3
AC$MASS_SPECTROMETRY: ION_MODE NEGATIVE
AC$MASS_SPECTROMETRY: COLLISION_ENERGY 30%
AC$MASS_SPECTROMETRY: ION_SPRAY_VOLTAGE 3500 V
AC$MASS_SPECTROMETRY: IONIZATION ESI
AC$CHROMATOGRAPHY: COLUMN_NAME Develosil C30, Nomura Chemical
AC$CHROMATOGRAPHY: FLOW_GRADIENT  add 95/5 at 0 min, 70/30 at 40 min, 50/50 at 41 min, 50/50 at 90 min
AC$CHROMATOGRAPHY: FLOW_RATE  add 100 uL/min
AC$CHROMATOGRAPHY: RETENTION_TIME 29.87 min (in paper: 29.8 min)
AC$CHROMATOGRAPHY: SOLVENT A acetonitrile-methanol-water (19:19:2) with 0.1% acetic acid and 0.1% ammonium hydroxide (28%)
AC$CHROMATOGRAPHY: SOLVENT B 2-propanol with 0.1% acetic acid and 0.1% ammonium hydroxide (28%)
MS$FOCUSED_ION: PRECURSOR_M/Z 832.61/758.12
MS$FOCUSED_ION: PRECURSOR_TYPE [M+CH3COO]-/[M-CH3]-
MS$DATA_PROCESSING: WHOLE Xcalibur ver-2.0
PK$SPLASH: splash10-001i-0090000000-30adb673abd71c93970a
PK$ANNOTATION: m/z num type mass error(ppm) formula
  255.12 1 [fa(16:0)-H]- 255.2324052393 -439 C16H31O2-
  269.14 1 [fa(17:0)-H]- 269.2480553035 -400 C17H33O2-
  281.21 1 [fa(18:1)-H]- 281.2480553035 -134 C18H33O2-
  295.17 1 [fa(19:1)-H]- 295.2637053677 -316 C19H35O2-
  480.28 1 [lyso_PC(16:0,-)]- 480.3090143786 -59 C23H47NO7P-
  488.12 1 [lyso_PC(-,18:1)-H2O]- 488.3140997565 -396 C25H47NO6P-
  494.19 1 [lyso_PC(17:0,-)]- 494.3246644428 -271 C24H49NO7P-
  506.11 1 [lyso_PC(-,18:1)]- 506.3246644428 -423 C25H49NO7P-
  520.28 1 [lyso_PC(-,19:1)]- 520.340314507 -115 C26H51NO7P-
PK$NUM_PEAK: 12
PK$PEAK: m/z int. rel.int.
  241.83 5.4 3
  255.12 56.8 32
  269.14 553.2 313
  281.21 1764.7 999
  282.33 22.0 12
  295.17 73.9 42
  475.75 19.3 11
  480.28 5.9 3
  488.12 9.5 5
  494.19 214.5 121
  506.11 28.3 16
  520.28 24.7 14
//
