ACCESSION: MSBNK-Chubu_Univ-UT001134
RECORD_TITLE: Phosphatidylethanolamine 18:1-20:1; LC-ESI-ITFT; MS2; [M-H]-; RT: 32.25; Exp: 1
DATE: 2016.01.19 (Created 2010.05.07, modified 2011.08.03)
AUTHORS: Taguchi R, Graduate School of Medicine, The University of Tokyo
LICENSE: CC BY-NC-SA
PUBLICATION: Taguchi, R.; Ishikawa, M. Precise and Global Identification of Phospholipid Molecular Species by an Orbitrap Mass Spectrometer and Automated Search Engine Lipid Search. Journal of Chromatography A 2010, 1217 (25), 4229–39. DOI:10.1016/j.chroma.2010.04.034
CH$NAME: Phosphatidylethanolamine 18:1-20:1
CH$COMPOUND_CLASS: Natural Product; Glycerophospholipids; Glycerophosphoethanolamines; Diacylglycerophosphoethanolamines
CH$FORMULA: C43H82NO8P
CH$EXACT_MASS: 771.57781
CH$SMILES: C(CC=CCCC(=O)OC(COC(CCC=CCCCCCCCCCCCCC)=O)COP(O)(=O)OCCN)CCCCCCCCCCCCC
CH$IUPAC: InChI=1S/C43H82NO8P/c1-3-5-7-9-11-13-15-17-19-20-22-24-26-28-30-32-34-36-43(46)52-41(40-51-53(47,48)50-38-37-44)39-49-42(45)35-33-31-29-27-25-23-21-18-16-14-12-10-8-6-4-2/h29-32,41H,3-28,33-40,44H2,1-2H3,(H,47,48)/b31-29-,32-30-
CH$LINK: INCHIKEY UVYKYAJJWJKGHK-SZDCHMHBSA-N
SP$SCIENTIFIC_NAME: Mus musculus
SP$LINEAGE: cellular organisms; Eukaryota; Fungi/Metazoa group; Metazoa; Eumetazoa; Bilateria; Coelomata; Deuterostomia; Chordata; Craniata; Vertebrata; Gnathostomata; Teleostomi; Euteleostomi; Sarcopterygii; Tetrapoda; Amniota; Mammalia; Theria; Eutheria; Euarchontoglires; Glires; Rodentia; Sciurognathi; Muroidea; Muridae; Murinae; Mus
SP$LINK: NCBI-TAXONOMY 10090
SP$SAMPLE: liver
AC$INSTRUMENT: LC-10ADVPmicro HPLC, Shimadzu; LTQ Orbitrap, Thermo Scientific
AC$INSTRUMENT_TYPE: LC-ESI-ITFT
AC$MASS_SPECTROMETRY: MS_TYPE MS2
AC$MASS_SPECTROMETRY: ION_MODE NEGATIVE
AC$MASS_SPECTROMETRY: COLLISION_ENERGY 30%
AC$MASS_SPECTROMETRY: ION_SPRAY_VOLTAGE 3500 V
AC$MASS_SPECTROMETRY: IONIZATION ESI
AC$CHROMATOGRAPHY: COLUMN_NAME Develosil C30, Nomura Chemical
AC$CHROMATOGRAPHY: FLOW_GRADIENT  add 95/5 at 0 min, 70/30 at 40 min, 50/50 at 41 min, 50/50 at 90 min
AC$CHROMATOGRAPHY: FLOW_RATE  add 100 uL/min
AC$CHROMATOGRAPHY: RETENTION_TIME 32.24 min (in paper: 32.3 min)
AC$CHROMATOGRAPHY: SOLVENT A acetonitrile-methanol-water (19:19:2) with 0.1% acetic acid and 0.1% ammonium hydroxide (28%)
AC$CHROMATOGRAPHY: SOLVENT B 2-propanol with 0.1% acetic acid and 0.1% ammonium hydroxide (28%)
MS$FOCUSED_ION: PRECURSOR_M/Z 770.57
MS$FOCUSED_ION: PRECURSOR_TYPE [M-H]-
MS$DATA_PROCESSING: WHOLE Xcalibur ver-2.0
PK$SPLASH: splash10-0a4i-0029100000-abadbb385d683761849e
PK$ANNOTATION: m/z num type mass error(ppm) formula
  281.00 1 [fa(18:1)-H]- 281.2480553035 -881 C18H33O2-
  309.09 1 [fa(20:1)-H]- 309.2793554319 -611 C20H37O2-
  478.07 1 [lyso_PE(18:1,-)]- 478.2933643144 -466 C23H45NO7P-
PK$NUM_PEAK: 14
PK$PEAK: m/z int. rel.int.
  281.00 206.4 294
  282.32 18.6 27
  284.07 8.2 12
  305.14 17.7 25
  309.09 700.5 999
  310.23 109.5 156
  389.52 5.3 8
  446.29 6.4 9
  478.07 67.6 96
  479.12 36.4 52
  505.86 13.3 19
  576.61 23.4 33
  672.08 6.4 9
  676.74 11.9 17
//
