ACCESSION: MSBNK-Chubu_Univ-UT001158
RECORD_TITLE: Phosphatidylethanolamine 22:1-18:2; LC-ESI-ITFT; MS2; [M-H]-; RT: 34.22; Exp: 1
DATE: 2016.01.19 (Created 2010.05.07, modified 2011.08.03)
AUTHORS: Taguchi R, Graduate School of Medicine, The University of Tokyo
LICENSE: CC BY-NC-SA
PUBLICATION: Taguchi, R.; Ishikawa, M. Precise and Global Identification of Phospholipid Molecular Species by an Orbitrap Mass Spectrometer and Automated Search Engine Lipid Search. Journal of Chromatography A 2010, 1217 (25), 4229–39. DOI:10.1016/j.chroma.2010.04.034
CH$NAME: Phosphatidylethanolamine 22:1-18:2
CH$COMPOUND_CLASS: Natural Product; Glycerophospholipids; Glycerophosphoethanolamines; Diacylglycerophosphoethanolamines
CH$FORMULA: C45H84NO8P
CH$EXACT_MASS: 797.59346
CH$SMILES: C(C=CCCC(OC(COC(CCC=CCCCCCCCCCCCCCCCCC)=O)COP(O)(=O)OCCN)=O)C=CCCCCCCCCCC
CH$IUPAC: InChI=1S/C45H84NO8P/c1-3-5-7-9-11-13-15-17-19-20-21-22-24-25-27-29-31-33-35-37-44(47)51-41-43(42-53-55(49,50)52-40-39-46)54-45(48)38-36-34-32-30-28-26-23-18-16-14-12-10-8-6-4-2/h26,28,31-34,43H,3-25,27,29-30,35-42,46H2,1-2H3,(H,49,50)/b28-26-,33-31-,34-32-
CH$LINK: INCHIKEY MKIWGOUJSUAXPP-DFWRNDSJSA-N
SP$SCIENTIFIC_NAME: Mus musculus
SP$LINEAGE: cellular organisms; Eukaryota; Fungi/Metazoa group; Metazoa; Eumetazoa; Bilateria; Coelomata; Deuterostomia; Chordata; Craniata; Vertebrata; Gnathostomata; Teleostomi; Euteleostomi; Sarcopterygii; Tetrapoda; Amniota; Mammalia; Theria; Eutheria; Euarchontoglires; Glires; Rodentia; Sciurognathi; Muroidea; Muridae; Murinae; Mus
SP$LINK: NCBI-TAXONOMY 10090
SP$SAMPLE: liver
AC$INSTRUMENT: LC-10ADVPmicro HPLC, Shimadzu; LTQ Orbitrap, Thermo Scientific
AC$INSTRUMENT_TYPE: LC-ESI-ITFT
AC$MASS_SPECTROMETRY: MS_TYPE MS2
AC$MASS_SPECTROMETRY: ION_MODE NEGATIVE
AC$MASS_SPECTROMETRY: COLLISION_ENERGY 30%
AC$MASS_SPECTROMETRY: ION_SPRAY_VOLTAGE 3500 V
AC$MASS_SPECTROMETRY: IONIZATION ESI
AC$CHROMATOGRAPHY: COLUMN_NAME Develosil C30, Nomura Chemical
AC$CHROMATOGRAPHY: FLOW_GRADIENT  add 95/5 at 0 min, 70/30 at 40 min, 50/50 at 41 min, 50/50 at 90 min
AC$CHROMATOGRAPHY: FLOW_RATE  add 100 uL/min
AC$CHROMATOGRAPHY: RETENTION_TIME 34.07 min (in paper: 34.2 min)
AC$CHROMATOGRAPHY: SOLVENT A acetonitrile-methanol-water (19:19:2) with 0.1% acetic acid and 0.1% ammonium hydroxide (28%)
AC$CHROMATOGRAPHY: SOLVENT B 2-propanol with 0.1% acetic acid and 0.1% ammonium hydroxide (28%)
MS$FOCUSED_ION: PRECURSOR_M/Z 796.59
MS$FOCUSED_ION: PRECURSOR_TYPE [M-H]-
MS$DATA_PROCESSING: WHOLE Xcalibur ver-2.0
PK$SPLASH: splash10-000i-0049000000-05bd7b2617c8361071d0
PK$ANNOTATION: m/z num type mass error(ppm) formula
  279.14 1 [fa(18:2)-H]- 279.2324052393 -330 C18H31O2-
  337.25 1 [fa(22:1)-H]- 337.3106555603 -179 C22H41O2-
  476.11 1 [lyso_PE(-,18:2)]- 476.2777142502 -351 C23H43NO7P-
  534.16 1 [lyso_PE(22:1,-)]- 534.3559645712 -366 C27H53NO7P-
PK$NUM_PEAK: 14
PK$PEAK: m/z int. rel.int.
  255.04 6.2 21
  279.14 150.7 515
  280.41 36.7 126
  307.45 5.0 17
  309.05 5.0 17
  337.25 292.1 999
  338.10 47.3 162
  405.06 6.2 21
  468.50 9.0 31
  476.11 7.9 27
  534.16 6.2 21
  535.41 6.2 21
  562.38 6.7 23
  698.78 11.8 40
//
