ACCESSION: MSBNK-Chubu_Univ-UT002175
RECORD_TITLE: Phosphatidylethanolamine alkenyl 18:1-22:4; LC-ESI-ITFT; MS2; [M-H]-; RT: 26.41; Exp: 2
DATE: 2016.01.19 (Created 2010.05.07, modified 2011.08.03)
AUTHORS: Taguchi R, Graduate School of Medicine, The University of Tokyo
LICENSE: CC BY-NC-SA
PUBLICATION: Taguchi, R.; Ishikawa, M. Precise and Global Identification of Phospholipid Molecular Species by an Orbitrap Mass Spectrometer and Automated Search Engine Lipid Search. Journal of Chromatography A 2010, 1217 (25), 4229–39. DOI:10.1016/j.chroma.2010.04.034
CH$NAME: Phosphatidylethanolamine alkenyl 18:1-22:4
CH$COMPOUND_CLASS: Natural Product; Glycerophospholipids; Glycerophosphoethanolamines; 1Z-alkenyl,2-acylglycerophosphoethanolamines
CH$FORMULA: C45H80NO7P
CH$EXACT_MASS: 777.56724
CH$SMILES: O(C(COC=CCC=CCCCCCCCCCCCCC)COP(O)(=O)OCCN)C(=O)CCC=CCC=CCC=CCC=CCCCCCCCC
CH$IUPAC: InChI=1S/C45H80NO7P/c1-3-5-7-9-11-13-15-17-19-21-22-23-24-26-28-30-32-34-36-38-45(47)53-44(43-52-54(48,49)51-41-39-46)42-50-40-37-35-33-31-29-27-25-20-18-16-14-12-10-8-6-4-2/h17,19,22-23,26,28,31-34,37,40,44H,3-16,18,20-21,24-25,27,29-30,35-36,38-39,41-43,46H2,1-2H3,(H,48,49)/b19-17-,23-22-,28-26-,33-31-,34-32-,40-37+
CH$LINK: INCHIKEY LLGDMLIODPBDGJ-IVEVXDSTSA-N
SP$SCIENTIFIC_NAME: Mus musculus
SP$LINEAGE: cellular organisms; Eukaryota; Fungi/Metazoa group; Metazoa; Eumetazoa; Bilateria; Coelomata; Deuterostomia; Chordata; Craniata; Vertebrata; Gnathostomata; Teleostomi; Euteleostomi; Sarcopterygii; Tetrapoda; Amniota; Mammalia; Theria; Eutheria; Euarchontoglires; Glires; Rodentia; Sciurognathi; Muroidea; Muridae; Murinae; Mus
SP$LINK: NCBI-TAXONOMY 10090
SP$SAMPLE: brain
AC$INSTRUMENT: LC-10ADVPmicro HPLC, Shimadzu; LTQ Orbitrap, Thermo Scientific
AC$INSTRUMENT_TYPE: LC-ESI-ITFT
AC$MASS_SPECTROMETRY: MS_TYPE MS2
AC$MASS_SPECTROMETRY: ION_MODE NEGATIVE
AC$MASS_SPECTROMETRY: COLLISION_ENERGY 30%
AC$MASS_SPECTROMETRY: ION_SPRAY_VOLTAGE 3500 V
AC$MASS_SPECTROMETRY: IONIZATION ESI
AC$CHROMATOGRAPHY: COLUMN_NAME Develosil C30, Nomura Chemical
AC$CHROMATOGRAPHY: FLOW_GRADIENT  add 95/5 at 0 min, 70/30 at 40 min, 50/50 at 41 min, 50/50 at 90 min
AC$CHROMATOGRAPHY: FLOW_RATE  add 100 uL/min
AC$CHROMATOGRAPHY: RETENTION_TIME 26.54 min (in paper: 26.4 min)
AC$CHROMATOGRAPHY: SOLVENT A acetonitrile-methanol-water (19:19:2) with 0.1% acetic acid and 0.1% ammonium hydroxide (28%)
AC$CHROMATOGRAPHY: SOLVENT B 2-propanol with 0.1% acetic acid and 0.1% ammonium hydroxide (28%)
MS$FOCUSED_ION: PRECURSOR_M/Z 776.56
MS$FOCUSED_ION: PRECURSOR_TYPE [M-H]-
MS$DATA_PROCESSING: WHOLE Xcalibur ver-2.0
PK$SPLASH: splash10-001i-0009300000-fbf5addd5c3391da1077
PK$ANNOTATION: m/z num type mass error(ppm) formula
  265.20 1 [fa(alkenyl-18:1)-H]- 265.2531406814 -199 C18H33O-
  287.21 1 [fa(22:4)-H-CO2]- 287.2738761235 -221 C21H35-
  331.12 1 [fa(22:4)-H]- 331.2637053677 -433 C22H35O2-
  444.09 1 [lyso_PE(alkenyl-18:1,-)-H2O]- 444.287885006 -444 C23H43NO5P-
  462.09 1 [lyso_PE(alkenyl-18:1,-)]- 462.2984496923 -450 C23H45NO6P-
  510.31 1 [lyso_PE(-,22:4)-H2O]- 510.2984496923 23 C27H45NO6P-
PK$NUM_PEAK: 30
PK$PEAK: m/z int. rel.int.
  233.01 176.8 5
  233.94 13.0 1
  253.33 49.2 1
  254.95 13.0 1
  261.27 41.6 1
  265.20 66.5 2
  266.27 27.2 1
  281.22 42.2 1
  282.09 17.8 1
  287.21 1661.5 47
  288.16 147.0 4
  294.67 21.1 1
  302.99 14.4 1
  311.13 11.6 1
  313.13 248.3 7
  329.22 174.4 5
  331.12 35458.6 999
  332.15 4314.5 122
  401.12 189.1 5
  444.09 1638.7 46
  445.04 237.3 7
  462.09 10128.2 285
  463.18 1413.5 40
  466.28 51.7 1
  494.25 29.8 1
  510.31 25.1 1
  702.45 24.0 1
  715.95 38.9 1
  718.25 35.2 1
  734.05 53.3 2
//
