ACCESSION: MSBNK-Chubu_Univ-UT002164
RECORD_TITLE: Phosphatidylethanolamine alkenyl 18:0-22:3; LC-ESI-ITFT; MS2; [M-H]-; RT: 41.08; Exp: 2
DATE: 2016.01.19 (Created 2010.05.07, modified 2011.08.03)
AUTHORS: Taguchi R, Graduate School of Medicine, The University of Tokyo
LICENSE: CC BY-NC-SA
PUBLICATION: Taguchi, R.; Ishikawa, M. Precise and Global Identification of Phospholipid Molecular Species by an Orbitrap Mass Spectrometer and Automated Search Engine Lipid Search. Journal of Chromatography A 2010, 1217 (25), 4229–39. DOI:10.1016/j.chroma.2010.04.034
CH$NAME: Phosphatidylethanolamine alkenyl 18:0-22:3
CH$COMPOUND_CLASS: Natural Product; Glycerophospholipids; Glycerophosphoethanolamines; 1Z-alkenyl,2-acylglycerophosphoethanolamines
CH$FORMULA: C45H84NO7P
CH$EXACT_MASS: 781.59854
CH$SMILES: C(CCCCCCCCCCC)CCCCC=COCC(COP(OCCN)(O)=O)OC(CCC=CCC=CCC=CCCCCCCCCCCC)=O
CH$IUPAC: InChI=1S/C45H84NO7P/c1-3-5-7-9-11-13-15-17-19-21-22-23-24-26-28-30-32-34-36-38-45(47)53-44(43-52-54(48,49)51-41-39-46)42-50-40-37-35-33-31-29-27-25-20-18-16-14-12-10-8-6-4-2/h22-23,26,28,32,34,37,40,44H,3-21,24-25,27,29-31,33,35-36,38-39,41-43,46H2,1-2H3,(H,48,49)/b23-22-,28-26-,34-32-,40-37+
CH$LINK: INCHIKEY VBVLUHGCJVMQFI-DTZLILKHSA-N
SP$SCIENTIFIC_NAME: Mus musculus
SP$LINEAGE: cellular organisms; Eukaryota; Fungi/Metazoa group; Metazoa; Eumetazoa; Bilateria; Coelomata; Deuterostomia; Chordata; Craniata; Vertebrata; Gnathostomata; Teleostomi; Euteleostomi; Sarcopterygii; Tetrapoda; Amniota; Mammalia; Theria; Eutheria; Euarchontoglires; Glires; Rodentia; Sciurognathi; Muroidea; Muridae; Murinae; Mus
SP$LINK: NCBI-TAXONOMY 10090
SP$SAMPLE: brain
AC$INSTRUMENT: LC-10ADVPmicro HPLC, Shimadzu; LTQ Orbitrap, Thermo Scientific
AC$INSTRUMENT_TYPE: LC-ESI-ITFT
AC$MASS_SPECTROMETRY: MS_TYPE MS2
AC$MASS_SPECTROMETRY: ION_MODE NEGATIVE
AC$MASS_SPECTROMETRY: COLLISION_ENERGY 30%
AC$MASS_SPECTROMETRY: ION_SPRAY_VOLTAGE 3500 V
AC$MASS_SPECTROMETRY: IONIZATION ESI
AC$CHROMATOGRAPHY: COLUMN_NAME Develosil C30, Nomura Chemical
AC$CHROMATOGRAPHY: FLOW_GRADIENT  add 95/5 at 0 min, 70/30 at 40 min, 50/50 at 41 min, 50/50 at 90 min
AC$CHROMATOGRAPHY: FLOW_RATE  add 100 uL/min
AC$CHROMATOGRAPHY: RETENTION_TIME 41.11 min (in paper: 41.1 min)
AC$CHROMATOGRAPHY: SOLVENT A acetonitrile-methanol-water (19:19:2) with 0.1% acetic acid and 0.1% ammonium hydroxide (28%)
AC$CHROMATOGRAPHY: SOLVENT B 2-propanol with 0.1% acetic acid and 0.1% ammonium hydroxide (28%)
MS$FOCUSED_ION: PRECURSOR_M/Z 780.59
MS$FOCUSED_ION: PRECURSOR_TYPE [M-H]-
MS$DATA_PROCESSING: WHOLE Xcalibur ver-2.0
PK$SPLASH: splash10-001i-0009200000-8f42081a13b56f21ecfe
PK$ANNOTATION: m/z num type mass error(ppm) formula
  289.50 1 [fa(22:3)-H-CO2]- 289.2895261877 728 C21H37-
  333.10 1 [fa(22:3)-H]- 333.2793554319 -537 C22H37O2-
  446.12 1 [lyso_PE(alkenyl-18:0,-)-H2O]- 446.3035350702 -410 C23H45NO5P-
  464.22 1 [lyso_PE(alkenyl-18:0,-)]- 464.3140997565 -202 C23H47NO6P-
PK$NUM_PEAK: 17
PK$PEAK: m/z int. rel.int.
  268.56 7.7 12
  289.50 11.0 17
  303.91 24.1 36
  331.05 49.7 75
  333.10 663.8 999
  334.16 99.2 149
  337.19 15.0 23
  361.18 20.9 31
  403.21 12.7 19
  418.63 5.3 8
  446.12 26.4 40
  462.45 14.4 22
  464.22 139.5 210
  464.88 14.2 21
  493.12 21.7 33
  720.55 11.5 17
  728.84 9.9 15
//
