ACCESSION: MSBNK-Chubu_Univ-UT001855
RECORD_TITLE: Phosphatidylethanolamine 17:0-20:4; LC-ESI-ITFT; MS2; [M-H]-; RT: 22.93; Exp: 2
DATE: 2016.01.19 (Created 2010.05.07, modified 2011.08.03)
AUTHORS: Taguchi R, Graduate School of Medicine, The University of Tokyo
LICENSE: CC BY-NC-SA
PUBLICATION: Taguchi, R.; Ishikawa, M. Precise and Global Identification of Phospholipid Molecular Species by an Orbitrap Mass Spectrometer and Automated Search Engine Lipid Search. Journal of Chromatography A 2010, 1217 (25), 4229–39. DOI:10.1016/j.chroma.2010.04.034
CH$NAME: Phosphatidylethanolamine 17:0-20:4
CH$COMPOUND_CLASS: Natural Product; Glycerophospholipids; Glycerophosphoethanolamines; Diacylglycerophosphoethanolamines
CH$FORMULA: C42H76NO8P
CH$EXACT_MASS: 753.53085
CH$SMILES: OP(=O)(OCCN)OCC(COC(=O)CCCCCCCCCCCCCCCC)OC(=O)CCC=CCC=CCC=CCC=CCCCCCC
CH$IUPAC: InChI=1S/C42H76NO8P/c1-3-5-7-9-11-13-15-17-19-20-21-23-25-27-29-31-33-35-42(45)51-40(39-50-52(46,47)49-37-36-43)38-48-41(44)34-32-30-28-26-24-22-18-16-14-12-10-8-6-4-2/h13,15,19-20,23,25,29,31,40H,3-12,14,16-18,21-22,24,26-28,30,32-39,43H2,1-2H3,(H,46,47)/b15-13-,20-19-,25-23-,31-29-
CH$LINK: INCHIKEY LUNHOOJLWJQRDB-VTJLAKARSA-N
SP$SCIENTIFIC_NAME: Mus musculus
SP$LINEAGE: cellular organisms; Eukaryota; Fungi/Metazoa group; Metazoa; Eumetazoa; Bilateria; Coelomata; Deuterostomia; Chordata; Craniata; Vertebrata; Gnathostomata; Teleostomi; Euteleostomi; Sarcopterygii; Tetrapoda; Amniota; Mammalia; Theria; Eutheria; Euarchontoglires; Glires; Rodentia; Sciurognathi; Muroidea; Muridae; Murinae; Mus
SP$LINK: NCBI-TAXONOMY 10090
SP$SAMPLE: liver
AC$INSTRUMENT: LC-10ADVPmicro HPLC, Shimadzu; LTQ Orbitrap, Thermo Scientific
AC$INSTRUMENT_TYPE: LC-ESI-ITFT
AC$MASS_SPECTROMETRY: MS_TYPE MS2
AC$MASS_SPECTROMETRY: ION_MODE NEGATIVE
AC$MASS_SPECTROMETRY: COLLISION_ENERGY 30%
AC$MASS_SPECTROMETRY: ION_SPRAY_VOLTAGE 3500 V
AC$MASS_SPECTROMETRY: IONIZATION ESI
AC$CHROMATOGRAPHY: COLUMN_NAME Develosil C30, Nomura Chemical
AC$CHROMATOGRAPHY: FLOW_GRADIENT  add 95/5 at 0 min, 70/30 at 40 min, 50/50 at 41 min, 50/50 at 90 min
AC$CHROMATOGRAPHY: FLOW_RATE  add 100 uL/min
AC$CHROMATOGRAPHY: RETENTION_TIME 23.06 min (in paper: 22.9 min)
AC$CHROMATOGRAPHY: SOLVENT A acetonitrile-methanol-water (19:19:2) with 0.1% acetic acid and 0.1% ammonium hydroxide (28%)
AC$CHROMATOGRAPHY: SOLVENT B 2-propanol with 0.1% acetic acid and 0.1% ammonium hydroxide (28%)
MS$FOCUSED_ION: PRECURSOR_M/Z 752.52
MS$FOCUSED_ION: PRECURSOR_TYPE [M-H]-
MS$DATA_PROCESSING: WHOLE Xcalibur ver-2.0
PK$SPLASH: splash10-0uxr-0049200000-2f13f1b487eaaa835f3f
PK$ANNOTATION: m/z num type mass error(ppm) formula
  259.01 1 [fa(20:4)-H-CO2]- 259.2425759951 -896 C19H31-
  269.11 1 [fa(17:0)-H]- 269.2480553035 -512 C17H33O2-
  303.04 1 [fa(20:4)-H]- 303.2324052393 -634 C20H31O2-
  448.01 1 [lyso_PE(17:0,-)-H2O]- 448.2827996281 -608 C22H43NO6P-
  466.13 1 [lyso_PE(17:0,-)]- 466.2933643144 -349 C22H45NO7P-
  482.55 1 [lyso_PE(-,20:4)-H2O]- 482.2671495639 587 C25H41NO6P-
PK$NUM_PEAK: 22
PK$PEAK: m/z int. rel.int.
  259.01 352.6 63
  260.18 68.1 12
  264.75 11.7 2
  269.11 2119.7 381
  270.21 212.7 38
  285.19 3.5 1
  301.11 17.2 3
  303.04 5564.4 999
  304.13 607.0 109
  330.50 21.5 4
  420.24 6.9 1
  447.40 14.0 3
  448.01 99.5 18
  448.83 11.6 2
  464.31 27.5 5
  466.13 1542.2 277
  467.11 120.8 22
  481.94 55.7 10
  482.55 5.8 1
  499.93 73.8 13
  672.30 9.7 2
  692.48 17.6 3
//
