ACCESSION: MSBNK-Chubu_Univ-UT002110
RECORD_TITLE: Phosphatidylethanolamine 17:0-18:1; LC-ESI-ITFT; MS2; [M-H]-; RT: 31.04; Exp: 2
DATE: 2016.01.19 (Created 2010.05.07, modified 2013.05.16)
AUTHORS: Taguchi R, Graduate School of Medicine, The University of Tokyo
LICENSE: CC BY-NC-SA
PUBLICATION: Taguchi, R.; Ishikawa, M. Precise and Global Identification of Phospholipid Molecular Species by an Orbitrap Mass Spectrometer and Automated Search Engine Lipid Search. Journal of Chromatography A 2010, 1217 (25), 4229–39. DOI:10.1016/j.chroma.2010.04.034
CH$NAME: Phosphatidylethanolamine 17:0-18:1
CH$COMPOUND_CLASS: Natural Product; Glycerophospholipids; Glycerophosphoethanolamines; Diacylglycerophosphoethanolamines
CH$FORMULA: C40H78NO8P
CH$EXACT_MASS: 731.54650
CH$SMILES: C(CCCCCCCCCCCCC)CCC(OCC(OC(CCC=CCCCCCCCCCCCCC)=O)COP(O)(=O)OCCN)=O
CH$IUPAC: InChI=1S/C40H78NO8P/c1-3-5-7-9-11-13-15-17-19-21-23-25-27-29-31-33-40(43)49-38(37-48-50(44,45)47-35-34-41)36-46-39(42)32-30-28-26-24-22-20-18-16-14-12-10-8-6-4-2/h27,29,38H,3-26,28,30-37,41H2,1-2H3,(H,44,45)/b29-27-
CH$LINK: INCHIKEY OCGMRPHRWYLSEA-OHYPFYFLSA-N
SP$SCIENTIFIC_NAME: Mus musculus
SP$LINEAGE: cellular organisms; Eukaryota; Fungi/Metazoa group; Metazoa; Eumetazoa; Bilateria; Coelomata; Deuterostomia; Chordata; Craniata; Vertebrata; Gnathostomata; Teleostomi; Euteleostomi; Sarcopterygii; Tetrapoda; Amniota; Mammalia; Theria; Eutheria; Euarchontoglires; Glires; Rodentia; Sciurognathi; Muroidea; Muridae; Murinae; Mus
SP$LINK: NCBI-TAXONOMY 10090
SP$SAMPLE: brain
AC$INSTRUMENT: LC-10ADVPmicro HPLC, Shimadzu; LTQ Orbitrap, Thermo Scientific
AC$INSTRUMENT_TYPE: LC-ESI-ITFT
AC$MASS_SPECTROMETRY: MS_TYPE MS2
AC$MASS_SPECTROMETRY: ION_MODE NEGATIVE
AC$MASS_SPECTROMETRY: COLLISION_ENERGY 30%
AC$MASS_SPECTROMETRY: ION_SPRAY_VOLTAGE 3500 V
AC$MASS_SPECTROMETRY: IONIZATION ESI
AC$CHROMATOGRAPHY: COLUMN_NAME Develosil C30, Nomura Chemical
AC$CHROMATOGRAPHY: FLOW_GRADIENT add 95/5 at 0 min, 70/30 at 40 min, 50/50 at 41 min, 50/50 at 90 min
AC$CHROMATOGRAPHY: FLOW_RATE add 100 uL/min
AC$CHROMATOGRAPHY: RETENTION_TIME 31.21 min (in paper: 31 min)
AC$CHROMATOGRAPHY: SOLVENT A acetonitrile-methanol-water (19:19:2) with 0.1% acetic acid and 0.1% ammonium hydroxide (28%)
AC$CHROMATOGRAPHY: SOLVENT B 2-propanol with 0.1% acetic acid and 0.1% ammonium hydroxide (28%)
MS$FOCUSED_ION: PRECURSOR_M/Z 730.54
MS$FOCUSED_ION: PRECURSOR_TYPE [M-H]-
MS$DATA_PROCESSING: WHOLE Xcalibur ver-2.0
PK$SPLASH: splash10-001i-0090000000-650fbf1e6ab2f3653524
PK$ANNOTATION: m/z num type mass error(ppm) formula
  269.09 1 [fa(17:0)-H]- 269.2480553035 -586 C17H33O2-
  281.11 1 [fa(18:1)-H]- 281.2480553035 -490 C18H33O2-
  295.15 1 [fa(19:1)-H]- 295.2637053677 -384 C19H35O2-
  460.12 1 [lyso_PE(-,18:1)-H2O]- 460.2827996281 -353 C23H43NO6P-
  466.22 1 [lyso_PE(17:0,-)]- 466.2933643144 -156 C22H45NO7P-
PK$NUM_PEAK: 18
PK$PEAK: m/z int. rel.int.
  255.09 24.4 17
  269.09 415.9 282
  269.96 24.6 17
  281.11 1474.6 999
  282.11 411.9 279
  283.18 125.4 85
  295.15 19.0 13
  309.41 20.3 14
  319.87 11.2 8
  446.08 11.9 8
  447.18 32.7 22
  460.12 4.8 3
  464.07 12.4 8
  465.20 42.6 29
  466.22 166.6 113
  580.83 9.9 7
  686.85 31.3 21
  710.56 14.8 10
//
