ACCESSION: MSBNK-Chubu_Univ-UT001974
RECORD_TITLE: Phosphatidylinositol 18:0-20:4; LC-ESI-ITFT; MS2; [M-H]-; RT: 20.33; Exp: 2
DATE: 2016.01.19 (Created 2010.05.07, modified 2011.08.03)
AUTHORS: Taguchi R, Graduate School of Medicine, The University of Tokyo
LICENSE: CC BY-NC-SA
PUBLICATION: Taguchi, R.; Ishikawa, M. Precise and Global Identification of Phospholipid Molecular Species by an Orbitrap Mass Spectrometer and Automated Search Engine Lipid Search. Journal of Chromatography A 2010, 1217 (25), 4229–39. DOI:10.1016/j.chroma.2010.04.034
CH$NAME: Phosphatidylinositol 18:0-20:4
CH$COMPOUND_CLASS: Natural Product; Glycerophospholipids; Glycerophosphoinositols; Diacylglycerophosphoinositols
CH$FORMULA: C47H83O13P
CH$EXACT_MASS: 886.55713
CH$SMILES: C(CCCC=CCC=CCC=CCC=CCCC(=O)OC(COC(=O)CCCCCCCCCCCCCCCCC)COP(OC(C(O)1)C(O)C(C(O)C(O)1)O)(O)=O)CC
CH$IUPAC: InChI=1S/C47H83O13P/c1-3-5-7-9-11-13-15-17-19-20-22-24-26-28-30-32-34-36-41(49)59-39(38-58-61(55,56)60-47-45(53)43(51)42(50)44(52)46(47)54)37-57-40(48)35-33-31-29-27-25-23-21-18-16-14-12-10-8-6-4-2/h13,15,19-20,24,26,30,32,39,42-47,50-54H,3-12,14,16-18,21-23,25,27-29,31,33-38H2,1-2H3,(H,55,56)/b15-13-,20-19-,26-24-,32-30-/t39?,42-,43-,44+,45-,46-,47-/m1/s1
CH$LINK: INCHIKEY QTBZDDLLDFZGQX-KVUJAYRISA-N
SP$SCIENTIFIC_NAME: Mus musculus
SP$LINEAGE: cellular organisms; Eukaryota; Fungi/Metazoa group; Metazoa; Eumetazoa; Bilateria; Coelomata; Deuterostomia; Chordata; Craniata; Vertebrata; Gnathostomata; Teleostomi; Euteleostomi; Sarcopterygii; Tetrapoda; Amniota; Mammalia; Theria; Eutheria; Euarchontoglires; Glires; Rodentia; Sciurognathi; Muroidea; Muridae; Murinae; Mus
SP$LINK: NCBI-TAXONOMY 10090
SP$SAMPLE: liver
AC$INSTRUMENT: LC-10ADVPmicro HPLC, Shimadzu; LTQ Orbitrap, Thermo Scientific
AC$INSTRUMENT_TYPE: LC-ESI-ITFT
AC$MASS_SPECTROMETRY: MS_TYPE MS2
AC$MASS_SPECTROMETRY: ION_MODE NEGATIVE
AC$MASS_SPECTROMETRY: COLLISION_ENERGY 30%
AC$MASS_SPECTROMETRY: ION_SPRAY_VOLTAGE 3500 V
AC$MASS_SPECTROMETRY: IONIZATION ESI
AC$CHROMATOGRAPHY: COLUMN_NAME Develosil C30, Nomura Chemical
AC$CHROMATOGRAPHY: FLOW_GRADIENT  add 95/5 at 0 min, 70/30 at 40 min, 50/50 at 41 min, 50/50 at 90 min
AC$CHROMATOGRAPHY: FLOW_RATE  add 100 uL/min
AC$CHROMATOGRAPHY: RETENTION_TIME 20.40 min (in paper: 20.3 min)
AC$CHROMATOGRAPHY: SOLVENT A acetonitrile-methanol-water (19:19:2) with 0.1% acetic acid and 0.1% ammonium hydroxide (28%)
AC$CHROMATOGRAPHY: SOLVENT B 2-propanol with 0.1% acetic acid and 0.1% ammonium hydroxide (28%)
MS$FOCUSED_ION: PRECURSOR_M/Z 885.55
MS$FOCUSED_ION: PRECURSOR_TYPE [M-H]-
MS$DATA_PROCESSING: WHOLE Xcalibur ver-2.0
PK$SPLASH: splash10-001i-0061591000-8f53e02c46710a4cb0e4
PK$ANNOTATION: m/z num type mass error(ppm) formula
  283.17 1 [fa(18:0)-H]- 283.2637053677 -330 C18H35O2-
  303.08 1 [fa(20:4)-H]- 303.2324052393 -502 C20H31O2-
  581.13 1 [lyso_PI(18:0,-)-H2O]- 581.3090739581 -307 C27H50O11P-
  599.07 1 [lyso_PI(18:0,-)]- 599.3196386444 -416 C27H52O12P-
  601.03 1 [lyso_PI(-,20:4)-H2O]- 601.2777738297 -411 C29H46O11P-
  619.20 1 [lyso_PI(-,20:4)]- 619.288338516 -142 C29H48O12P-
PK$NUM_PEAK: 31
PK$PEAK: m/z int. rel.int.
  258.84 959.2 20
  267.26 112.9 2
  283.17 36308.8 746
  284.12 4827.2 99
  285.15 122.7 3
  296.90 7508.9 154
  297.64 337.5 7
  301.09 115.6 2
  303.08 10522.9 216
  304.08 938.2 19
  314.94 1442.9 30
  315.91 115.2 2
  419.07 31553.0 648
  420.23 4029.2 83
  437.17 1161.9 24
  438.08 463.9 10
  438.95 3991.0 82
  439.85 975.4 20
  456.60 83.2 2
  525.19 162.2 3
  581.13 48633.9 999
  582.19 9696.6 199
  599.07 10806.9 222
  600.39 2553.5 52
  601.03 8348.3 171
  601.97 1807.4 37
  618.55 191.7 4
  619.20 870.9 18
  619.87 481.1 10
  724.23 146.7 3
  787.22 389.2 8
//
