ACCESSION: MSBNK-Chubu_Univ-UT002904
RECORD_TITLE: Phosphatidylethanolamine alkenyl 18:1-22:6; LC-ESI-ITFT; MS2; [M-H]-; RT: 19.51; Exp: 3
DATE: 2016.01.19 (Created 2010.05.07, modified 2011.08.03)
AUTHORS: Taguchi R, Graduate School of Medicine, The University of Tokyo
LICENSE: CC BY-NC-SA
PUBLICATION: Taguchi, R.; Ishikawa, M. Precise and Global Identification of Phospholipid Molecular Species by an Orbitrap Mass Spectrometer and Automated Search Engine Lipid Search. Journal of Chromatography A 2010, 1217 (25), 4229–39. DOI:10.1016/j.chroma.2010.04.034
CH$NAME: Phosphatidylethanolamine alkenyl 18:1-22:6
CH$COMPOUND_CLASS: Natural Product; Glycerophospholipids; Glycerophosphoethanolamines; 1Z-alkenyl,2-acylglycerophosphoethanolamines
CH$FORMULA: C45H76NO7P
CH$EXACT_MASS: 773.53594
CH$SMILES: C(=CCCC(OC(COC=CCC=CCCCCCCCCCCCCC)COP(O)(=O)OCCN)=O)CC=CCC=CCC=CCC=CCC=CCC
CH$IUPAC: InChI=1S/C45H76NO7P/c1-3-5-7-9-11-13-15-17-19-21-22-23-24-26-28-30-32-34-36-38-45(47)53-44(43-52-54(48,49)51-41-39-46)42-50-40-37-35-33-31-29-27-25-20-18-16-14-12-10-8-6-4-2/h5,7,11,13,17,19,22-23,26,28,31-34,37,40,44H,3-4,6,8-10,12,14-16,18,20-21,24-25,27,29-30,35-36,38-39,41-43,46H2,1-2H3,(H,48,49)/b7-5-,13-11-,19-17-,23-22-,28-26-,33-31-,34-32-,40-37+
CH$LINK: INCHIKEY MEWSEYMCACAAEE-YLACOYRISA-N
SP$SCIENTIFIC_NAME: Mus musculus
SP$LINEAGE: cellular organisms; Eukaryota; Fungi/Metazoa group; Metazoa; Eumetazoa; Bilateria; Coelomata; Deuterostomia; Chordata; Craniata; Vertebrata; Gnathostomata; Teleostomi; Euteleostomi; Sarcopterygii; Tetrapoda; Amniota; Mammalia; Theria; Eutheria; Euarchontoglires; Glires; Rodentia; Sciurognathi; Muroidea; Muridae; Murinae; Mus
SP$LINK: NCBI-TAXONOMY 10090
SP$SAMPLE: brain
AC$INSTRUMENT: LC-10ADVPmicro HPLC, Shimadzu; LTQ Orbitrap, Thermo Scientific
AC$INSTRUMENT_TYPE: LC-ESI-ITFT
AC$MASS_SPECTROMETRY: MS_TYPE MS2
AC$MASS_SPECTROMETRY: ION_MODE NEGATIVE
AC$MASS_SPECTROMETRY: COLLISION_ENERGY 30%
AC$MASS_SPECTROMETRY: ION_SPRAY_VOLTAGE 3500 V
AC$MASS_SPECTROMETRY: IONIZATION ESI
AC$CHROMATOGRAPHY: COLUMN_NAME Develosil C30, Nomura Chemical
AC$CHROMATOGRAPHY: FLOW_GRADIENT  add 95/5 at 0 min, 70/30 at 40 min, 50/50 at 41 min, 50/50 at 90 min
AC$CHROMATOGRAPHY: FLOW_RATE  add 100 uL/min
AC$CHROMATOGRAPHY: RETENTION_TIME 19.47 min (in paper: 19.5 min)
AC$CHROMATOGRAPHY: SOLVENT A acetonitrile-methanol-water (19:19:2) with 0.1% acetic acid and 0.1% ammonium hydroxide (28%)
AC$CHROMATOGRAPHY: SOLVENT B 2-propanol with 0.1% acetic acid and 0.1% ammonium hydroxide (28%)
MS$FOCUSED_ION: PRECURSOR_M/Z 772.53
MS$FOCUSED_ION: PRECURSOR_TYPE [M-H]-
MS$DATA_PROCESSING: WHOLE Xcalibur ver-2.0
PK$SPLASH: splash10-01u0-0058900000-7981577e270f11ca3c89
PK$ANNOTATION: m/z num type mass error(ppm) formula
  265.11 1 [fa(alkenyl-18:1)-H]- 265.2531406814 -539 C18H33O-
  283.14 1 [fa(22:6)-H-CO2]- 283.2425759951 -361 C21H31-
  327.07 1 [fa(22:6)-H]- 327.2324052393 -495 C22H31O2-
  444.19 1 [lyso_PE(alkenyl-18:1,-)-H2O]- 444.287885006 -219 C23H43NO5P-
  462.10 1 [lyso_PE(alkenyl-18:1,-)]- 462.2984496923 -428 C23H45NO6P-
PK$NUM_PEAK: 29
PK$PEAK: m/z int. rel.int.
  228.95 2282.0 12
  230.06 329.8 2
  241.21 226.5 1
  247.31 196.6 1
  249.16 628.1 3
  250.17 261.6 1
  255.39 1485.9 8
  265.11 1120.2 6
  272.77 778.6 4
  281.16 5006.0 27
  282.46 3053.2 17
  283.14 95483.2 522
  284.30 8602.5 47
  307.37 261.2 1
  309.17 813.7 4
  311.28 456.1 2
  327.07 182692.8 999
  328.10 12366.0 68
  401.03 2937.2 16
  416.99 1189.1 7
  444.19 26141.5 143
  445.11 2761.1 15
  447.99 203.7 1
  450.76 304.4 2
  462.10 157460.2 861
  463.17 18292.2 100
  491.00 562.5 3
  505.89 218.0 1
  699.34 456.8 2
//
