ACCESSION: MSBNK-Chubu_Univ-UT001254
RECORD_TITLE: Phosphatidylserine 18:0-20:5; LC-ESI-ITFT; MS2; [M-H]-; RT: 20.89; Exp: 1
DATE: 2016.01.19 (Created 2010.05.07, modified 2013.05.16)
AUTHORS: Taguchi R, Graduate School of Medicine, The University of Tokyo
LICENSE: CC BY-NC-SA
PUBLICATION: Taguchi, R.; Ishikawa, M. Precise and Global Identification of Phospholipid Molecular Species by an Orbitrap Mass Spectrometer and Automated Search Engine Lipid Search. Journal of Chromatography A 2010, 1217 (25), 4229–39. DOI:10.1016/j.chroma.2010.04.034
CH$NAME: Phosphatidylserine 18:0-20:5
CH$COMPOUND_CLASS: Natural Product; Glycerophospholipids; Glycerophosphoserines; Diacylglycerophosphoserines
CH$FORMULA: C44H76NO10P
CH$EXACT_MASS: 809.52068
CH$SMILES: C(CCCCCCC)CCCCCCCCCC(=O)OCC(OC(CCC=CCC=CCC=CCC=CCC=CCCC)=O)COP(OCC(C(O)=O)N)(O)=O
CH$IUPAC: InChI=1S/C44H76NO10P/c1-3-5-7-9-11-13-15-17-19-20-22-24-26-28-30-32-34-36-43(47)55-40(38-53-56(50,51)54-39-41(45)44(48)49)37-52-42(46)35-33-31-29-27-25-23-21-18-16-14-12-10-8-6-4-2/h7,9,13,15,19-20,24,26,30,32,40-41H,3-6,8,10-12,14,16-18,21-23,25,27-29,31,33-39,45H2,1-2H3,(H,48,49)(H,50,51)/b9-7-,15-13-,20-19-,26-24-,32-30-
CH$LINK: INCHIKEY OYCMFOXJRHYXHL-HDSNJYMDSA-N
SP$SCIENTIFIC_NAME: Mus musculus
SP$LINEAGE: cellular organisms; Eukaryota; Fungi/Metazoa group; Metazoa; Eumetazoa; Bilateria; Coelomata; Deuterostomia; Chordata; Craniata; Vertebrata; Gnathostomata; Teleostomi; Euteleostomi; Sarcopterygii; Tetrapoda; Amniota; Mammalia; Theria; Eutheria; Euarchontoglires; Glires; Rodentia; Sciurognathi; Muroidea; Muridae; Murinae; Mus
SP$LINK: NCBI-TAXONOMY 10090
SP$SAMPLE: liver
AC$INSTRUMENT: LC-10ADVPmicro HPLC, Shimadzu; LTQ Orbitrap, Thermo Scientific
AC$INSTRUMENT_TYPE: LC-ESI-ITFT
AC$MASS_SPECTROMETRY: MS_TYPE MS2
AC$MASS_SPECTROMETRY: ION_MODE NEGATIVE
AC$MASS_SPECTROMETRY: COLLISION_ENERGY 30%
AC$MASS_SPECTROMETRY: ION_SPRAY_VOLTAGE 3500 V
AC$MASS_SPECTROMETRY: IONIZATION ESI
AC$CHROMATOGRAPHY: COLUMN_NAME Develosil C30, Nomura Chemical
AC$CHROMATOGRAPHY: FLOW_GRADIENT add 95/5 at 0 min, 70/30 at 40 min, 50/50 at 41 min, 50/50 at 90 min
AC$CHROMATOGRAPHY: FLOW_RATE add 100 uL/min
AC$CHROMATOGRAPHY: RETENTION_TIME 20.36 min (in paper: 20.9 min)
AC$CHROMATOGRAPHY: SOLVENT A acetonitrile-methanol-water (19:19:2) with 0.1% acetic acid and 0.1% ammonium hydroxide (28%)
AC$CHROMATOGRAPHY: SOLVENT B 2-propanol with 0.1% acetic acid and 0.1% ammonium hydroxide (28%)
MS$FOCUSED_ION: PRECURSOR_M/Z 808.51
MS$FOCUSED_ION: PRECURSOR_TYPE [M-H]-
MS$DATA_PROCESSING: WHOLE Xcalibur ver-2.0
PK$SPLASH: splash10-00di-0010100900-67150e12c215cee53f26
PK$ANNOTATION: m/z num type mass error(ppm) formula
  283.08 1 [fa(18:0)-H]- 283.2637053677 -648 C18H35O2-
  301.12 1 [fa(20:5)-H]- 301.2167551751 -320 C20H29O2-
  419.06 1 [lyso_PS(18:0,-)-H2O]- 419.2562505266 -467 C21H40O6P-
  437.09 2 [lyso_PS(-,20:5)-H2O]- 437.209300334 -272 C23H34O6P-
  437.09 2 [lyso_PS(18:0,-)]- 437.2668152129 -403 C21H42O7P-
PK$NUM_PEAK: 19
PK$PEAK: m/z int. rel.int.
  257.67 21.3 25
  283.08 78.9 91
  284.30 11.6 13
  301.12 9.9 11
  304.98 21.8 25
  313.03 6.6 8
  327.91 8.3 10
  391.12 27.4 32
  408.85 4.3 5
  418.10 12.2 14
  419.06 109.8 127
  437.09 47.3 55
  438.38 23.8 27
  439.21 6.0 7
  451.34 7.7 9
  465.01 6.0 7
  721.08 865.9 999
  722.27 120.9 139
  724.83 17.4 20
//
