ACCESSION: MSBNK-Chubu_Univ-UT001358
RECORD_TITLE: Phosphatidylethanolamine 16:0-18:1; LC-ESI-ITFT; MS2; [M-H]-; RT: 26.82; Exp: 1
DATE: 2016.01.19 (Created 2010.05.07, modified 2011.08.03)
AUTHORS: Taguchi R, Graduate School of Medicine, The University of Tokyo
LICENSE: CC BY-NC-SA
PUBLICATION: Taguchi, R.; Ishikawa, M. Precise and Global Identification of Phospholipid Molecular Species by an Orbitrap Mass Spectrometer and Automated Search Engine Lipid Search. Journal of Chromatography A 2010, 1217 (25), 4229–39. DOI:10.1016/j.chroma.2010.04.034
CH$NAME: Phosphatidylethanolamine 16:0-18:1
CH$COMPOUND_CLASS: Natural Product; Glycerophospholipids; Glycerophosphoethanolamines; Diacylglycerophosphoethanolamines
CH$FORMULA: C39H76NO8P
CH$EXACT_MASS: 717.53085
CH$SMILES: C(CCCCCCCCC=CCCC(=O)OC(COC(CCCCCCCCCCCCCCC)=O)COP(OCCN)(O)=O)CCCC
CH$IUPAC: InChI=1S/C39H76NO8P/c1-3-5-7-9-11-13-15-17-18-20-22-24-26-28-30-32-39(42)48-37(36-47-49(43,44)46-34-33-40)35-45-38(41)31-29-27-25-23-21-19-16-14-12-10-8-6-4-2/h26,28,37H,3-25,27,29-36,40H2,1-2H3,(H,43,44)/b28-26-
CH$LINK: INCHIKEY RECBGBLFDMTQRS-SGEDCAFJSA-N
SP$SCIENTIFIC_NAME: Mus musculus
SP$LINEAGE: cellular organisms; Eukaryota; Fungi/Metazoa group; Metazoa; Eumetazoa; Bilateria; Coelomata; Deuterostomia; Chordata; Craniata; Vertebrata; Gnathostomata; Teleostomi; Euteleostomi; Sarcopterygii; Tetrapoda; Amniota; Mammalia; Theria; Eutheria; Euarchontoglires; Glires; Rodentia; Sciurognathi; Muroidea; Muridae; Murinae; Mus
SP$LINK: NCBI-TAXONOMY 10090
SP$SAMPLE: brain
AC$INSTRUMENT: LC-10ADVPmicro HPLC, Shimadzu; LTQ Orbitrap, Thermo Scientific
AC$INSTRUMENT_TYPE: LC-ESI-ITFT
AC$MASS_SPECTROMETRY: MS_TYPE MS2
AC$MASS_SPECTROMETRY: ION_MODE NEGATIVE
AC$MASS_SPECTROMETRY: COLLISION_ENERGY 30%
AC$MASS_SPECTROMETRY: ION_SPRAY_VOLTAGE 3500 V
AC$MASS_SPECTROMETRY: IONIZATION ESI
AC$CHROMATOGRAPHY: COLUMN_NAME Develosil C30, Nomura Chemical
AC$CHROMATOGRAPHY: FLOW_GRADIENT  add 95/5 at 0 min, 70/30 at 40 min, 50/50 at 41 min, 50/50 at 90 min
AC$CHROMATOGRAPHY: FLOW_RATE  add 100 uL/min
AC$CHROMATOGRAPHY: RETENTION_TIME 26.63 min (in paper: 26.6 min)
AC$CHROMATOGRAPHY: SOLVENT A acetonitrile-methanol-water (19:19:2) with 0.1% acetic acid and 0.1% ammonium hydroxide (28%)
AC$CHROMATOGRAPHY: SOLVENT B 2-propanol with 0.1% acetic acid and 0.1% ammonium hydroxide (28%)
MS$FOCUSED_ION: PRECURSOR_M/Z 716.52
MS$FOCUSED_ION: PRECURSOR_TYPE [M-H]-
MS$DATA_PROCESSING: WHOLE Xcalibur ver-2.0
PK$SPLASH: splash10-001i-0090100000-e1eed88e32e9b0459130
PK$ANNOTATION: m/z num type mass error(ppm) formula
  237.32 1 [fa(18:1)-H-CO2]- 237.2582260593 260 C17H33-
  255.10 1 [fa(16:0)-H]- 255.2324052393 -518 C16H31O2-
  281.09 1 [fa(18:1)-H]- 281.2480553035 -561 C18H33O2-
  434.09 2 [lyso_PE(-,18:1)-CO2]- 434.3035350702 -491 C22H45NO5P-
  434.09 2 [lyso_PE(16:0,-)-H2O]- 434.2671495639 -407 C21H41NO6P-
  452.12 1 [lyso_PE(16:0,-)]- 452.2777142502 -348 C21H43NO7P-
  460.11 1 [lyso_PE(-,18:1)-H2O]- 460.2827996281 -374 C23H43NO6P-
  478.11 1 [lyso_PE(-,18:1)]- 478.2933643144 -382 C23H45NO7P-
  716.63 1 [PE(16:0,18:1)-H]- 716.5230298995 149 C39H75NO8P-
PK$NUM_PEAK: 16
PK$PEAK: m/z int. rel.int.
  237.32 11.6 1
  255.10 10783.0 398
  256.19 120.5 4
  274.90 37.5 1
  281.09 27069.0 999
  282.31 234.3 9
  340.59 37.2 1
  354.77 32.0 1
  390.97 26.9 1
  417.21 14.4 1
  434.09 244.2 9
  452.12 3032.5 112
  453.18 116.8 4
  460.11 417.5 15
  478.11 997.7 37
  716.63 29.0 1
//
