ACCESSION: MSBNK-Chubu_Univ-UT002483
RECORD_TITLE: Phosphatidylcholine 16:0-16:0; LC-ESI-ITFT; MS2; [M+CH3COO]-; RT: 26.91; Exp: 3
DATE: 2016.01.19 (Created 2010.05.07, modified 2011.08.03)
AUTHORS: Taguchi R, Graduate School of Medicine, The University of Tokyo
LICENSE: CC BY-NC-SA
PUBLICATION: Taguchi, R.; Ishikawa, M. Precise and Global Identification of Phospholipid Molecular Species by an Orbitrap Mass Spectrometer and Automated Search Engine Lipid Search. Journal of Chromatography A 2010, 1217 (25), 4229–39. DOI:10.1016/j.chroma.2010.04.034
CH$NAME: Phosphatidylcholine 16:0-16:0
CH$COMPOUND_CLASS: Natural Product; Glycerophospholipids; Glycerophosphocholines; Diacylglycerophosphocholines
CH$FORMULA: C40H80NO8P
CH$EXACT_MASS: 733.56216
CH$SMILES: C(CCCCCCCCC)CCCCCC(=O)OCC(COP(OCC[N+1](C)(C)C)([O-1])=O)OC(CCCCCCCCCCCCCCC)=O
CH$IUPAC: InChI=1S/C40H80NO8P/c1-6-8-10-12-14-16-18-20-22-24-26-28-30-32-39(42)46-36-38(37-48-50(44,45)47-35-34-41(3,4)5)49-40(43)33-31-29-27-25-23-21-19-17-15-13-11-9-7-2/h38H,6-37H2,1-5H3
CH$LINK: CAS 2644-64-6
CH$LINK: COMPTOX DTXSID50910226
CH$LINK: INCHIKEY KILNVBDSWZSGLL-UHFFFAOYSA-N
CH$LINK: LIPIDBANK PGP2015
CH$LINK: PUBCHEM CID:6138
SP$SCIENTIFIC_NAME: Mus musculus
SP$LINEAGE: cellular organisms; Eukaryota; Fungi/Metazoa group; Metazoa; Eumetazoa; Bilateria; Coelomata; Deuterostomia; Chordata; Craniata; Vertebrata; Gnathostomata; Teleostomi; Euteleostomi; Sarcopterygii; Tetrapoda; Amniota; Mammalia; Theria; Eutheria; Euarchontoglires; Glires; Rodentia; Sciurognathi; Muroidea; Muridae; Murinae; Mus
SP$LINK: NCBI-TAXONOMY 10090
SP$SAMPLE: liver
AC$INSTRUMENT: LC-10ADVPmicro HPLC, Shimadzu; LTQ Orbitrap, Thermo Scientific
AC$INSTRUMENT_TYPE: LC-ESI-ITFT
AC$MASS_SPECTROMETRY: MS_TYPE MS2
AC$MASS_SPECTROMETRY: ION_MODE NEGATIVE
AC$MASS_SPECTROMETRY: COLLISION_ENERGY 30%
AC$MASS_SPECTROMETRY: ION_SPRAY_VOLTAGE 3500 V
AC$MASS_SPECTROMETRY: IONIZATION ESI
AC$CHROMATOGRAPHY: COLUMN_NAME Develosil C30, Nomura Chemical
AC$CHROMATOGRAPHY: FLOW_GRADIENT  add 95/5 at 0 min, 70/30 at 40 min, 50/50 at 41 min, 50/50 at 90 min
AC$CHROMATOGRAPHY: FLOW_RATE  add 100 uL/min
AC$CHROMATOGRAPHY: RETENTION_TIME 27.00 min (in paper: 26.9 min)
AC$CHROMATOGRAPHY: SOLVENT A acetonitrile-methanol-water (19:19:2) with 0.1% acetic acid and 0.1% ammonium hydroxide (28%)
AC$CHROMATOGRAPHY: SOLVENT B 2-propanol with 0.1% acetic acid and 0.1% ammonium hydroxide (28%)
MS$FOCUSED_ION: PRECURSOR_M/Z 792.57
MS$FOCUSED_ION: PRECURSOR_TYPE [M+CH3COO]-
MS$DATA_PROCESSING: WHOLE Xcalibur ver-2.0
PK$SPLASH: splash10-014i-0000000900-873da1ce487aef11596f
PK$ANNOTATION: m/z num type mass error(ppm) formula
  255.18 1 [fa(16:0)-H]- 255.2324052393 -204 C16H31O2-
  480.28 2 [lyso_PC(-,16:0)]- 480.3090143786 -59 C23H47NO7P-
  480.28 2 [lyso_PC(16:0,-)]- 480.3090143786 -59 C23H47NO7P-
PK$NUM_PEAK: 19
PK$PEAK: m/z int. rel.int.
  255.18 414.1 8
  283.14 213.2 4
  284.69 7.0 1
  303.09 96.4 2
  309.07 35.9 1
  310.28 13.9 1
  311.29 10.4 1
  326.66 27.8 1
  327.65 37.1 1
  329.19 609.1 12
  330.22 15.1 1
  480.28 27.8 1
  481.29 31.3 1
  506.30 37.1 1
  507.90 17.4 1
  647.27 19.7 1
  718.14 49248.8 999
  718.84 101.7 2
  733.14 341.0 7
//
