ACCESSION: MSBNK-Chubu_Univ-UT001425
RECORD_TITLE: Phosphatidylethanolamine alkenyl 18:0-22:4; LC-ESI-ITFT; MS2; [M-H]-; RT: 36.01; Exp: 1
DATE: 2016.01.19 (Created 2010.05.07, modified 2011.08.03)
AUTHORS: Taguchi R, Graduate School of Medicine, The University of Tokyo
LICENSE: CC BY-NC-SA
PUBLICATION: Taguchi, R.; Ishikawa, M. Precise and Global Identification of Phospholipid Molecular Species by an Orbitrap Mass Spectrometer and Automated Search Engine Lipid Search. Journal of Chromatography A 2010, 1217 (25), 4229–39. DOI:10.1016/j.chroma.2010.04.034
CH$NAME: Phosphatidylethanolamine alkenyl 18:0-22:4
CH$COMPOUND_CLASS: Natural Product; Glycerophospholipids; Glycerophosphoethanolamines; 1Z-alkenyl,2-acylglycerophosphoethanolamines
CH$FORMULA: C45H82NO7P
CH$EXACT_MASS: 779.58289
CH$SMILES: C(CCCCCCCCCCC)CCCCC=COCC(COP(OCCN)(O)=O)OC(CCC=CCC=CCC=CCC=CCCCCCCCC)=O
CH$IUPAC: InChI=1S/C45H82NO7P/c1-3-5-7-9-11-13-15-17-19-21-22-23-24-26-28-30-32-34-36-38-45(47)53-44(43-52-54(48,49)51-41-39-46)42-50-40-37-35-33-31-29-27-25-20-18-16-14-12-10-8-6-4-2/h17,19,22-23,26,28,32,34,37,40,44H,3-16,18,20-21,24-25,27,29-31,33,35-36,38-39,41-43,46H2,1-2H3,(H,48,49)/b19-17-,23-22-,28-26-,34-32-,40-37+
CH$LINK: INCHIKEY GZMXKUALKXYCMM-XSEHFSNESA-N
SP$SCIENTIFIC_NAME: Mus musculus
SP$LINEAGE: cellular organisms; Eukaryota; Fungi/Metazoa group; Metazoa; Eumetazoa; Bilateria; Coelomata; Deuterostomia; Chordata; Craniata; Vertebrata; Gnathostomata; Teleostomi; Euteleostomi; Sarcopterygii; Tetrapoda; Amniota; Mammalia; Theria; Eutheria; Euarchontoglires; Glires; Rodentia; Sciurognathi; Muroidea; Muridae; Murinae; Mus
SP$LINK: NCBI-TAXONOMY 10090
SP$SAMPLE: brain
AC$INSTRUMENT: LC-10ADVPmicro HPLC, Shimadzu; LTQ Orbitrap, Thermo Scientific
AC$INSTRUMENT_TYPE: LC-ESI-ITFT
AC$MASS_SPECTROMETRY: MS_TYPE MS2
AC$MASS_SPECTROMETRY: ION_MODE NEGATIVE
AC$MASS_SPECTROMETRY: COLLISION_ENERGY 30%
AC$MASS_SPECTROMETRY: ION_SPRAY_VOLTAGE 3500 V
AC$MASS_SPECTROMETRY: IONIZATION ESI
AC$CHROMATOGRAPHY: COLUMN_NAME Develosil C30, Nomura Chemical
AC$CHROMATOGRAPHY: FLOW_GRADIENT  add 95/5 at 0 min, 70/30 at 40 min, 50/50 at 41 min, 50/50 at 90 min
AC$CHROMATOGRAPHY: FLOW_RATE  add 100 uL/min
AC$CHROMATOGRAPHY: RETENTION_TIME 36.02 min (in paper: 35.7 min)
AC$CHROMATOGRAPHY: SOLVENT A acetonitrile-methanol-water (19:19:2) with 0.1% acetic acid and 0.1% ammonium hydroxide (28%)
AC$CHROMATOGRAPHY: SOLVENT B 2-propanol with 0.1% acetic acid and 0.1% ammonium hydroxide (28%)
MS$FOCUSED_ION: PRECURSOR_M/Z 778.57
MS$FOCUSED_ION: PRECURSOR_TYPE [M-H]-
MS$DATA_PROCESSING: WHOLE Xcalibur ver-2.0
PK$SPLASH: splash10-001i-0009300000-5c05ebc03dfbfffba041
PK$ANNOTATION: m/z num type mass error(ppm) formula
  267.31 1 [fa(alkenyl-18:0)-H]- 267.2687907456 154 C18H35O-
  287.15 1 [fa(22:4)-H-CO2]- 287.2738761235 -430 C21H35-
  331.13 1 [fa(22:4)-H]- 331.2637053677 -403 C22H35O2-
  446.14 1 [lyso_PE(alkenyl-18:0,-)-H2O]- 446.3035350702 -365 C23H45NO5P-
  464.14 1 [lyso_PE(alkenyl-18:0,-)]- 464.3140997565 -374 C23H47NO6P-
  510.59 1 [lyso_PE(-,22:4)-H2O]- 510.2984496923 571 C27H45NO6P-
PK$NUM_PEAK: 25
PK$PEAK: m/z int. rel.int.
  230.82 38.4 1
  233.17 286.7 4
  245.21 56.4 1
  247.33 30.6 1
  260.16 63.4 1
  265.13 92.6 1
  267.31 58.5 1
  268.17 17.7 1
  275.11 30.6 1
  287.15 3693.0 50
  288.04 231.6 3
  313.25 87.3 1
  329.12 304.3 4
  331.13 74323.0 999
  332.16 7989.6 107
  342.63 35.7 1
  350.31 87.5 1
  403.21 482.1 6
  446.14 3601.0 48
  447.26 507.1 7
  464.14 24733.4 332
  465.27 2364.8 32
  509.80 144.9 2
  510.59 93.3 1
  704.39 86.3 1
//
