ACCESSION: MSBNK-Chubu_Univ-UT001069
RECORD_TITLE: Phosphatidylcholine alkyl 16:0-16:0; LC-ESI-ITFT; MS2; [M+CH3COO]-; RT: 32.94; Exp: 1
DATE: 2016.01.19 (Created 2010.05.07, modified 2011.08.03)
AUTHORS: Taguchi R, Graduate School of Medicine, The University of Tokyo
LICENSE: CC BY-NC-SA
PUBLICATION: Taguchi, R.; Ishikawa, M. Precise and Global Identification of Phospholipid Molecular Species by an Orbitrap Mass Spectrometer and Automated Search Engine Lipid Search. Journal of Chromatography A 2010, 1217 (25), 4229–39. DOI:10.1016/j.chroma.2010.04.034
CH$NAME: Phosphatidylcholine alkyl 16:0-16:0
CH$COMPOUND_CLASS: Natural Product; Glycerophospholipids; Glycerophosphocholines; 1-alkyl,2-acylglycerophosphocholines
CH$FORMULA: C40H82NO7P
CH$EXACT_MASS: 719.58289
CH$SMILES: C(CCCCCCCCCCCCCC)COCC(OC(CCCCCCCCCCCCCCC)=O)COP([O-1])(=O)OCC[N+1](C)(C)C
CH$IUPAC: InChI=1S/C40H82NO7P/c1-6-8-10-12-14-16-18-20-22-24-26-28-30-32-35-45-37-39(38-47-49(43,44)46-36-34-41(3,4)5)48-40(42)33-31-29-27-25-23-21-19-17-15-13-11-9-7-2/h39H,6-38H2,1-5H3
CH$LINK: CAS 64710-48-1
CH$LINK: INCHIKEY WOTHHEHCEYHCFE-UHFFFAOYSA-N
CH$LINK: PUBCHEM CID:10169139
SP$SCIENTIFIC_NAME: Mus musculus
SP$LINEAGE: cellular organisms; Eukaryota; Fungi/Metazoa group; Metazoa; Eumetazoa; Bilateria; Coelomata; Deuterostomia; Chordata; Craniata; Vertebrata; Gnathostomata; Teleostomi; Euteleostomi; Sarcopterygii; Tetrapoda; Amniota; Mammalia; Theria; Eutheria; Euarchontoglires; Glires; Rodentia; Sciurognathi; Muroidea; Muridae; Murinae; Mus
SP$LINK: NCBI-TAXONOMY 10090
SP$SAMPLE: liver
AC$INSTRUMENT: LC-10ADVPmicro HPLC, Shimadzu; LTQ Orbitrap, Thermo Scientific
AC$INSTRUMENT_TYPE: LC-ESI-ITFT
AC$MASS_SPECTROMETRY: MS_TYPE MS2
AC$MASS_SPECTROMETRY: ION_MODE NEGATIVE
AC$MASS_SPECTROMETRY: COLLISION_ENERGY 30%
AC$MASS_SPECTROMETRY: ION_SPRAY_VOLTAGE 3500 V
AC$MASS_SPECTROMETRY: IONIZATION ESI
AC$CHROMATOGRAPHY: COLUMN_NAME Develosil C30, Nomura Chemical
AC$CHROMATOGRAPHY: FLOW_GRADIENT  add 95/5 at 0 min, 70/30 at 40 min, 50/50 at 41 min, 50/50 at 90 min
AC$CHROMATOGRAPHY: FLOW_RATE  add 100 uL/min
AC$CHROMATOGRAPHY: RETENTION_TIME 33.02 min (in paper: 32.9 min)
AC$CHROMATOGRAPHY: SOLVENT A acetonitrile-methanol-water (19:19:2) with 0.1% acetic acid and 0.1% ammonium hydroxide (28%)
AC$CHROMATOGRAPHY: SOLVENT B 2-propanol with 0.1% acetic acid and 0.1% ammonium hydroxide (28%)
MS$FOCUSED_ION: PRECURSOR_M/Z 778.60
MS$FOCUSED_ION: PRECURSOR_TYPE [M+CH3COO]-
MS$DATA_PROCESSING: WHOLE Xcalibur ver-2.0
PK$SPLASH: splash10-0udi-0001100900-6f80db721c64b0104047
PK$ANNOTATION: m/z num type mass error(ppm) formula
  448.31 1 [lyso_PC(alkyl-16:0,-)-H2O]- 448.3191851344 -19 C23H47NO5P-
  466.19 1 [lyso_PC(alkyl-16:0,-)]- 466.3297498207 -299 C23H49NO6P-
PK$NUM_PEAK: 20
PK$PEAK: m/z int. rel.int.
  285.24 50.3 17
  286.23 7.4 3
  329.08 395.9 136
  330.17 122.7 42
  331.47 12.5 4
  340.96 8.0 3
  359.34 23.2 8
  406.16 11.9 4
  446.99 18.1 6
  448.31 54.2 19
  466.19 278.2 95
  467.20 52.0 18
  649.37 13.1 4
  694.83 6.3 2
  695.64 23.3 8
  696.86 13.1 4
  704.20 2918.3 999
  704.95 27.0 9
  760.08 14.4 5
  761.19 6.8 2
//
