ACCESSION: MSBNK-Chubu_Univ-UT002083
RECORD_TITLE: Phosphatidylcholine lyso 14:0; LC-ESI-ITFT; MS2; [M+CH3COO]-; RT: 1.93; Exp: 2
DATE: 2016.01.19 (Created 2010.05.07, modified 2011.08.03)
AUTHORS: Taguchi R, Graduate School of Medicine, The University of Tokyo
LICENSE: CC BY-NC-SA
PUBLICATION: Taguchi, R.; Ishikawa, M. Precise and Global Identification of Phospholipid Molecular Species by an Orbitrap Mass Spectrometer and Automated Search Engine Lipid Search. Journal of Chromatography A 2010, 1217 (25), 4229–39. DOI:10.1016/j.chroma.2010.04.034
CH$NAME: Phosphatidylcholine lyso 14:0
CH$COMPOUND_CLASS: Natural Product; Glycerophospholipids; Glycerophosphocholines; Monoacylglycerophosphocholines
CH$FORMULA: C22H46NO7P
CH$EXACT_MASS: 467.30119
CH$SMILES: CCCCCCCCCCCCCC(=O)OC(CO)COP([O-1])(=O)OCC[N+1](C)(C)C
CH$IUPAC: InChI=1S/C22H46NO7P/c1-5-6-7-8-9-10-11-12-13-14-15-16-22(25)30-21(19-24)20-29-31(26,27)28-18-17-23(2,3)4/h21,24H,5-20H2,1-4H3
CH$LINK: CAS 13699-45-1
CH$LINK: INCHIKEY IGZPHNNYPPAPLA-UHFFFAOYSA-N
CH$LINK: PUBCHEM CID:22472194
SP$SCIENTIFIC_NAME: Mus musculus
SP$LINEAGE: cellular organisms; Eukaryota; Fungi/Metazoa group; Metazoa; Eumetazoa; Bilateria; Coelomata; Deuterostomia; Chordata; Craniata; Vertebrata; Gnathostomata; Teleostomi; Euteleostomi; Sarcopterygii; Tetrapoda; Amniota; Mammalia; Theria; Eutheria; Euarchontoglires; Glires; Rodentia; Sciurognathi; Muroidea; Muridae; Murinae; Mus
SP$LINK: NCBI-TAXONOMY 10090
SP$SAMPLE: brain
AC$INSTRUMENT: LC-10ADVPmicro HPLC, Shimadzu; LTQ Orbitrap, Thermo Scientific
AC$INSTRUMENT_TYPE: LC-ESI-ITFT
AC$MASS_SPECTROMETRY: MS_TYPE MS2
AC$MASS_SPECTROMETRY: ION_MODE NEGATIVE
AC$MASS_SPECTROMETRY: COLLISION_ENERGY 30%
AC$MASS_SPECTROMETRY: ION_SPRAY_VOLTAGE 3500 V
AC$MASS_SPECTROMETRY: IONIZATION ESI
AC$CHROMATOGRAPHY: COLUMN_NAME Develosil C30, Nomura Chemical
AC$CHROMATOGRAPHY: FLOW_GRADIENT  add 95/5 at 0 min, 70/30 at 40 min, 50/50 at 41 min, 50/50 at 90 min
AC$CHROMATOGRAPHY: FLOW_RATE  add 100 uL/min
AC$CHROMATOGRAPHY: RETENTION_TIME 1.93 min (in paper: 1.9 min)
AC$CHROMATOGRAPHY: SOLVENT A acetonitrile-methanol-water (19:19:2) with 0.1% acetic acid and 0.1% ammonium hydroxide (28%)
AC$CHROMATOGRAPHY: SOLVENT B 2-propanol with 0.1% acetic acid and 0.1% ammonium hydroxide (28%)
MS$FOCUSED_ION: PRECURSOR_M/Z 526.31
MS$FOCUSED_ION: PRECURSOR_TYPE [M+CH3COO]-
MS$DATA_PROCESSING: WHOLE Xcalibur ver-2.0
PK$SPLASH: splash10-0udi-0013900000-2a91a2511b8f55e2d9ca
PK$ANNOTATION: m/z num type mass error(ppm) formula
  452.04 1 [PC(lyso,14:0)-CH3]- 452.2777142502 -525 C21H43NO7P-
PK$NUM_PEAK: 26
PK$PEAK: m/z int. rel.int.
  177.64 13.2 4
  191.17 40.2 13
  192.16 30.7 10
  195.87 17.5 6
  213.70 5.6 2
  215.04 6.7 2
  229.54 15.8 5
  249.96 19.7 6
  283.21 107.3 34
  284.19 74.1 23
  285.10 154.6 49
  300.94 16.7 5
  302.89 29.9 9
  327.09 97.9 31
  328.14 224.3 71
  329.09 684.6 216
  330.26 77.3 24
  345.02 23.5 7
  428.28 9.4 3
  452.04 3173.0 999
  452.67 5.2 2
  454.43 6.6 2
  466.12 41.3 13
  467.14 21.5 7
  467.98 8.8 3
  470.75 13.2 4
//
