ACCESSION: MSBNK-Chubu_Univ-UT002153
RECORD_TITLE: Phosphatidylethanolamine alkenyl 17:0-20:4; LC-ESI-ITFT; MS2; [M-H]-; RT: 26.49; Exp: 2
DATE: 2016.01.19 (Created 2010.05.07, modified 2011.08.03)
AUTHORS: Taguchi R, Graduate School of Medicine, The University of Tokyo
LICENSE: CC BY-NC-SA
PUBLICATION: Taguchi, R.; Ishikawa, M. Precise and Global Identification of Phospholipid Molecular Species by an Orbitrap Mass Spectrometer and Automated Search Engine Lipid Search. Journal of Chromatography A 2010, 1217 (25), 4229–39. DOI:10.1016/j.chroma.2010.04.034
CH$NAME: Phosphatidylethanolamine alkenyl 17:0-20:4
CH$COMPOUND_CLASS: Natural Product; Glycerophospholipids; Glycerophosphoethanolamines; 1Z-alkenyl,2-acylglycerophosphoethanolamines
CH$FORMULA: C42H76NO7P
CH$EXACT_MASS: 737.53594
CH$SMILES: NCCOP(O)(=O)OCC(COC=CCCCCCCCCCCCCCCC)OC(=O)CCC=CCC=CCC=CCC=CCCCCCC
CH$IUPAC: InChI=1S/C42H76NO7P/c1-3-5-7-9-11-13-15-17-19-20-21-23-25-27-29-31-33-35-42(44)50-41(40-49-51(45,46)48-38-36-43)39-47-37-34-32-30-28-26-24-22-18-16-14-12-10-8-6-4-2/h13,15,19-20,23,25,29,31,34,37,41H,3-12,14,16-18,21-22,24,26-28,30,32-33,35-36,38-40,43H2,1-2H3,(H,45,46)/b15-13-,20-19-,25-23-,31-29-,37-34+
CH$LINK: INCHIKEY QTIWXGKYYKPQFH-FKQGHMTJSA-N
SP$SCIENTIFIC_NAME: Mus musculus
SP$LINEAGE: cellular organisms; Eukaryota; Fungi/Metazoa group; Metazoa; Eumetazoa; Bilateria; Coelomata; Deuterostomia; Chordata; Craniata; Vertebrata; Gnathostomata; Teleostomi; Euteleostomi; Sarcopterygii; Tetrapoda; Amniota; Mammalia; Theria; Eutheria; Euarchontoglires; Glires; Rodentia; Sciurognathi; Muroidea; Muridae; Murinae; Mus
SP$LINK: NCBI-TAXONOMY 10090
SP$SAMPLE: brain
AC$INSTRUMENT: LC-10ADVPmicro HPLC, Shimadzu; LTQ Orbitrap, Thermo Scientific
AC$INSTRUMENT_TYPE: LC-ESI-ITFT
AC$MASS_SPECTROMETRY: MS_TYPE MS2
AC$MASS_SPECTROMETRY: ION_MODE NEGATIVE
AC$MASS_SPECTROMETRY: COLLISION_ENERGY 30%
AC$MASS_SPECTROMETRY: ION_SPRAY_VOLTAGE 3500 V
AC$MASS_SPECTROMETRY: IONIZATION ESI
AC$CHROMATOGRAPHY: COLUMN_NAME Develosil C30, Nomura Chemical
AC$CHROMATOGRAPHY: FLOW_GRADIENT  add 95/5 at 0 min, 70/30 at 40 min, 50/50 at 41 min, 50/50 at 90 min
AC$CHROMATOGRAPHY: FLOW_RATE  add 100 uL/min
AC$CHROMATOGRAPHY: RETENTION_TIME 26.32 min (in paper: 26.5 min)
AC$CHROMATOGRAPHY: SOLVENT A acetonitrile-methanol-water (19:19:2) with 0.1% acetic acid and 0.1% ammonium hydroxide (28%)
AC$CHROMATOGRAPHY: SOLVENT B 2-propanol with 0.1% acetic acid and 0.1% ammonium hydroxide (28%)
MS$FOCUSED_ION: PRECURSOR_M/Z 736.53
MS$FOCUSED_ION: PRECURSOR_TYPE [M-H]-
MS$DATA_PROCESSING: WHOLE Xcalibur ver-2.0
PK$SPLASH: splash10-0udi-0019300000-2d9796697b6bd15aeeef
PK$ANNOTATION: m/z num type mass error(ppm) formula
  258.98 1 [fa(20:4)-H-CO2]- 259.2425759951 -1012 C19H31-
  303.02 1 [fa(20:4)-H]- 303.2324052393 -699 C20H31O2-
  432.06 1 [lyso_PE(alkenyl-17:0,-)-H2O]- 432.287885006 -526 C22H43NO5P-
  450.22 1 [lyso_PE(alkenyl-17:0,-)]- 450.2984496923 -173 C22H45NO6P-
PK$NUM_PEAK: 13
PK$PEAK: m/z int. rel.int.
  258.98 93.1 141
  270.11 6.0 9
  281.24 7.7 12
  284.91 17.4 26
  303.02 661.8 999
  304.22 41.5 63
  349.80 11.3 17
  375.14 5.4 8
  432.06 21.7 33
  433.45 47.5 72
  450.22 222.3 336
  451.31 19.1 29
  637.21 7.1 11
//
