ACCESSION: MSBNK-Chubu_Univ-UT002604
RECORD_TITLE: Phosphatidylethanolamine 18:1-19:0; LC-ESI-ITFT; MS2; [M-H]-; RT: 36.53; Exp: 3
DATE: 2016.01.19 (Created 2010.05.07, modified 2011.08.03)
AUTHORS: Taguchi R, Graduate School of Medicine, The University of Tokyo
LICENSE: CC BY-NC-SA
PUBLICATION: Taguchi, R.; Ishikawa, M. Precise and Global Identification of Phospholipid Molecular Species by an Orbitrap Mass Spectrometer and Automated Search Engine Lipid Search. Journal of Chromatography A 2010, 1217 (25), 4229–39. DOI:10.1016/j.chroma.2010.04.034
CH$NAME: Phosphatidylethanolamine 18:1-19:0
CH$COMPOUND_CLASS: Natural Product; Glycerophospholipids; Glycerophosphoethanolamines; Diacylglycerophosphoethanolamines
CH$FORMULA: C42H82NO8P
CH$EXACT_MASS: 759.57781
CH$SMILES: O(C(CCCCCCCCCCCCCCCCCC)=O)C(COC(CCC=CCCCCCCCCCCCCC)=O)COP(OCCN)(O)=O
CH$IUPAC: InChI=1S/C42H82NO8P/c1-3-5-7-9-11-13-15-17-19-21-23-25-27-29-31-33-35-42(45)51-40(39-50-52(46,47)49-37-36-43)38-48-41(44)34-32-30-28-26-24-22-20-18-16-14-12-10-8-6-4-2/h28,30,40H,3-27,29,31-39,43H2,1-2H3,(H,46,47)/b30-28-
CH$LINK: INCHIKEY VDFCHVPNRGGNPX-HYOGKJQXSA-N
SP$SCIENTIFIC_NAME: Mus musculus
SP$LINEAGE: cellular organisms; Eukaryota; Fungi/Metazoa group; Metazoa; Eumetazoa; Bilateria; Coelomata; Deuterostomia; Chordata; Craniata; Vertebrata; Gnathostomata; Teleostomi; Euteleostomi; Sarcopterygii; Tetrapoda; Amniota; Mammalia; Theria; Eutheria; Euarchontoglires; Glires; Rodentia; Sciurognathi; Muroidea; Muridae; Murinae; Mus
SP$LINK: NCBI-TAXONOMY 10090
SP$SAMPLE: liver
AC$INSTRUMENT: LC-10ADVPmicro HPLC, Shimadzu; LTQ Orbitrap, Thermo Scientific
AC$INSTRUMENT_TYPE: LC-ESI-ITFT
AC$MASS_SPECTROMETRY: MS_TYPE MS2
AC$MASS_SPECTROMETRY: ION_MODE NEGATIVE
AC$MASS_SPECTROMETRY: COLLISION_ENERGY 30%
AC$MASS_SPECTROMETRY: ION_SPRAY_VOLTAGE 3500 V
AC$MASS_SPECTROMETRY: IONIZATION ESI
AC$CHROMATOGRAPHY: COLUMN_NAME Develosil C30, Nomura Chemical
AC$CHROMATOGRAPHY: FLOW_GRADIENT  add 95/5 at 0 min, 70/30 at 40 min, 50/50 at 41 min, 50/50 at 90 min
AC$CHROMATOGRAPHY: FLOW_RATE  add 100 uL/min
AC$CHROMATOGRAPHY: RETENTION_TIME 36.23 min (in paper: 36.5 min)
AC$CHROMATOGRAPHY: SOLVENT A acetonitrile-methanol-water (19:19:2) with 0.1% acetic acid and 0.1% ammonium hydroxide (28%)
AC$CHROMATOGRAPHY: SOLVENT B 2-propanol with 0.1% acetic acid and 0.1% ammonium hydroxide (28%)
MS$FOCUSED_ION: PRECURSOR_M/Z 758.59
MS$FOCUSED_ION: PRECURSOR_TYPE [M-H]-
MS$DATA_PROCESSING: WHOLE Xcalibur ver-2.0
PK$SPLASH: splash10-001j-0090058000-b20d750aa3dee6182fca
PK$ANNOTATION: m/z num type mass error(ppm) formula
  281.14 1 [fa(18:1)-H]- 281.2480553035 -383 C18H33O2-
  297.06 1 [fa(19:0)-H]- 297.2793554319 -737 C19H37O2-
PK$NUM_PEAK: 6
PK$PEAK: m/z int. rel.int.
  281.14 8.8 486
  297.06 18.1 999
  582.76 15.2 839
  614.62 10.3 568
  666.60 10.5 580
  696.68 4.9 270
//
