ACCESSION: MSBNK-Chubu_Univ-UT002683
RECORD_TITLE: Phosphatidylglyceride 18:1-18:2; LC-ESI-ITFT; MS2; [M-H]-; RT: 10.90; Exp: 3
DATE: 2016.01.19 (Created 2010.05.07, modified 2013.05.16)
AUTHORS: Taguchi R, Graduate School of Medicine, The University of Tokyo
LICENSE: CC BY-NC-SA
PUBLICATION: Taguchi, R.; Ishikawa, M. Precise and Global Identification of Phospholipid Molecular Species by an Orbitrap Mass Spectrometer and Automated Search Engine Lipid Search. Journal of Chromatography A 2010, 1217 (25), 4229–39. DOI:10.1016/j.chroma.2010.04.034
CH$NAME: Phosphatidylglyceride 18:1-18:2
CH$COMPOUND_CLASS: Natural Product; Glycerophospholipids; Glycerophosphoglycerols; Diacylglycerophosphoglycerols
CH$FORMULA: C42H77O10P
CH$EXACT_MASS: 772.52544
CH$SMILES: O=C(CCC=CCCCCCCCCCCCCC)OCC(COP(OCC(O)CO)(O)=O)OC(=O)CCC=CCC=CCCCCCCCCCC
CH$IUPAC: InChI=1S/C42H77O10P/c1-3-5-7-9-11-13-15-17-19-21-23-25-27-29-31-33-41(45)49-37-40(38-51-53(47,48)50-36-39(44)35-43)52-42(46)34-32-30-28-26-24-22-20-18-16-14-12-10-8-6-4-2/h22,24,27-30,39-40,43-44H,3-21,23,25-26,31-38H2,1-2H3,(H,47,48)/b24-22-,29-27-,30-28-
CH$LINK: INCHIKEY YNBZQPMSTPSIJD-XBCPOCNBSA-N
SP$SCIENTIFIC_NAME: Mus musculus
SP$LINEAGE: cellular organisms; Eukaryota; Fungi/Metazoa group; Metazoa; Eumetazoa; Bilateria; Coelomata; Deuterostomia; Chordata; Craniata; Vertebrata; Gnathostomata; Teleostomi; Euteleostomi; Sarcopterygii; Tetrapoda; Amniota; Mammalia; Theria; Eutheria; Euarchontoglires; Glires; Rodentia; Sciurognathi; Muroidea; Muridae; Murinae; Mus
SP$LINK: NCBI-TAXONOMY 10090
SP$SAMPLE: liver
AC$INSTRUMENT: LC-10ADVPmicro HPLC, Shimadzu; LTQ Orbitrap, Thermo Scientific
AC$INSTRUMENT_TYPE: LC-ESI-ITFT
AC$MASS_SPECTROMETRY: MS_TYPE MS2
AC$MASS_SPECTROMETRY: ION_MODE NEGATIVE
AC$MASS_SPECTROMETRY: COLLISION_ENERGY 30%
AC$MASS_SPECTROMETRY: ION_SPRAY_VOLTAGE 3500 V
AC$MASS_SPECTROMETRY: IONIZATION ESI
AC$CHROMATOGRAPHY: COLUMN_NAME Develosil C30, Nomura Chemical
AC$CHROMATOGRAPHY: FLOW_GRADIENT add 95/5 at 0 min, 70/30 at 40 min, 50/50 at 41 min, 50/50 at 90 min
AC$CHROMATOGRAPHY: FLOW_RATE add 100 uL/min
AC$CHROMATOGRAPHY: RETENTION_TIME 10.67 min (in paper: 10.9 min)
AC$CHROMATOGRAPHY: SOLVENT A acetonitrile-methanol-water (19:19:2) with 0.1% acetic acid and 0.1% ammonium hydroxide (28%)
AC$CHROMATOGRAPHY: SOLVENT B 2-propanol with 0.1% acetic acid and 0.1% ammonium hydroxide (28%)
MS$FOCUSED_ION: PRECURSOR_M/Z 771.52
MS$FOCUSED_ION: PRECURSOR_TYPE [M-H]-
MS$DATA_PROCESSING: WHOLE Xcalibur ver-2.0
PK$SPLASH: splash10-0059-0090000000-bcaeea776eaa81a4b58a
PK$ANNOTATION: m/z num type mass error(ppm) formula
  279.15 1 [fa(18:2)-H]- 279.2324052393 -294 C18H31O2-
  281.24 1 [fa(18:1)-H]- 281.2480553035 -28 C18H33O2-
  489.06 1 [lyso_PG(-,18:2)-H2O]- 489.261729835 -411 C24H42O8P-
  491.22 1 [lyso_PG(18:1,-)-H2O]- 491.2773798992 -116 C24H44O8P-
PK$NUM_PEAK: 13
PK$PEAK: m/z int. rel.int.
  261.21 10.5 33
  279.15 320.4 999
  280.00 14.6 46
  281.24 204.6 638
  282.00 29.8 93
  399.82 6.1 19
  489.06 7.7 24
  491.22 14.5 45
  508.77 16.0 50
  593.74 6.7 21
  613.38 13.7 43
  623.08 13.7 43
  711.00 19.4 60
//
