ACCESSION: MSBNK-Chubu_Univ-UT002539
RECORD_TITLE: Phosphatidylcholine alkenyl 18:0-20:4; LC-ESI-ITFT; MS2; [M+CH3COO]-; RT: 29.15; Exp: 3
DATE: 2016.01.19 (Created 2010.05.07, modified 2011.08.03)
AUTHORS: Taguchi R, Graduate School of Medicine, The University of Tokyo
LICENSE: CC BY-NC-SA
PUBLICATION: Taguchi, R.; Ishikawa, M. Precise and Global Identification of Phospholipid Molecular Species by an Orbitrap Mass Spectrometer and Automated Search Engine Lipid Search. Journal of Chromatography A 2010, 1217 (25), 4229–39. DOI:10.1016/j.chroma.2010.04.034
CH$NAME: Phosphatidylcholine alkenyl 18:0-20:4
CH$COMPOUND_CLASS: Natural Product; Glycerophospholipids; Glycerophosphocholines; 1Z-alkenyl,2-acylglycerophosphocholines
CH$FORMULA: C46H84NO7P
CH$EXACT_MASS: 793.59854
CH$SMILES: C(C=CCC=CCC=CCC=CCCCCCC)CC(OC(COC=CCCCCCCCCCCCCCCCC)COP(OCC[N+1](C)(C)C)([O-1])=O)=O
CH$IUPAC: InChI=1S/C46H84NO7P/c1-6-8-10-12-14-16-18-20-22-24-25-27-29-31-33-35-37-39-46(48)54-45(44-53-55(49,50)52-42-40-47(3,4)5)43-51-41-38-36-34-32-30-28-26-23-21-19-17-15-13-11-9-7-2/h16,18,22,24,27,29,33,35,38,41,45H,6-15,17,19-21,23,25-26,28,30-32,34,36-37,39-40,42-44H2,1-5H3/b18-16-,24-22-,29-27-,35-33-,41-38+
CH$LINK: INCHIKEY HCYYHDMAKLYNDP-AYYWLCDQSA-N
SP$SCIENTIFIC_NAME: Mus musculus
SP$LINEAGE: cellular organisms; Eukaryota; Fungi/Metazoa group; Metazoa; Eumetazoa; Bilateria; Coelomata; Deuterostomia; Chordata; Craniata; Vertebrata; Gnathostomata; Teleostomi; Euteleostomi; Sarcopterygii; Tetrapoda; Amniota; Mammalia; Theria; Eutheria; Euarchontoglires; Glires; Rodentia; Sciurognathi; Muroidea; Muridae; Murinae; Mus
SP$LINK: NCBI-TAXONOMY 10090
SP$SAMPLE: liver
AC$INSTRUMENT: LC-10ADVPmicro HPLC, Shimadzu; LTQ Orbitrap, Thermo Scientific
AC$INSTRUMENT_TYPE: LC-ESI-ITFT
AC$MASS_SPECTROMETRY: MS_TYPE MS2
AC$MASS_SPECTROMETRY: ION_MODE NEGATIVE
AC$MASS_SPECTROMETRY: COLLISION_ENERGY 30%
AC$MASS_SPECTROMETRY: ION_SPRAY_VOLTAGE 3500 V
AC$MASS_SPECTROMETRY: IONIZATION ESI
AC$CHROMATOGRAPHY: COLUMN_NAME Develosil C30, Nomura Chemical
AC$CHROMATOGRAPHY: FLOW_GRADIENT  add 95/5 at 0 min, 70/30 at 40 min, 50/50 at 41 min, 50/50 at 90 min
AC$CHROMATOGRAPHY: FLOW_RATE  add 100 uL/min
AC$CHROMATOGRAPHY: RETENTION_TIME 29.27 min (in paper: 29.2 min)
AC$CHROMATOGRAPHY: SOLVENT A acetonitrile-methanol-water (19:19:2) with 0.1% acetic acid and 0.1% ammonium hydroxide (28%)
AC$CHROMATOGRAPHY: SOLVENT B 2-propanol with 0.1% acetic acid and 0.1% ammonium hydroxide (28%)
MS$FOCUSED_ION: PRECURSOR_M/Z 852.61
MS$FOCUSED_ION: PRECURSOR_TYPE [M+CH3COO]-
MS$DATA_PROCESSING: WHOLE Xcalibur ver-2.0
PK$SPLASH: splash10-004i-0000000900-ca506d5a7f58134ef554
PK$NUM_PEAK: 9
PK$PEAK: m/z int. rel.int.
  329.09 11.6 32
  441.07 6.3 18
  444.87 7.4 21
  730.83 8.9 25
  742.10 11.4 32
  743.19 12.5 35
  771.07 18.7 52
  778.23 359.2 999
  838.32 5.1 14
//
