ACCESSION: MSBNK-Chubu_Univ-UT002379
RECORD_TITLE: Sphingomyelin d18:1-C21:0; LC-ESI-ITFT; MS3; [M+CH3COO]-/[M-CH3]-; RT: 42.49; Exp: 2
DATE: 2016.01.19 (Created 2010.05.07, modified 2011.08.03)
AUTHORS: Taguchi R, Graduate School of Medicine, The University of Tokyo
LICENSE: CC BY-NC-SA
PUBLICATION: Taguchi, R.; Ishikawa, M. Precise and Global Identification of Phospholipid Molecular Species by an Orbitrap Mass Spectrometer and Automated Search Engine Lipid Search. Journal of Chromatography A 2010, 1217 (25), 4229–39. DOI:10.1016/j.chroma.2010.04.034
CH$NAME: Sphingomyelin d18:1-C21:0
CH$COMPOUND_CLASS: Natural Product; Sphingolipids; Phosphosphingolipids; Ceramide phosphocholines (sphingomyelins)
CH$FORMULA: C44H89N2O6P
CH$EXACT_MASS: 772.64583
CH$SMILES: C(CCCCCCCCC=CC(O)C(NC(CCCCCCCCCCCCCCCCCCCC)=O)COP([O-1])(=O)OCC[N+1](C)(C)C)CCCC
CH$IUPAC: InChI=1S/C44H89N2O6P/c1-6-8-10-12-14-16-18-20-21-22-23-24-26-28-30-32-34-36-38-44(48)45-42(41-52-53(49,50)51-40-39-46(3,4)5)43(47)37-35-33-31-29-27-25-19-17-15-13-11-9-7-2/h35,37,42-43,47H,6-34,36,38-41H2,1-5H3,(H-,45,48,49,50)/b37-35+/t42-,43+/m1/s1
CH$LINK: CAS 1008522-47-1
CH$LINK: INCHIKEY YXSZOBWVQJIWNE-LUJNSPTCSA-N
SP$SCIENTIFIC_NAME: Mus musculus
SP$LINEAGE: cellular organisms; Eukaryota; Fungi/Metazoa group; Metazoa; Eumetazoa; Bilateria; Coelomata; Deuterostomia; Chordata; Craniata; Vertebrata; Gnathostomata; Teleostomi; Euteleostomi; Sarcopterygii; Tetrapoda; Amniota; Mammalia; Theria; Eutheria; Euarchontoglires; Glires; Rodentia; Sciurognathi; Muroidea; Muridae; Murinae; Mus
SP$LINK: NCBI-TAXONOMY 10090
SP$SAMPLE: liver
AC$INSTRUMENT: LC-10ADVPmicro HPLC, Shimadzu; LTQ Orbitrap, Thermo Scientific
AC$INSTRUMENT_TYPE: LC-ESI-ITFT
AC$MASS_SPECTROMETRY: MS_TYPE MS3
AC$MASS_SPECTROMETRY: ION_MODE NEGATIVE
AC$MASS_SPECTROMETRY: COLLISION_ENERGY 30%
AC$MASS_SPECTROMETRY: ION_SPRAY_VOLTAGE 3500 V
AC$MASS_SPECTROMETRY: IONIZATION ESI
AC$CHROMATOGRAPHY: COLUMN_NAME Develosil C30, Nomura Chemical
AC$CHROMATOGRAPHY: FLOW_GRADIENT  add 95/5 at 0 min, 70/30 at 40 min, 50/50 at 41 min, 50/50 at 90 min
AC$CHROMATOGRAPHY: FLOW_RATE  add 100 uL/min
AC$CHROMATOGRAPHY: RETENTION_TIME 42.18 min (in paper: 42.5 min)
AC$CHROMATOGRAPHY: SOLVENT A acetonitrile-methanol-water (19:19:2) with 0.1% acetic acid and 0.1% ammonium hydroxide (28%)
AC$CHROMATOGRAPHY: SOLVENT B 2-propanol with 0.1% acetic acid and 0.1% ammonium hydroxide (28%)
MS$FOCUSED_ION: PRECURSOR_M/Z 831.66/757.33
MS$FOCUSED_ION: PRECURSOR_TYPE [M+CH3COO]-/[M-CH3]-
MS$DATA_PROCESSING: WHOLE Xcalibur ver-2.0
PK$SPLASH: splash10-001j-0000902000-a7bac72ed4496f771188
PK$ANNOTATION: m/z num type mass error(ppm) formula
  449.42 1 [lyso_SM(18:1,-)]- 449.3144341075 235 C22H46N2O5P-
PK$NUM_PEAK: 6
PK$PEAK: m/z int. rel.int.
  417.39 10.5 218
  430.79 22.9 476
  434.95 36.7 762
  449.42 48.1 999
  668.62 10.2 212
  686.49 19.1 397
//
