ACCESSION: MSBNK-Chubu_Univ-UT001752
RECORD_TITLE: Phosphatidylcholine 16:0-18:3; LC-ESI-ITFT; MS2; [M+CH3COO]-; RT: 16.24; Exp: 2
DATE: 2016.01.19 (Created 2010.05.07, modified 2011.08.03)
AUTHORS: Taguchi R, Graduate School of Medicine, The University of Tokyo
LICENSE: CC BY-NC-SA
PUBLICATION: Taguchi, R.; Ishikawa, M. Precise and Global Identification of Phospholipid Molecular Species by an Orbitrap Mass Spectrometer and Automated Search Engine Lipid Search. Journal of Chromatography A 2010, 1217 (25), 4229–39. DOI:10.1016/j.chroma.2010.04.034
CH$NAME: Phosphatidylcholine 16:0-18:3
CH$COMPOUND_CLASS: Natural Product; Glycerophospholipids; Glycerophosphocholines; Diacylglycerophosphocholines
CH$FORMULA: C42H78NO8P
CH$EXACT_MASS: 755.54650
CH$SMILES: C(COP([O-1])(=O)OCC(OC(=O)CCC=CCC=CCC=CCCCCCCC)COC(=O)CCCCCCCCCCCCCCC)[N+1](C)(C)C
CH$IUPAC: InChI=1S/C42H78NO8P/c1-6-8-10-12-14-16-18-20-21-23-25-27-29-31-33-35-42(45)51-40(39-50-52(46,47)49-37-36-43(3,4)5)38-48-41(44)34-32-30-28-26-24-22-19-17-15-13-11-9-7-2/h18,20,23,25,29,31,40H,6-17,19,21-22,24,26-28,30,32-39H2,1-5H3/b20-18-,25-23-,31-29-
CH$LINK: INCHIKEY LTFQLMSVQQIRBG-YOKRUPNWSA-N
SP$SCIENTIFIC_NAME: Mus musculus
SP$LINEAGE: cellular organisms; Eukaryota; Fungi/Metazoa group; Metazoa; Eumetazoa; Bilateria; Coelomata; Deuterostomia; Chordata; Craniata; Vertebrata; Gnathostomata; Teleostomi; Euteleostomi; Sarcopterygii; Tetrapoda; Amniota; Mammalia; Theria; Eutheria; Euarchontoglires; Glires; Rodentia; Sciurognathi; Muroidea; Muridae; Murinae; Mus
SP$LINK: NCBI-TAXONOMY 10090
SP$SAMPLE: liver
AC$INSTRUMENT: LC-10ADVPmicro HPLC, Shimadzu; LTQ Orbitrap, Thermo Scientific
AC$INSTRUMENT_TYPE: LC-ESI-ITFT
AC$MASS_SPECTROMETRY: MS_TYPE MS2
AC$MASS_SPECTROMETRY: ION_MODE NEGATIVE
AC$MASS_SPECTROMETRY: COLLISION_ENERGY 30%
AC$MASS_SPECTROMETRY: ION_SPRAY_VOLTAGE 3500 V
AC$MASS_SPECTROMETRY: IONIZATION ESI
AC$CHROMATOGRAPHY: COLUMN_NAME Develosil C30, Nomura Chemical
AC$CHROMATOGRAPHY: FLOW_GRADIENT  add 95/5 at 0 min, 70/30 at 40 min, 50/50 at 41 min, 50/50 at 90 min
AC$CHROMATOGRAPHY: FLOW_RATE  add 100 uL/min
AC$CHROMATOGRAPHY: RETENTION_TIME 16.32 min (in paper: 16.2 min)
AC$CHROMATOGRAPHY: SOLVENT A acetonitrile-methanol-water (19:19:2) with 0.1% acetic acid and 0.1% ammonium hydroxide (28%)
AC$CHROMATOGRAPHY: SOLVENT B 2-propanol with 0.1% acetic acid and 0.1% ammonium hydroxide (28%)
MS$FOCUSED_ION: PRECURSOR_M/Z 814.56
MS$FOCUSED_ION: PRECURSOR_TYPE [M+CH3COO]-
MS$DATA_PROCESSING: WHOLE Xcalibur ver-2.0
PK$SPLASH: splash10-0006-0000000900-766ccbde639b342e8011
PK$ANNOTATION: m/z num type mass error(ppm) formula
  255.25 1 [fa(16:0)-H]- 255.2324052393 69 C16H31O2-
  277.10 1 [fa(18:3)-H]- 277.2167551751 -420 C18H29O2-
  740.77 1 [PC(16:0,18:3)-CH3]- 740.5230298995 334 C41H75NO8P-
PK$NUM_PEAK: 13
PK$PEAK: m/z int. rel.int.
  255.25 53.1 2
  277.10 206.0 6
  304.11 21.3 1
  331.45 12.0 1
  391.14 27.3 1
  479.97 38.2 1
  528.20 8.8 1
  669.27 9.1 1
  694.96 20.4 1
  740.10 33823.5 999
  740.77 172.5 5
  754.29 19.5 1
  754.94 176.3 5
//
