ACCESSION: MSBNK-Chubu_Univ-UT001108
RECORD_TITLE: Phosphatidylethanolamine 16:0-22:4; LC-ESI-ITFT; MS2; [M-H]-; RT: 24.93; Exp: 1
DATE: 2016.01.19 (Created 2010.05.07, modified 2011.08.03)
AUTHORS: Taguchi R, Graduate School of Medicine, The University of Tokyo
LICENSE: CC BY-NC-SA
PUBLICATION: Taguchi, R.; Ishikawa, M. Precise and Global Identification of Phospholipid Molecular Species by an Orbitrap Mass Spectrometer and Automated Search Engine Lipid Search. Journal of Chromatography A 2010, 1217 (25), 4229–39. DOI:10.1016/j.chroma.2010.04.034
CH$NAME: Phosphatidylethanolamine 16:0-22:4
CH$COMPOUND_CLASS: Natural Product; Glycerophospholipids; Glycerophosphoethanolamines; Diacylglycerophosphoethanolamines
CH$FORMULA: C43H78NO8P
CH$EXACT_MASS: 767.54650
CH$SMILES: OP(=O)(OCCN)OCC(COC(=O)CCCCCCCCCCCCCCC)OC(=O)CCC=CCC=CCC=CCC=CCCCCCCCC
CH$IUPAC: InChI=1S/C43H78NO8P/c1-3-5-7-9-11-13-15-17-18-19-20-21-22-24-26-28-30-32-34-36-43(46)52-41(40-51-53(47,48)50-38-37-44)39-49-42(45)35-33-31-29-27-25-23-16-14-12-10-8-6-4-2/h17-18,20-21,24,26,30,32,41H,3-16,19,22-23,25,27-29,31,33-40,44H2,1-2H3,(H,47,48)/b18-17-,21-20-,26-24-,32-30-
CH$LINK: INCHIKEY WRJMLLZQXDAGES-ASOJYNRJSA-N
SP$SCIENTIFIC_NAME: Mus musculus
SP$LINEAGE: cellular organisms; Eukaryota; Fungi/Metazoa group; Metazoa; Eumetazoa; Bilateria; Coelomata; Deuterostomia; Chordata; Craniata; Vertebrata; Gnathostomata; Teleostomi; Euteleostomi; Sarcopterygii; Tetrapoda; Amniota; Mammalia; Theria; Eutheria; Euarchontoglires; Glires; Rodentia; Sciurognathi; Muroidea; Muridae; Murinae; Mus
SP$LINK: NCBI-TAXONOMY 10090
SP$SAMPLE: liver
AC$INSTRUMENT: LC-10ADVPmicro HPLC, Shimadzu; LTQ Orbitrap, Thermo Scientific
AC$INSTRUMENT_TYPE: LC-ESI-ITFT
AC$MASS_SPECTROMETRY: MS_TYPE MS2
AC$MASS_SPECTROMETRY: ION_MODE NEGATIVE
AC$MASS_SPECTROMETRY: COLLISION_ENERGY 30%
AC$MASS_SPECTROMETRY: ION_SPRAY_VOLTAGE 3500 V
AC$MASS_SPECTROMETRY: IONIZATION ESI
AC$CHROMATOGRAPHY: COLUMN_NAME Develosil C30, Nomura Chemical
AC$CHROMATOGRAPHY: FLOW_GRADIENT  add 95/5 at 0 min, 70/30 at 40 min, 50/50 at 41 min, 50/50 at 90 min
AC$CHROMATOGRAPHY: FLOW_RATE  add 100 uL/min
AC$CHROMATOGRAPHY: RETENTION_TIME 23.75 min (in paper: 24.9 min)
AC$CHROMATOGRAPHY: SOLVENT A acetonitrile-methanol-water (19:19:2) with 0.1% acetic acid and 0.1% ammonium hydroxide (28%)
AC$CHROMATOGRAPHY: SOLVENT B 2-propanol with 0.1% acetic acid and 0.1% ammonium hydroxide (28%)
MS$FOCUSED_ION: PRECURSOR_M/Z 766.54
MS$FOCUSED_ION: PRECURSOR_TYPE [M-H]-
MS$DATA_PROCESSING: WHOLE Xcalibur ver-2.0
PK$SPLASH: splash10-001i-0039100000-b300515b34b589260e88
PK$ANNOTATION: m/z num type mass error(ppm) formula
  255.09 1 [fa(16:0)-H]- 255.2324052393 -557 C16H31O2-
  331.10 1 [fa(22:4)-H]- 331.2637053677 -493 C22H35O2-
  452.20 1 [lyso_PE(16:0,-)]- 452.2777142502 -171 C21H43NO7P-
  510.16 1 [lyso_PE(-,22:4)-H2O]- 510.2984496923 -270 C27H45NO6P-
PK$NUM_PEAK: 23
PK$PEAK: m/z int. rel.int.
  255.09 269.5 363
  259.21 3.3 4
  281.15 100.6 135
  281.79 5.0 7
  283.16 80.1 108
  286.89 17.6 24
  303.04 34.9 47
  304.17 6.2 8
  305.21 124.7 168
  306.37 27.8 37
  331.10 742.3 999
  332.22 134.6 181
  393.32 11.3 15
  452.20 113.3 152
  453.40 37.3 50
  477.88 61.2 82
  482.09 7.9 11
  506.27 15.8 21
  510.16 17.9 24
  527.97 48.1 65
  529.15 28.2 38
  692.49 6.8 9
  746.76 18.3 25
//
