ACCESSION: MSBNK-Chubu_Univ-UT003152
RECORD_TITLE: Phosphatidylcholine alkyl 16:0-22:1 / alkyl 18:0-20:1 / alkyl 18:1-20:0; LC-ESI-ITFT; MS3; [M+CH3COO]-/[M-CH3]-; RT: 44.47; Exp: 3
DATE: 2016.01.19 (Created 2010.05.07, modified 2011.08.03)
AUTHORS: Taguchi R, Graduate School of Medicine, The University of Tokyo
LICENSE: CC BY-NC-SA
PUBLICATION: Taguchi, R.; Ishikawa, M. Precise and Global Identification of Phospholipid Molecular Species by an Orbitrap Mass Spectrometer and Automated Search Engine Lipid Search. Journal of Chromatography A 2010, 1217 (25), 4229–39. DOI:10.1016/j.chroma.2010.04.034
CH$NAME: Phosphatidylcholine alkyl 16:0-22:1 / alkyl 18:0-20:1 / alkyl 18:1-20:0
CH$COMPOUND_CLASS: Natural Product; Glycerophospholipids; Glycerophosphocholines; 1-alkyl,2-acylglycerophosphocholines
CH$FORMULA: C138H276N3O21P3
CH$EXACT_MASS: 2404.98342
CH$SMILES: CCCCCCCCCCCCCCCCCCCC(=O)OC(COCCC/C=C\CCCCCCCCCCCCC)COP(=O)([O-])OCC[N+](C)(C)C.CCCCCCCCCCCCCCCCCCOCC(COP(=O)([O-])OCC[N+](C)(C)C)OC(=O)CC/C=C\CCCCCCCCCCCCCCC.CCCCCCCCCCCCCCCCC/C=C\CCC(=O)OC(COCCCCCCCCCCCCCCCC)COP(=O)([O-])OCC[N+](C)(C)C
CH$IUPAC: InChI=1S/3C46H92NO7P/c1-6-8-10-12-14-16-18-20-22-23-24-25-26-27-29-31-33-35-37-39-46(48)54-45(44-53-55(49,50)52-42-40-47(3,4)5)43-51-41-38-36-34-32-30-28-21-19-17-15-13-11-9-7-2;2*1-6-8-10-12-14-16-18-20-22-24-25-27-29-31-33-35-37-39-46(48)54-45(44-53-55(49,50)52-42-40-47(3,4)5)43-51-41-38-36-34-32-30-28-26-23-21-19-17-15-13-11-9-7-2/h2*33,35,45H,6-32,34,36-44H2,1-5H3;32,34,45H,6-31,33,35-44H2,1-5H3/b2*35-33-;34-32-
CH$LINK: INCHIKEY JISWWIQTNBGJKT-PJZGFHNDSA-N
CH$LINK: PUBCHEM CID:134741072
SP$SCIENTIFIC_NAME: Mus musculus
SP$LINEAGE: cellular organisms; Eukaryota; Fungi/Metazoa group; Metazoa; Eumetazoa; Bilateria; Coelomata; Deuterostomia; Chordata; Craniata; Vertebrata; Gnathostomata; Teleostomi; Euteleostomi; Sarcopterygii; Tetrapoda; Amniota; Mammalia; Theria; Eutheria; Euarchontoglires; Glires; Rodentia; Sciurognathi; Muroidea; Muridae; Murinae; Mus
SP$LINK: NCBI-TAXONOMY 10090
SP$SAMPLE: brain
AC$INSTRUMENT: LC-10ADVPmicro HPLC, Shimadzu; LTQ Orbitrap, Thermo Scientific
AC$INSTRUMENT_TYPE: LC-ESI-ITFT
AC$MASS_SPECTROMETRY: MS_TYPE MS3
AC$MASS_SPECTROMETRY: ION_MODE NEGATIVE
AC$MASS_SPECTROMETRY: COLLISION_ENERGY 30%
AC$MASS_SPECTROMETRY: ION_SPRAY_VOLTAGE 3500 V
AC$MASS_SPECTROMETRY: IONIZATION ESI
AC$CHROMATOGRAPHY: COLUMN_NAME Develosil C30, Nomura Chemical
AC$CHROMATOGRAPHY: FLOW_GRADIENT  add 95/5 at 0 min, 70/30 at 40 min, 50/50 at 41 min, 50/50 at 90 min
AC$CHROMATOGRAPHY: FLOW_RATE  add 100 uL/min
AC$CHROMATOGRAPHY: RETENTION_TIME 44.31 min (in paper: 44.5 min)
AC$CHROMATOGRAPHY: SOLVENT A acetonitrile-methanol-water (19:19:2) with 0.1% acetic acid and 0.1% ammonium hydroxide (28%)
AC$CHROMATOGRAPHY: SOLVENT B 2-propanol with 0.1% acetic acid and 0.1% ammonium hydroxide (28%)
MS$FOCUSED_ION: PRECURSOR_M/Z 860.68/786.24
MS$FOCUSED_ION: PRECURSOR_TYPE [M+CH3COO]-/[M-CH3]-
MS$DATA_PROCESSING: WHOLE Xcalibur ver-2.0
PK$SPLASH: splash10-000i-0019100000-0afc8f07b740f79b969e
PK$ANNOTATION: m/z num type mass error(ppm) formula
  311.41 1 [fa(20:0)-H]- 311.2950054961 369 C20H39O2-
  337.20 1 [fa(22:1)-H]- 337.3106555603 -327 C22H41O2-
  448.25 2 [lyso_PC(alkyl-16:0,-)-H2O]- 448.3191851344 -153 C23H47NO5P-
  448.25 2 [lyso_PC(alkyl-18:1,-)-CO2]- 448.3555706407 -234 C24H51NO4P-
  466.30 1 [lyso_PC(alkyl-16:0,-)]- 466.3297498207 -63 C23H49NO6P-
PK$NUM_PEAK: 10
PK$PEAK: m/z int. rel.int.
  255.12 54.7 126
  310.80 19.5 45
  311.41 10.6 24
  313.20 11.8 27
  337.20 433.7 999
  394.85 15.1 35
  448.25 10.6 24
  459.44 11.7 27
  466.30 60.8 140
  520.37 10.6 24
//
