ACCESSION: MSBNK-Chubu_Univ-UT002101
RECORD_TITLE: Phosphatidylethanolamine 16:0-20:4; LC-ESI-ITFT; MS2; [M-H]-; RT: 19.37; Exp: 2
DATE: 2016.01.19 (Created 2010.05.07, modified 2011.08.03)
AUTHORS: Taguchi R, Graduate School of Medicine, The University of Tokyo
LICENSE: CC BY-NC-SA
PUBLICATION: Taguchi, R.; Ishikawa, M. Precise and Global Identification of Phospholipid Molecular Species by an Orbitrap Mass Spectrometer and Automated Search Engine Lipid Search. Journal of Chromatography A 2010, 1217 (25), 4229–39. DOI:10.1016/j.chroma.2010.04.034
CH$NAME: Phosphatidylethanolamine 16:0-20:4
CH$COMPOUND_CLASS: Natural Product; Glycerophospholipids; Glycerophosphoethanolamines; Diacylglycerophosphoethanolamines
CH$FORMULA: C41H74NO8P
CH$EXACT_MASS: 739.51520
CH$SMILES: C(CCCCCC)=CCC=CCC=CCC=CCCC(OC(COC(=O)CCCCCCCCCCCCCCC)COP(O)(=O)OCCN)=O
CH$IUPAC: InChI=1S/C41H74NO8P/c1-3-5-7-9-11-13-15-17-18-19-20-22-24-26-28-30-32-34-41(44)50-39(38-49-51(45,46)48-36-35-42)37-47-40(43)33-31-29-27-25-23-21-16-14-12-10-8-6-4-2/h13,15,18-19,22,24,28,30,39H,3-12,14,16-17,20-21,23,25-27,29,31-38,42H2,1-2H3,(H,45,46)/b15-13-,19-18-,24-22-,30-28-
CH$LINK: INCHIKEY ARFPLDYYIYCLNV-WRDNLCFKSA-N
SP$SCIENTIFIC_NAME: Mus musculus
SP$LINEAGE: cellular organisms; Eukaryota; Fungi/Metazoa group; Metazoa; Eumetazoa; Bilateria; Coelomata; Deuterostomia; Chordata; Craniata; Vertebrata; Gnathostomata; Teleostomi; Euteleostomi; Sarcopterygii; Tetrapoda; Amniota; Mammalia; Theria; Eutheria; Euarchontoglires; Glires; Rodentia; Sciurognathi; Muroidea; Muridae; Murinae; Mus
SP$LINK: NCBI-TAXONOMY 10090
SP$SAMPLE: brain
AC$INSTRUMENT: LC-10ADVPmicro HPLC, Shimadzu; LTQ Orbitrap, Thermo Scientific
AC$INSTRUMENT_TYPE: LC-ESI-ITFT
AC$MASS_SPECTROMETRY: MS_TYPE MS2
AC$MASS_SPECTROMETRY: ION_MODE NEGATIVE
AC$MASS_SPECTROMETRY: COLLISION_ENERGY 30%
AC$MASS_SPECTROMETRY: ION_SPRAY_VOLTAGE 3500 V
AC$MASS_SPECTROMETRY: IONIZATION ESI
AC$CHROMATOGRAPHY: COLUMN_NAME Develosil C30, Nomura Chemical
AC$CHROMATOGRAPHY: FLOW_GRADIENT  add 95/5 at 0 min, 70/30 at 40 min, 50/50 at 41 min, 50/50 at 90 min
AC$CHROMATOGRAPHY: FLOW_RATE  add 100 uL/min
AC$CHROMATOGRAPHY: RETENTION_TIME 19.30 min (in paper: 19.3 min)
AC$CHROMATOGRAPHY: SOLVENT A acetonitrile-methanol-water (19:19:2) with 0.1% acetic acid and 0.1% ammonium hydroxide (28%)
AC$CHROMATOGRAPHY: SOLVENT B 2-propanol with 0.1% acetic acid and 0.1% ammonium hydroxide (28%)
MS$FOCUSED_ION: PRECURSOR_M/Z 738.51
MS$FOCUSED_ION: PRECURSOR_TYPE [M-H]-
MS$DATA_PROCESSING: WHOLE Xcalibur ver-2.0
PK$SPLASH: splash10-0udi-0049200000-30b59393841c9480ccd7
PK$ANNOTATION: m/z num type mass error(ppm) formula
  255.08 1 [fa(16:0)-H]- 255.2324052393 -596 C16H31O2-
  259.14 1 [fa(20:4)-H-CO2]- 259.2425759951 -395 C19H31-
  303.05 1 [fa(20:4)-H]- 303.2324052393 -601 C20H31O2-
  434.11 1 [lyso_PE(16:0,-)-H2O]- 434.2671495639 -361 C21H41NO6P-
  452.08 1 [lyso_PE(16:0,-)]- 452.2777142502 -436 C21H43NO7P-
  482.16 1 [lyso_PE(-,20:4)-H2O]- 482.2671495639 -221 C25H41NO6P-
PK$NUM_PEAK: 27
PK$PEAK: m/z int. rel.int.
  213.84 45.1 1
  216.70 68.3 1
  217.54 59.0 1
  230.91 45.2 1
  232.96 45.1 1
  236.79 88.1 1
  255.08 28292.2 372
  256.24 1518.4 20
  259.14 7584.5 100
  260.35 202.2 3
  267.11 63.7 1
  285.13 298.0 4
  286.30 40.4 1
  301.13 167.2 2
  303.05 76002.8 999
  304.17 2683.0 35
  378.34 214.1 3
  391.01 180.2 2
  426.02 92.8 1
  434.11 1473.0 19
  438.90 55.0 1
  449.02 97.7 1
  452.08 16346.4 215
  453.25 520.2 7
  482.16 671.7 9
  499.96 1228.3 16
  501.23 71.6 1
//
