ACCESSION: MSBNK-Chubu_Univ-UT000186
RECORD_TITLE: 5-OxoETE; LC-ESI-QIT; MS2; CE:35 V; [M-H]-
DATE: 2016.01.19 (Created 2007.10.19, modified 2011.08.03)
AUTHORS: Nakanishi H, Taguchi R, Graduate School of Medicine, The University of Tokyo
LICENSE: CC BY-NC-SA
CH$NAME: 5-OxoETE
CH$NAME: 5-oxo-6E,8Z,11Z,14Z-eicosatetraenoic acid
CH$NAME: 5-KETE
CH$COMPOUND_CLASS: Natural Product; Lipid; Fatty acid
CH$FORMULA: C20H30O3
CH$EXACT_MASS: 318.21949
CH$SMILES: CCCCCC=CCC=CCC=CC=CC(=O)CCCC(O)=O
CH$IUPAC: InChI=1S/C20H30O3/c1-2-3-4-5-6-7-8-9-10-11-12-13-14-16-19(21)17-15-18-20(22)23/h6-7,9-10,12-14,16H,2-5,8,11,15,17-18H2,1H3,(H,22,23)/b7-6-,10-9-,13-12-,16-14+
CH$LINK: CAS 106154-18-1
CH$LINK: CAYMAN 34250
CH$LINK: LIPIDBANK DFA8156
CH$LINK: INCHIKEY MEASLHGILYBXFO-XTDASVJISA-N
AC$INSTRUMENT: 4000Q TRAP, Applied Biosystems
AC$INSTRUMENT_TYPE: LC-ESI-QIT
AC$MASS_SPECTROMETRY: MS_TYPE MS2
AC$MASS_SPECTROMETRY: ION_MODE NEGATIVE
AC$MASS_SPECTROMETRY: COLLISION_ENERGY 35 V
AC$MASS_SPECTROMETRY: IONIZATION ESI
MS$FOCUSED_ION: PRECURSOR_TYPE [M-H]-
MS$DATA_PROCESSING: IGNORE rel.val. < 0.5
MS$DATA_PROCESSING: WHOLE Analyst 1.4.2
PK$SPLASH: splash10-0udi-0192000000-69bb1f0b8710630e3498
PK$NUM_PEAK: 24
PK$PEAK: m/z int. rel.int.
  70.720 6250.0 5
  95.200 6250.0 5
  108.980 15625.0 12
  111.020 50000.0 40
  129.040 21875.0 17
  140.960 9375.0 7
  141.120 6250.0 5
  147.120 9375.0 7
  155.040 12500.0 10
  163.200 53125.0 42
  175.154 181250.0 143
  187.080 68750.0 54
  203.143 1262500.0 999
  215.120 12500.0 10
  217.120 15625.0 12
  229.120 21875.0 17
  231.200 9375.0 7
  245.102 175000.0 138
  255.179 50000.0 40
  257.115 150000.0 119
  271.200 6250.0 5
  273.202 193750.0 153
  299.051 65625.0 52
  317.201 503125.0 398
//
