ACCESSION: MSBNK-Chubu_Univ-UT002568
RECORD_TITLE: Phosphatidylethanolamine 15:0-22:6; LC-ESI-ITFT; MS2; [M-H]-; RT: 14.28; Exp: 3
DATE: 2016.01.19 (Created 2010.05.07, modified 2011.08.03)
AUTHORS: Taguchi R, Graduate School of Medicine, The University of Tokyo
LICENSE: CC BY-NC-SA
PUBLICATION: Taguchi, R.; Ishikawa, M. Precise and Global Identification of Phospholipid Molecular Species by an Orbitrap Mass Spectrometer and Automated Search Engine Lipid Search. Journal of Chromatography A 2010, 1217 (25), 4229–39. DOI:10.1016/j.chroma.2010.04.034
CH$NAME: Phosphatidylethanolamine 15:0-22:6
CH$COMPOUND_CLASS: Natural Product; Glycerophospholipids; Glycerophosphoethanolamines; Diacylglycerophosphoethanolamines
CH$FORMULA: C42H72NO8P
CH$EXACT_MASS: 749.49955
CH$SMILES: OP(=O)(OCCN)OCC(COC(CCCCCCCCCCCCCC)=O)OC(=O)CCC=CCC=CCC=CCC=CCC=CCC=CCC
CH$IUPAC: InChI=1S/C42H72NO8P/c1-3-5-7-9-11-13-15-17-18-19-20-21-22-23-25-27-29-31-33-35-42(45)51-40(39-50-52(46,47)49-37-36-43)38-48-41(44)34-32-30-28-26-24-16-14-12-10-8-6-4-2/h5,7,11,13,17-18,20-21,23,25,29,31,40H,3-4,6,8-10,12,14-16,19,22,24,26-28,30,32-39,43H2,1-2H3,(H,46,47)/b7-5-,13-11-,18-17-,21-20-,25-23-,31-29-
CH$LINK: INCHIKEY WIJRNOBSWIZHST-JTURFRPLSA-N
SP$SCIENTIFIC_NAME: Mus musculus
SP$LINEAGE: cellular organisms; Eukaryota; Fungi/Metazoa group; Metazoa; Eumetazoa; Bilateria; Coelomata; Deuterostomia; Chordata; Craniata; Vertebrata; Gnathostomata; Teleostomi; Euteleostomi; Sarcopterygii; Tetrapoda; Amniota; Mammalia; Theria; Eutheria; Euarchontoglires; Glires; Rodentia; Sciurognathi; Muroidea; Muridae; Murinae; Mus
SP$LINK: NCBI-TAXONOMY 10090
SP$SAMPLE: liver
AC$INSTRUMENT: LC-10ADVPmicro HPLC, Shimadzu; LTQ Orbitrap, Thermo Scientific
AC$INSTRUMENT_TYPE: LC-ESI-ITFT
AC$MASS_SPECTROMETRY: MS_TYPE MS2
AC$MASS_SPECTROMETRY: ION_MODE NEGATIVE
AC$MASS_SPECTROMETRY: COLLISION_ENERGY 30%
AC$MASS_SPECTROMETRY: ION_SPRAY_VOLTAGE 3500 V
AC$MASS_SPECTROMETRY: IONIZATION ESI
AC$CHROMATOGRAPHY: COLUMN_NAME Develosil C30, Nomura Chemical
AC$CHROMATOGRAPHY: FLOW_GRADIENT  add 95/5 at 0 min, 70/30 at 40 min, 50/50 at 41 min, 50/50 at 90 min
AC$CHROMATOGRAPHY: FLOW_RATE  add 100 uL/min
AC$CHROMATOGRAPHY: RETENTION_TIME 14.05 min (in paper: 14.3 min)
AC$CHROMATOGRAPHY: SOLVENT A acetonitrile-methanol-water (19:19:2) with 0.1% acetic acid and 0.1% ammonium hydroxide (28%)
AC$CHROMATOGRAPHY: SOLVENT B 2-propanol with 0.1% acetic acid and 0.1% ammonium hydroxide (28%)
MS$FOCUSED_ION: PRECURSOR_M/Z 748.49
MS$FOCUSED_ION: PRECURSOR_TYPE [M-H]-
MS$DATA_PROCESSING: WHOLE Xcalibur ver-2.0
PK$SPLASH: splash10-005c-0095200000-8da8e280ccf15664c61c
PK$ANNOTATION: m/z num type mass error(ppm) formula
  241.19 1 [fa(15:0)-H]- 241.2167551751 -110 C15H29O2-
  283.15 1 [fa(22:6)-H-CO2]- 283.2425759951 -326 C21H31-
  327.09 1 [fa(22:6)-H]- 327.2324052393 -434 C22H31O2-
  420.28 1 [lyso_PE(15:0,-)-H2O]- 420.2514994997 68 C20H39NO6P-
  524.16 1 [lyso_PE(-,22:6)]- 524.2777142502 -224 C27H43NO7P-
PK$NUM_PEAK: 13
PK$PEAK: m/z int. rel.int.
  241.19 191.4 603
  242.04 26.3 83
  283.15 240.8 759
  284.10 49.0 154
  327.09 317.0 999
  328.03 19.4 61
  420.28 10.0 32
  437.94 117.9 372
  438.98 9.7 31
  463.20 16.8 53
  524.16 19.6 62
  538.31 13.1 41
  705.61 7.8 25
//
