ACCESSION: MSBNK-Chubu_Univ-UT001639
RECORD_TITLE: Sphingomyelin d18:1-C24:0; LC-ESI-ITFT; MS3; [M+CH3COO]-/[M-CH3]-; RT: 48.10; Exp: 1
DATE: 2016.01.19 (Created 2010.05.07, modified 2011.08.03)
AUTHORS: Taguchi R, Graduate School of Medicine, The University of Tokyo
LICENSE: CC BY-NC-SA
PUBLICATION: Taguchi, R.; Ishikawa, M. Precise and Global Identification of Phospholipid Molecular Species by an Orbitrap Mass Spectrometer and Automated Search Engine Lipid Search. Journal of Chromatography A 2010, 1217 (25), 4229–39. DOI:10.1016/j.chroma.2010.04.034
CH$NAME: Sphingomyelin d18:1-C24:0
CH$COMPOUND_CLASS: Natural Product; Sphingolipids; Phosphosphingolipids; Ceramide phosphocholines (sphingomyelins)
CH$FORMULA: C47H95N2O6P
CH$EXACT_MASS: 814.69278
CH$SMILES: C[N+1](C)(C)CCOP([O-1])(=O)OCC(C(C=CCCCCCCCCCCCCC)O)NC(=O)CCCCCCCCCCCCCCCCCCCCCCC
CH$IUPAC: InChI=1S/C47H95N2O6P/c1-6-8-10-12-14-16-18-20-21-22-23-24-25-26-27-29-31-33-35-37-39-41-47(51)48-45(44-55-56(52,53)54-43-42-49(3,4)5)46(50)40-38-36-34-32-30-28-19-17-15-13-11-9-7-2/h38,40,45-46,50H,6-37,39,41-44H2,1-5H3,(H-,48,51,52,53)/b40-38+/t45-,46+/m1/s1
CH$LINK: CAS 81902-08-1
CH$LINK: INCHIKEY QEDPUVGSSDPBMD-ZDGDQSOJSA-N
SP$SCIENTIFIC_NAME: Mus musculus
SP$LINEAGE: cellular organisms; Eukaryota; Fungi/Metazoa group; Metazoa; Eumetazoa; Bilateria; Coelomata; Deuterostomia; Chordata; Craniata; Vertebrata; Gnathostomata; Teleostomi; Euteleostomi; Sarcopterygii; Tetrapoda; Amniota; Mammalia; Theria; Eutheria; Euarchontoglires; Glires; Rodentia; Sciurognathi; Muroidea; Muridae; Murinae; Mus
SP$LINK: NCBI-TAXONOMY 10090
SP$SAMPLE: liver
AC$INSTRUMENT: LC-10ADVPmicro HPLC, Shimadzu; LTQ Orbitrap, Thermo Scientific
AC$INSTRUMENT_TYPE: LC-ESI-ITFT
AC$MASS_SPECTROMETRY: MS_TYPE MS3
AC$MASS_SPECTROMETRY: ION_MODE NEGATIVE
AC$MASS_SPECTROMETRY: COLLISION_ENERGY 30%
AC$MASS_SPECTROMETRY: ION_SPRAY_VOLTAGE 3500 V
AC$MASS_SPECTROMETRY: IONIZATION ESI
AC$CHROMATOGRAPHY: COLUMN_NAME Develosil C30, Nomura Chemical
AC$CHROMATOGRAPHY: FLOW_GRADIENT  add 95/5 at 0 min, 70/30 at 40 min, 50/50 at 41 min, 50/50 at 90 min
AC$CHROMATOGRAPHY: FLOW_RATE  add 100 uL/min
AC$CHROMATOGRAPHY: RETENTION_TIME 48.32 min (in paper: 48.1 min)
AC$CHROMATOGRAPHY: SOLVENT A acetonitrile-methanol-water (19:19:2) with 0.1% acetic acid and 0.1% ammonium hydroxide (28%)
AC$CHROMATOGRAPHY: SOLVENT B 2-propanol with 0.1% acetic acid and 0.1% ammonium hydroxide (28%)
MS$FOCUSED_ION: PRECURSOR_M/Z 873.70/799.37
MS$FOCUSED_ION: PRECURSOR_TYPE [M+CH3COO]-/[M-CH3]-
MS$DATA_PROCESSING: WHOLE Xcalibur ver-2.0
PK$SPLASH: splash10-002b-0000900700-beb58d7b5f552d997ee8
PK$ANNOTATION: m/z num type mass error(ppm) formula
  449.24 1 [lyso_SM(18:1,-)]- 449.3144341075 -165 C22H46N2O5P-
PK$NUM_PEAK: 2
PK$PEAK: m/z int. rel.int.
  449.24 36.9 999
  728.28 29.5 799
//
