ACCESSION: MSBNK-Chubu_Univ-UT001581
RECORD_TITLE: Phosphatidylcholine 22:0-18:2; LC-ESI-ITFT; MS3; [M+CH3COO]-/[M-CH3]-; RT: 44.07; Exp: 1
DATE: 2016.01.19 (Created 2010.05.07, modified 2011.08.03)
AUTHORS: Taguchi R, Graduate School of Medicine, The University of Tokyo
LICENSE: CC BY-NC-SA
PUBLICATION: Taguchi, R.; Ishikawa, M. Precise and Global Identification of Phospholipid Molecular Species by an Orbitrap Mass Spectrometer and Automated Search Engine Lipid Search. Journal of Chromatography A 2010, 1217 (25), 4229–39. DOI:10.1016/j.chroma.2010.04.034
CH$NAME: Phosphatidylcholine 22:0-18:2
CH$COMPOUND_CLASS: Natural Product; Glycerophospholipids; Glycerophosphocholines; Diacylglycerophosphocholines
CH$FORMULA: C48H92NO8P
CH$EXACT_MASS: 841.65606
CH$SMILES: C(=CCCCCCCCCCC)CC=CCCC(OC(COP(OCC[N+1](C)(C)C)([O-1])=O)COC(CCCCCCCCCCCCCCCCCCCCC)=O)=O
CH$IUPAC: InChI=1S/C48H92NO8P/c1-6-8-10-12-14-16-18-20-22-23-24-25-27-28-30-32-34-36-38-40-47(50)54-44-46(45-56-58(52,53)55-43-42-49(3,4)5)57-48(51)41-39-37-35-33-31-29-26-21-19-17-15-13-11-9-7-2/h29,31,35,37,46H,6-28,30,32-34,36,38-45H2,1-5H3/b31-29-,37-35-
CH$LINK: INCHIKEY WRWYRAWKRKLJLU-VTFKHGFOSA-N
SP$SCIENTIFIC_NAME: Mus musculus
SP$LINEAGE: cellular organisms; Eukaryota; Fungi/Metazoa group; Metazoa; Eumetazoa; Bilateria; Coelomata; Deuterostomia; Chordata; Craniata; Vertebrata; Gnathostomata; Teleostomi; Euteleostomi; Sarcopterygii; Tetrapoda; Amniota; Mammalia; Theria; Eutheria; Euarchontoglires; Glires; Rodentia; Sciurognathi; Muroidea; Muridae; Murinae; Mus
SP$LINK: NCBI-TAXONOMY 10090
SP$SAMPLE: liver
AC$INSTRUMENT: LC-10ADVPmicro HPLC, Shimadzu; LTQ Orbitrap, Thermo Scientific
AC$INSTRUMENT_TYPE: LC-ESI-ITFT
AC$MASS_SPECTROMETRY: MS_TYPE MS3
AC$MASS_SPECTROMETRY: ION_MODE NEGATIVE
AC$MASS_SPECTROMETRY: COLLISION_ENERGY 30%
AC$MASS_SPECTROMETRY: ION_SPRAY_VOLTAGE 3500 V
AC$MASS_SPECTROMETRY: IONIZATION ESI
AC$CHROMATOGRAPHY: COLUMN_NAME Develosil C30, Nomura Chemical
AC$CHROMATOGRAPHY: FLOW_GRADIENT  add 95/5 at 0 min, 70/30 at 40 min, 50/50 at 41 min, 50/50 at 90 min
AC$CHROMATOGRAPHY: FLOW_RATE  add 100 uL/min
AC$CHROMATOGRAPHY: RETENTION_TIME 44.03 min (in paper: 44.1 min)
AC$CHROMATOGRAPHY: SOLVENT A acetonitrile-methanol-water (19:19:2) with 0.1% acetic acid and 0.1% ammonium hydroxide (28%)
AC$CHROMATOGRAPHY: SOLVENT B 2-propanol with 0.1% acetic acid and 0.1% ammonium hydroxide (28%)
MS$FOCUSED_ION: PRECURSOR_M/Z 900.67/826.33
MS$FOCUSED_ION: PRECURSOR_TYPE [M+CH3COO]-/[M-CH3]-
MS$DATA_PROCESSING: WHOLE Xcalibur ver-2.0
PK$SPLASH: splash10-004i-0093000000-6f112cfdc03c819e19ab
PK$ANNOTATION: m/z num type mass error(ppm) formula
  279.09 1 [fa(18:2)-H]- 279.2324052393 -509 C18H31O2-
  339.21 1 [fa(22:0)-H]- 339.3263056245 -342 C22H43O2-
  564.32 1 [lyso_PC(22:0,-)]- 564.4029147638 -146 C29H59NO7P-
PK$NUM_PEAK: 3
PK$PEAK: m/z int. rel.int.
  279.09 171.9 999
  339.21 74.2 431
  564.32 16.0 93
//
