ACCESSION: MSBNK-Chubu_Univ-UT002509
RECORD_TITLE: Phosphatidylcholine 18:0-16:0; LC-ESI-ITFT; MS2; [M+CH3COO]-; RT: 35.78; Exp: 3
DATE: 2016.01.19 (Created 2010.05.07, modified 2011.08.03)
AUTHORS: Taguchi R, Graduate School of Medicine, The University of Tokyo
LICENSE: CC BY-NC-SA
PUBLICATION: Taguchi, R.; Ishikawa, M. Precise and Global Identification of Phospholipid Molecular Species by an Orbitrap Mass Spectrometer and Automated Search Engine Lipid Search. Journal of Chromatography A 2010, 1217 (25), 4229–39. DOI:10.1016/j.chroma.2010.04.034
CH$NAME: Phosphatidylcholine 18:0-16:0
CH$COMPOUND_CLASS: Natural Product; Glycerophospholipids; Glycerophosphocholines; Diacylglycerophosphocholines
CH$FORMULA: C42H84NO8P
CH$EXACT_MASS: 761.59346
CH$SMILES: C(CCCCCC)CCCCCCCCCCC(=O)OCC(COP(OCC[N+1](C)(C)C)([O-1])=O)OC(=O)CCCCCCCCCCCCCCC
CH$IUPAC: InChI=1S/C42H84NO8P/c1-6-8-10-12-14-16-18-20-21-23-24-26-28-30-32-34-41(44)48-38-40(39-50-52(46,47)49-37-36-43(3,4)5)51-42(45)35-33-31-29-27-25-22-19-17-15-13-11-9-7-2/h40H,6-39H2,1-5H3
CH$LINK: CAS 10589-48-7
CH$LINK: INCHIKEY BYSIMVBIJVBVPA-UHFFFAOYSA-N
CH$LINK: PUBCHEM CID:10190708
SP$SCIENTIFIC_NAME: Mus musculus
SP$LINEAGE: cellular organisms; Eukaryota; Fungi/Metazoa group; Metazoa; Eumetazoa; Bilateria; Coelomata; Deuterostomia; Chordata; Craniata; Vertebrata; Gnathostomata; Teleostomi; Euteleostomi; Sarcopterygii; Tetrapoda; Amniota; Mammalia; Theria; Eutheria; Euarchontoglires; Glires; Rodentia; Sciurognathi; Muroidea; Muridae; Murinae; Mus
SP$LINK: NCBI-TAXONOMY 10090
SP$SAMPLE: liver
AC$INSTRUMENT: LC-10ADVPmicro HPLC, Shimadzu; LTQ Orbitrap, Thermo Scientific
AC$INSTRUMENT_TYPE: LC-ESI-ITFT
AC$MASS_SPECTROMETRY: MS_TYPE MS2
AC$MASS_SPECTROMETRY: ION_MODE NEGATIVE
AC$MASS_SPECTROMETRY: COLLISION_ENERGY 30%
AC$MASS_SPECTROMETRY: ION_SPRAY_VOLTAGE 3500 V
AC$MASS_SPECTROMETRY: IONIZATION ESI
AC$CHROMATOGRAPHY: COLUMN_NAME Develosil C30, Nomura Chemical
AC$CHROMATOGRAPHY: FLOW_GRADIENT  add 95/5 at 0 min, 70/30 at 40 min, 50/50 at 41 min, 50/50 at 90 min
AC$CHROMATOGRAPHY: FLOW_RATE  add 100 uL/min
AC$CHROMATOGRAPHY: RETENTION_TIME 35.87 min (in paper: 35.8 min)
AC$CHROMATOGRAPHY: SOLVENT A acetonitrile-methanol-water (19:19:2) with 0.1% acetic acid and 0.1% ammonium hydroxide (28%)
AC$CHROMATOGRAPHY: SOLVENT B 2-propanol with 0.1% acetic acid and 0.1% ammonium hydroxide (28%)
MS$FOCUSED_ION: PRECURSOR_M/Z 820.61
MS$FOCUSED_ION: PRECURSOR_TYPE [M+CH3COO]-
MS$DATA_PROCESSING: WHOLE Xcalibur ver-2.0
PK$SPLASH: splash10-0002-0000000900-b44907790ae13f2740ee
PK$ANNOTATION: m/z num type mass error(ppm) formula
  255.25 1 [fa(16:0)-H]- 255.2324052393 69 C16H31O2-
  283.28 1 [fa(18:0)-H]- 283.2637053677 58 C18H35O2-
  462.35 1 [lyso_PC(-,16:0)-H2O]- 462.2984496923 112 C23H45NO6P-
  508.15 1 [lyso_PC(18:0,-)]- 508.340314507 -373 C25H51NO7P-
PK$NUM_PEAK: 22
PK$PEAK: m/z int. rel.int.
  255.25 107.8 6
  283.28 41.2 2
  304.03 9.4 1
  311.10 94.7 5
  329.14 105.3 6
  330.18 37.8 2
  462.35 6.6 1
  508.15 35.1 2
  581.85 13.0 1
  626.53 4.4 1
  656.67 7.8 1
  701.36 17.5 1
  732.24 19.0 1
  733.25 8.3 1
  737.87 19.2 1
  746.14 18715.2 999
  746.92 15.8 1
  760.88 51.9 3
  761.52 32.0 2
  762.49 5.9 1
  770.07 25.2 1
  774.90 4.4 1
//
