ACCESSION: MSBNK-Chubu_Univ-UT001954
RECORD_TITLE: Phosphatidylglyceride 18:1-22:5; LC-ESI-ITFT; MS2; [M-H]-; RT: 10.35; Exp: 2
DATE: 2016.01.19 (Created 2010.05.07, modified 2013.05.16)
AUTHORS: Taguchi R, Graduate School of Medicine, The University of Tokyo
LICENSE: CC BY-NC-SA
PUBLICATION: Taguchi, R.; Ishikawa, M. Precise and Global Identification of Phospholipid Molecular Species by an Orbitrap Mass Spectrometer and Automated Search Engine Lipid Search. Journal of Chromatography A 2010, 1217 (25), 4229–39. DOI:10.1016/j.chroma.2010.04.034
CH$NAME: Phosphatidylglyceride 18:1-22:5
CH$COMPOUND_CLASS: Natural Product; Glycerophospholipids; Glycerophosphoglycerols; Diacylglycerophosphoglycerols
CH$FORMULA: C46H79O10P
CH$EXACT_MASS: 822.54109
CH$SMILES: C(CC=CCC=CCCC(OC(COP(OCC(CO)O)(O)=O)COC(=O)CCC=CCCCCCCCCCCCCC)=O)=CCC=CCC=CCCCCC
CH$IUPAC: InChI=1S/C46H79O10P/c1-3-5-7-9-11-13-15-17-19-20-21-22-24-26-28-30-32-34-36-38-46(50)56-44(42-55-57(51,52)54-40-43(48)39-47)41-53-45(49)37-35-33-31-29-27-25-23-18-16-14-12-10-8-6-4-2/h11,13,17,19,21-22,26,28,31-34,43-44,47-48H,3-10,12,14-16,18,20,23-25,27,29-30,35-42H2,1-2H3,(H,51,52)/b13-11-,19-17-,22-21-,28-26-,33-31-,34-32-
CH$LINK: INCHIKEY SDJOKCPHTLSGSK-RRIMUHHXSA-N
SP$SCIENTIFIC_NAME: Mus musculus
SP$LINEAGE: cellular organisms; Eukaryota; Fungi/Metazoa group; Metazoa; Eumetazoa; Bilateria; Coelomata; Deuterostomia; Chordata; Craniata; Vertebrata; Gnathostomata; Teleostomi; Euteleostomi; Sarcopterygii; Tetrapoda; Amniota; Mammalia; Theria; Eutheria; Euarchontoglires; Glires; Rodentia; Sciurognathi; Muroidea; Muridae; Murinae; Mus
SP$LINK: NCBI-TAXONOMY 10090
SP$SAMPLE: liver
AC$INSTRUMENT: LC-10ADVPmicro HPLC, Shimadzu; LTQ Orbitrap, Thermo Scientific
AC$INSTRUMENT_TYPE: LC-ESI-ITFT
AC$MASS_SPECTROMETRY: MS_TYPE MS2
AC$MASS_SPECTROMETRY: ION_MODE NEGATIVE
AC$MASS_SPECTROMETRY: COLLISION_ENERGY 30%
AC$MASS_SPECTROMETRY: ION_SPRAY_VOLTAGE 3500 V
AC$MASS_SPECTROMETRY: IONIZATION ESI
AC$CHROMATOGRAPHY: COLUMN_NAME Develosil C30, Nomura Chemical
AC$CHROMATOGRAPHY: FLOW_GRADIENT add 95/5 at 0 min, 70/30 at 40 min, 50/50 at 41 min, 50/50 at 90 min
AC$CHROMATOGRAPHY: FLOW_RATE add 100 uL/min
AC$CHROMATOGRAPHY: RETENTION_TIME 10.34 min (in paper: 10.4 min)
AC$CHROMATOGRAPHY: SOLVENT A acetonitrile-methanol-water (19:19:2) with 0.1% acetic acid and 0.1% ammonium hydroxide (28%)
AC$CHROMATOGRAPHY: SOLVENT B 2-propanol with 0.1% acetic acid and 0.1% ammonium hydroxide (28%)
MS$FOCUSED_ION: PRECURSOR_M/Z 821.53
MS$FOCUSED_ION: PRECURSOR_TYPE [M-H]-
MS$DATA_PROCESSING: WHOLE Xcalibur ver-2.0
PK$SPLASH: splash10-003r-0096000200-8dfbaede19ebd56e4397
PK$ANNOTATION: m/z num type mass error(ppm) formula
  281.11 1 [fa(18:1)-H]- 281.2480553035 -490 C18H33O2-
  285.02 1 [fa(22:5)-H-CO2]- 285.2582260593 -834 C21H33-
  329.18 1 [fa(22:5)-H]- 329.2480553035 -206 C22H33O2-
  509.35 1 [lyso_PG(18:1,-)]- 509.2879445855 122 C24H46O9P-
  777.59 1 [PG(18:1,22:5)-H-CO2]- 777.5434309906 60 C45H78O8P-
PK$NUM_PEAK: 17
PK$PEAK: m/z int. rel.int.
  243.05 11.1 41
  281.11 270.6 999
  282.21 8.9 33
  283.24 15.5 57
  285.02 18.7 69
  329.18 204.1 753
  384.93 19.1 71
  417.28 4.9 18
  509.35 12.3 45
  540.23 20.9 77
  644.59 8.3 31
  717.56 7.6 28
  738.66 6.6 24
  761.05 25.0 92
  762.44 13.6 50
  764.40 13.9 51
  777.59 11.7 43
//
