ACCESSION: MSBNK-Chubu_Univ-UT001209
RECORD_TITLE: Phosphatidylglyceride 18:1-18:2; LC-ESI-ITFT; MS2; [M-H]-; RT: 10.90; Exp: 1
DATE: 2016.01.19 (Created 2010.05.07, modified 2013.05.16)
AUTHORS: Taguchi R, Graduate School of Medicine, The University of Tokyo
LICENSE: CC BY-NC-SA
PUBLICATION: Taguchi, R.; Ishikawa, M. Precise and Global Identification of Phospholipid Molecular Species by an Orbitrap Mass Spectrometer and Automated Search Engine Lipid Search. Journal of Chromatography A 2010, 1217 (25), 4229–39. DOI:10.1016/j.chroma.2010.04.034
CH$NAME: Phosphatidylglyceride 18:1-18:2
CH$COMPOUND_CLASS: Natural Product; Glycerophospholipids; Glycerophosphoglycerols; Diacylglycerophosphoglycerols
CH$FORMULA: C42H77O10P
CH$EXACT_MASS: 772.52544
CH$SMILES: O=C(CCC=CCCCCCCCCCCCCC)OCC(COP(OCC(O)CO)(O)=O)OC(=O)CCC=CCC=CCCCCCCCCCC
CH$IUPAC: InChI=1S/C42H77O10P/c1-3-5-7-9-11-13-15-17-19-21-23-25-27-29-31-33-41(45)49-37-40(38-51-53(47,48)50-36-39(44)35-43)52-42(46)34-32-30-28-26-24-22-20-18-16-14-12-10-8-6-4-2/h22,24,27-30,39-40,43-44H,3-21,23,25-26,31-38H2,1-2H3,(H,47,48)/b24-22-,29-27-,30-28-
CH$LINK: INCHIKEY YNBZQPMSTPSIJD-XBCPOCNBSA-N
SP$SCIENTIFIC_NAME: Mus musculus
SP$LINEAGE: cellular organisms; Eukaryota; Fungi/Metazoa group; Metazoa; Eumetazoa; Bilateria; Coelomata; Deuterostomia; Chordata; Craniata; Vertebrata; Gnathostomata; Teleostomi; Euteleostomi; Sarcopterygii; Tetrapoda; Amniota; Mammalia; Theria; Eutheria; Euarchontoglires; Glires; Rodentia; Sciurognathi; Muroidea; Muridae; Murinae; Mus
SP$LINK: NCBI-TAXONOMY 10090
SP$SAMPLE: liver
AC$INSTRUMENT: LC-10ADVPmicro HPLC, Shimadzu; LTQ Orbitrap, Thermo Scientific
AC$INSTRUMENT_TYPE: LC-ESI-ITFT
AC$MASS_SPECTROMETRY: MS_TYPE MS2
AC$MASS_SPECTROMETRY: ION_MODE NEGATIVE
AC$MASS_SPECTROMETRY: COLLISION_ENERGY 30%
AC$MASS_SPECTROMETRY: ION_SPRAY_VOLTAGE 3500 V
AC$MASS_SPECTROMETRY: IONIZATION ESI
AC$CHROMATOGRAPHY: COLUMN_NAME Develosil C30, Nomura Chemical
AC$CHROMATOGRAPHY: FLOW_GRADIENT add 95/5 at 0 min, 70/30 at 40 min, 50/50 at 41 min, 50/50 at 90 min
AC$CHROMATOGRAPHY: FLOW_RATE add 100 uL/min
AC$CHROMATOGRAPHY: RETENTION_TIME 10.70 min (in paper: 10.9 min)
AC$CHROMATOGRAPHY: SOLVENT A acetonitrile-methanol-water (19:19:2) with 0.1% acetic acid and 0.1% ammonium hydroxide (28%)
AC$CHROMATOGRAPHY: SOLVENT B 2-propanol with 0.1% acetic acid and 0.1% ammonium hydroxide (28%)
MS$FOCUSED_ION: PRECURSOR_M/Z 771.52
MS$FOCUSED_ION: PRECURSOR_TYPE [M-H]-
MS$DATA_PROCESSING: WHOLE Xcalibur ver-2.0
PK$SPLASH: splash10-001i-0090000000-4bb3448cbebb768fe723
PK$ANNOTATION: m/z num type mass error(ppm) formula
  279.18 1 [fa(18:2)-H]- 279.2324052393 -187 C18H31O2-
  281.19 1 [fa(18:1)-H]- 281.2480553035 -205 C18H33O2-
  489.26 1 [lyso_PG(-,18:2)-H2O]- 489.261729835 -3 C24H42O8P-
  507.18 1 [lyso_PG(-,18:2)]- 507.2722945213 -181 C24H44O9P-
  509.31 1 [lyso_PG(18:1,-)]- 509.2879445855 43 C24H46O9P-
PK$NUM_PEAK: 17
PK$PEAK: m/z int. rel.int.
  279.18 218.6 696
  280.07 82.0 261
  281.19 313.6 999
  282.20 82.2 262
  298.98 22.1 70
  309.43 18.4 59
  326.41 7.7 25
  365.27 26.2 83
  416.26 17.8 57
  461.59 10.2 32
  489.26 4.3 14
  507.18 27.9 89
  509.31 12.5 40
  510.35 17.2 55
  636.06 26.7 85
  680.53 20.0 64
  710.86 4.3 14
//
