ACCESSION: MSBNK-Chubu_Univ-UT002856
RECORD_TITLE: Phosphatidylethanolamine 18:1-20:5; LC-ESI-ITFT; MS2; [M-H]-; RT: 14.78; Exp: 3
DATE: 2016.01.19 (Created 2010.05.07, modified 2011.08.03)
AUTHORS: Taguchi R, Graduate School of Medicine, The University of Tokyo
LICENSE: CC BY-NC-SA
PUBLICATION: Taguchi, R.; Ishikawa, M. Precise and Global Identification of Phospholipid Molecular Species by an Orbitrap Mass Spectrometer and Automated Search Engine Lipid Search. Journal of Chromatography A 2010, 1217 (25), 4229–39. DOI:10.1016/j.chroma.2010.04.034
CH$NAME: Phosphatidylethanolamine 18:1-20:5
CH$COMPOUND_CLASS: Natural Product; Glycerophospholipids; Glycerophosphoethanolamines; Diacylglycerophosphoethanolamines
CH$FORMULA: C43H74NO8P
CH$EXACT_MASS: 763.51520
CH$SMILES: O(CCN)P(O)(=O)OCC(OC(=O)CCC=CCC=CCC=CCC=CCC=CCCC)COC(CCC=CCCCCCCCCCCCCC)=O
CH$IUPAC: InChI=1S/C43H74NO8P/c1-3-5-7-9-11-13-15-17-19-20-22-24-26-28-30-32-34-36-43(46)52-41(40-51-53(47,48)50-38-37-44)39-49-42(45)35-33-31-29-27-25-23-21-18-16-14-12-10-8-6-4-2/h7,9,13,15,19-20,24,26,29-32,41H,3-6,8,10-12,14,16-18,21-23,25,27-28,33-40,44H2,1-2H3,(H,47,48)/b9-7-,15-13-,20-19-,26-24-,31-29-,32-30-
CH$LINK: INCHIKEY MQYQFMSHGWBKBV-XKMJRSRDSA-N
SP$SCIENTIFIC_NAME: Mus musculus
SP$LINEAGE: cellular organisms; Eukaryota; Fungi/Metazoa group; Metazoa; Eumetazoa; Bilateria; Coelomata; Deuterostomia; Chordata; Craniata; Vertebrata; Gnathostomata; Teleostomi; Euteleostomi; Sarcopterygii; Tetrapoda; Amniota; Mammalia; Theria; Eutheria; Euarchontoglires; Glires; Rodentia; Sciurognathi; Muroidea; Muridae; Murinae; Mus
SP$LINK: NCBI-TAXONOMY 10090
SP$SAMPLE: brain
AC$INSTRUMENT: LC-10ADVPmicro HPLC, Shimadzu; LTQ Orbitrap, Thermo Scientific
AC$INSTRUMENT_TYPE: LC-ESI-ITFT
AC$MASS_SPECTROMETRY: MS_TYPE MS2
AC$MASS_SPECTROMETRY: ION_MODE NEGATIVE
AC$MASS_SPECTROMETRY: COLLISION_ENERGY 30%
AC$MASS_SPECTROMETRY: ION_SPRAY_VOLTAGE 3500 V
AC$MASS_SPECTROMETRY: IONIZATION ESI
AC$CHROMATOGRAPHY: COLUMN_NAME Develosil C30, Nomura Chemical
AC$CHROMATOGRAPHY: FLOW_GRADIENT  add 95/5 at 0 min, 70/30 at 40 min, 50/50 at 41 min, 50/50 at 90 min
AC$CHROMATOGRAPHY: FLOW_RATE  add 100 uL/min
AC$CHROMATOGRAPHY: RETENTION_TIME 14.66 min (in paper: 14.8 min)
AC$CHROMATOGRAPHY: SOLVENT A acetonitrile-methanol-water (19:19:2) with 0.1% acetic acid and 0.1% ammonium hydroxide (28%)
AC$CHROMATOGRAPHY: SOLVENT B 2-propanol with 0.1% acetic acid and 0.1% ammonium hydroxide (28%)
MS$FOCUSED_ION: PRECURSOR_M/Z 762.51
MS$FOCUSED_ION: PRECURSOR_TYPE [M-H]-
MS$DATA_PROCESSING: WHOLE Xcalibur ver-2.0
PK$SPLASH: splash10-0ue9-0079301000-317cb87e02eee8a7330f
PK$ANNOTATION: m/z num type mass error(ppm) formula
  257.19 1 [fa(20:5)-H-CO2]- 257.2269259309 -143 C19H29-
  281.12 1 [fa(18:1)-H]- 281.2480553035 -454 C18H33O2-
  301.02 1 [fa(20:5)-H]- 301.2167551751 -652 C20H29O2-
  478.02 1 [lyso_PE(18:1,-)]- 478.2933643144 -571 C23H45NO7P-
  480.32 1 [lyso_PE(-,20:5)-H2O]- 480.2514994997 143 C25H39NO6P-
PK$NUM_PEAK: 17
PK$PEAK: m/z int. rel.int.
  257.19 16.1 57
  259.19 15.5 55
  264.91 5.8 20
  279.35 60.9 214
  281.12 176.1 620
  282.11 37.7 133
  301.02 283.8 999
  302.92 97.8 344
  478.02 115.0 405
  479.08 23.8 84
  480.32 6.0 21
  497.66 24.3 86
  500.41 26.8 94
  656.74 6.4 23
  684.88 9.8 34
  688.12 22.8 80
  690.45 18.3 64
//
