ACCESSION: MSBNK-Chubu_Univ-UT001377
RECORD_TITLE: Phosphatidylethanolamine 18:0-20:3; LC-ESI-ITFT; MS2; [M-H]-; RT: 30.56; Exp: 1
DATE: 2016.01.19 (Created 2010.05.07, modified 2011.08.03)
AUTHORS: Taguchi R, Graduate School of Medicine, The University of Tokyo
LICENSE: CC BY-NC-SA
PUBLICATION: Taguchi, R.; Ishikawa, M. Precise and Global Identification of Phospholipid Molecular Species by an Orbitrap Mass Spectrometer and Automated Search Engine Lipid Search. Journal of Chromatography A 2010, 1217 (25), 4229–39. DOI:10.1016/j.chroma.2010.04.034
CH$NAME: Phosphatidylethanolamine 18:0-20:3
CH$COMPOUND_CLASS: Natural Product; Glycerophospholipids; Glycerophosphoethanolamines; Diacylglycerophosphoethanolamines
CH$FORMULA: C43H80NO8P
CH$EXACT_MASS: 769.56216
CH$SMILES: C(CCCCCC)CCCCCCCCCCC(OCC(COP(O)(=O)OCCN)OC(=O)CCC=CCC=CCC=CCCCCCCCCC)=O
CH$IUPAC: InChI=1S/C43H80NO8P/c1-3-5-7-9-11-13-15-17-19-20-22-24-26-28-30-32-34-36-43(46)52-41(40-51-53(47,48)50-38-37-44)39-49-42(45)35-33-31-29-27-25-23-21-18-16-14-12-10-8-6-4-2/h19-20,24,26,30,32,41H,3-18,21-23,25,27-29,31,33-40,44H2,1-2H3,(H,47,48)/b20-19-,26-24-,32-30-
CH$LINK: INCHIKEY BDESLISUEJTDHD-JCXYTCFZSA-N
SP$SCIENTIFIC_NAME: Mus musculus
SP$LINEAGE: cellular organisms; Eukaryota; Fungi/Metazoa group; Metazoa; Eumetazoa; Bilateria; Coelomata; Deuterostomia; Chordata; Craniata; Vertebrata; Gnathostomata; Teleostomi; Euteleostomi; Sarcopterygii; Tetrapoda; Amniota; Mammalia; Theria; Eutheria; Euarchontoglires; Glires; Rodentia; Sciurognathi; Muroidea; Muridae; Murinae; Mus
SP$LINK: NCBI-TAXONOMY 10090
SP$SAMPLE: brain
AC$INSTRUMENT: LC-10ADVPmicro HPLC, Shimadzu; LTQ Orbitrap, Thermo Scientific
AC$INSTRUMENT_TYPE: LC-ESI-ITFT
AC$MASS_SPECTROMETRY: MS_TYPE MS2
AC$MASS_SPECTROMETRY: ION_MODE NEGATIVE
AC$MASS_SPECTROMETRY: COLLISION_ENERGY 30%
AC$MASS_SPECTROMETRY: ION_SPRAY_VOLTAGE 3500 V
AC$MASS_SPECTROMETRY: IONIZATION ESI
AC$CHROMATOGRAPHY: COLUMN_NAME Develosil C30, Nomura Chemical
AC$CHROMATOGRAPHY: FLOW_GRADIENT  add 95/5 at 0 min, 70/30 at 40 min, 50/50 at 41 min, 50/50 at 90 min
AC$CHROMATOGRAPHY: FLOW_RATE  add 100 uL/min
AC$CHROMATOGRAPHY: RETENTION_TIME 30.69 min (in paper: 30.3 min)
AC$CHROMATOGRAPHY: SOLVENT A acetonitrile-methanol-water (19:19:2) with 0.1% acetic acid and 0.1% ammonium hydroxide (28%)
AC$CHROMATOGRAPHY: SOLVENT B 2-propanol with 0.1% acetic acid and 0.1% ammonium hydroxide (28%)
MS$FOCUSED_ION: PRECURSOR_M/Z 768.55
MS$FOCUSED_ION: PRECURSOR_TYPE [M-H]-
MS$DATA_PROCESSING: WHOLE Xcalibur ver-2.0
PK$SPLASH: splash10-0a4i-0039100000-a3fc241e5be3890b0f48
PK$ANNOTATION: m/z num type mass error(ppm) formula
  261.14 1 [fa(20:3)-H-CO2]- 261.2582260593 -452 C19H33-
  283.13 1 [fa(18:0)-H]- 283.2637053677 -471 C18H35O2-
  305.03 1 [fa(20:3)-H]- 305.2480553035 -713 C20H33O2-
  462.27 1 [lyso_PE(18:0,-)-H2O]- 462.2984496923 -61 C23H45NO6P-
  480.11 1 [lyso_PE(18:0,-)]- 480.3090143786 -413 C23H47NO7P-
  484.03 1 [lyso_PE(-,20:3)-H2O]- 484.2827996281 -521 C25H43NO6P-
  502.17 1 [lyso_PE(-,20:3)]- 502.2933643144 -245 C25H45NO7P-
PK$NUM_PEAK: 23
PK$PEAK: m/z int. rel.int.
  261.14 13.7 2
  262.08 24.5 4
  283.13 2277.2 381
  284.16 391.8 65
  303.29 52.4 9
  305.03 5975.8 999
  306.06 765.5 128
  307.14 5.3 1
  333.09 7.1 1
  441.05 6.4 1
  462.27 54.4 9
  463.31 10.5 2
  480.11 910.8 152
  481.27 95.4 16
  484.03 37.3 6
  484.73 23.8 4
  485.47 11.4 2
  502.17 84.1 14
  503.13 6.9 1
  679.32 13.2 2
  700.30 23.6 4
  726.12 7.6 1
  741.29 15.9 3
//
