ACCESSION: MSBNK-Chubu_Univ-UT001857
RECORD_TITLE: Phosphatidylethanolamine 17:1-18:2; LC-ESI-ITFT; MS2; [M-H]-; RT: 16.85; Exp: 2
DATE: 2016.01.19 (Created 2010.05.07, modified 2011.08.03)
AUTHORS: Taguchi R, Graduate School of Medicine, The University of Tokyo
LICENSE: CC BY-NC-SA
PUBLICATION: Taguchi, R.; Ishikawa, M. Precise and Global Identification of Phospholipid Molecular Species by an Orbitrap Mass Spectrometer and Automated Search Engine Lipid Search. Journal of Chromatography A 2010, 1217 (25), 4229–39. DOI:10.1016/j.chroma.2010.04.034
CH$NAME: Phosphatidylethanolamine 17:1-18:2
CH$COMPOUND_CLASS: Natural Product; Glycerophospholipids; Glycerophosphoethanolamines; Diacylglycerophosphoethanolamines
CH$FORMULA: C40H74NO8P
CH$EXACT_MASS: 727.51520
CH$SMILES: C(CC(=O)OCC(OC(CCC=CCC=CCCCCCCCCCC)=O)COP(O)(=O)OCCN)C=CCCCCCCCCCCCC
CH$IUPAC: InChI=1S/C40H74NO8P/c1-3-5-7-9-11-13-15-17-19-21-23-25-27-29-31-33-40(43)49-38(37-48-50(44,45)47-35-34-41)36-46-39(42)32-30-28-26-24-22-20-18-16-14-12-10-8-6-4-2/h21,23,26-29,38H,3-20,22,24-25,30-37,41H2,1-2H3,(H,44,45)/b23-21-,28-26-,29-27-
CH$LINK: INCHIKEY NXIAGSLBMLOYBM-ONGBHLIUSA-N
SP$SCIENTIFIC_NAME: Mus musculus
SP$LINEAGE: cellular organisms; Eukaryota; Fungi/Metazoa group; Metazoa; Eumetazoa; Bilateria; Coelomata; Deuterostomia; Chordata; Craniata; Vertebrata; Gnathostomata; Teleostomi; Euteleostomi; Sarcopterygii; Tetrapoda; Amniota; Mammalia; Theria; Eutheria; Euarchontoglires; Glires; Rodentia; Sciurognathi; Muroidea; Muridae; Murinae; Mus
SP$LINK: NCBI-TAXONOMY 10090
SP$SAMPLE: liver
AC$INSTRUMENT: LC-10ADVPmicro HPLC, Shimadzu; LTQ Orbitrap, Thermo Scientific
AC$INSTRUMENT_TYPE: LC-ESI-ITFT
AC$MASS_SPECTROMETRY: MS_TYPE MS2
AC$MASS_SPECTROMETRY: ION_MODE NEGATIVE
AC$MASS_SPECTROMETRY: COLLISION_ENERGY 30%
AC$MASS_SPECTROMETRY: ION_SPRAY_VOLTAGE 3500 V
AC$MASS_SPECTROMETRY: IONIZATION ESI
AC$CHROMATOGRAPHY: COLUMN_NAME Develosil C30, Nomura Chemical
AC$CHROMATOGRAPHY: FLOW_GRADIENT  add 95/5 at 0 min, 70/30 at 40 min, 50/50 at 41 min, 50/50 at 90 min
AC$CHROMATOGRAPHY: FLOW_RATE  add 100 uL/min
AC$CHROMATOGRAPHY: RETENTION_TIME 17.05 min (in paper: 16.9 min)
AC$CHROMATOGRAPHY: SOLVENT A acetonitrile-methanol-water (19:19:2) with 0.1% acetic acid and 0.1% ammonium hydroxide (28%)
AC$CHROMATOGRAPHY: SOLVENT B 2-propanol with 0.1% acetic acid and 0.1% ammonium hydroxide (28%)
MS$FOCUSED_ION: PRECURSOR_M/Z 726.51
MS$FOCUSED_ION: PRECURSOR_TYPE [M-H]-
MS$DATA_PROCESSING: WHOLE Xcalibur ver-2.0
PK$SPLASH: splash10-004i-0090100000-243f93bc19ce68522c71
PK$ANNOTATION: m/z num type mass error(ppm) formula
  267.23 1 [fa(17:1)-H]- 267.2324052393 -8 C17H31O2-
  279.08 1 [fa(18:2)-H]- 279.2324052393 -545 C18H31O2-
  464.14 1 [lyso_PE(17:1,-)]- 464.2777142502 -296 C22H43NO7P-
PK$NUM_PEAK: 8
PK$PEAK: m/z int. rel.int.
  255.08 17.9 42
  267.23 146.6 342
  268.04 5.3 12
  276.96 9.5 22
  279.08 428.1 999
  280.06 36.1 84
  281.21 31.0 72
  464.14 109.9 256
//
