ACCESSION: MSBNK-Chubu_Univ-UT001396
RECORD_TITLE: Phosphatidylethanolamine 20:4-22:6; LC-ESI-ITFT; MS2; [M-H]-; RT: 10.94; Exp: 1
DATE: 2016.01.19 (Created 2010.05.07, modified 2011.08.03)
AUTHORS: Taguchi R, Graduate School of Medicine, The University of Tokyo
LICENSE: CC BY-NC-SA
PUBLICATION: Taguchi, R.; Ishikawa, M. Precise and Global Identification of Phospholipid Molecular Species by an Orbitrap Mass Spectrometer and Automated Search Engine Lipid Search. Journal of Chromatography A 2010, 1217 (25), 4229–39. DOI:10.1016/j.chroma.2010.04.034
CH$NAME: Phosphatidylethanolamine 20:4-22:6
CH$COMPOUND_CLASS: Natural Product; Glycerophospholipids; Glycerophosphoethanolamines; Diacylglycerophosphoethanolamines
CH$FORMULA: C47H74NO8P
CH$EXACT_MASS: 811.51520
CH$SMILES: C(CC=CCC=CCCCCCC)=CCC=CCCC(OCC(OC(CCC=CCC=CCC=CCC=CCC=CCC=CCC)=O)COP(O)(=O)OCCN)=O
CH$IUPAC: InChI=1S/C47H74NO8P/c1-3-5-7-9-11-13-15-17-19-21-22-24-26-28-30-32-34-36-38-40-47(50)56-45(44-55-57(51,52)54-42-41-48)43-53-46(49)39-37-35-33-31-29-27-25-23-20-18-16-14-12-10-8-6-4-2/h5,7,11,13-14,16-17,19-20,22-24,27-30,33-36,45H,3-4,6,8-10,12,15,18,21,25-26,31-32,37-44,48H2,1-2H3,(H,51,52)/b7-5-,13-11-,16-14-,19-17-,23-20-,24-22-,29-27-,30-28-,35-33-,36-34-
CH$LINK: INCHIKEY QYRBWBWQALDZGP-YARNEYDXSA-N
SP$SCIENTIFIC_NAME: Mus musculus
SP$LINEAGE: cellular organisms; Eukaryota; Fungi/Metazoa group; Metazoa; Eumetazoa; Bilateria; Coelomata; Deuterostomia; Chordata; Craniata; Vertebrata; Gnathostomata; Teleostomi; Euteleostomi; Sarcopterygii; Tetrapoda; Amniota; Mammalia; Theria; Eutheria; Euarchontoglires; Glires; Rodentia; Sciurognathi; Muroidea; Muridae; Murinae; Mus
SP$LINK: NCBI-TAXONOMY 10090
SP$SAMPLE: brain
AC$INSTRUMENT: LC-10ADVPmicro HPLC, Shimadzu; LTQ Orbitrap, Thermo Scientific
AC$INSTRUMENT_TYPE: LC-ESI-ITFT
AC$MASS_SPECTROMETRY: MS_TYPE MS2
AC$MASS_SPECTROMETRY: ION_MODE NEGATIVE
AC$MASS_SPECTROMETRY: COLLISION_ENERGY 30%
AC$MASS_SPECTROMETRY: ION_SPRAY_VOLTAGE 3500 V
AC$MASS_SPECTROMETRY: IONIZATION ESI
AC$CHROMATOGRAPHY: COLUMN_NAME Develosil C30, Nomura Chemical
AC$CHROMATOGRAPHY: FLOW_GRADIENT  add 95/5 at 0 min, 70/30 at 40 min, 50/50 at 41 min, 50/50 at 90 min
AC$CHROMATOGRAPHY: FLOW_RATE  add 100 uL/min
AC$CHROMATOGRAPHY: RETENTION_TIME 10.75 min (in paper: 11 min)
AC$CHROMATOGRAPHY: SOLVENT A acetonitrile-methanol-water (19:19:2) with 0.1% acetic acid and 0.1% ammonium hydroxide (28%)
AC$CHROMATOGRAPHY: SOLVENT B 2-propanol with 0.1% acetic acid and 0.1% ammonium hydroxide (28%)
MS$FOCUSED_ION: PRECURSOR_M/Z 810.51
MS$FOCUSED_ION: PRECURSOR_TYPE [M-H]-
MS$DATA_PROCESSING: WHOLE Xcalibur ver-2.0
PK$SPLASH: splash10-0ufr-0019030100-86844a2fb8780e482995
PK$ANNOTATION: m/z num type mass error(ppm) formula
  259.09 1 [fa(20:4)-H-CO2]- 259.2425759951 -588 C19H31-
  283.19 1 [fa(22:6)-H-CO2]- 283.2425759951 -185 C21H31-
  303.01 1 [fa(20:4)-H]- 303.2324052393 -732 C20H31O2-
  327.07 1 [fa(22:6)-H]- 327.2324052393 -495 C22H31O2-
  500.10 1 [lyso_PE(20:4,-)]- 500.2777142502 -354 C25H43NO7P-
  506.35 1 [lyso_PE(-,22:6)-H2O]- 506.2671495639 164 C27H41NO6P-
  524.08 1 [lyso_PE(-,22:6)]- 524.2777142502 -376 C27H43NO7P-
PK$NUM_PEAK: 18
PK$PEAK: m/z int. rel.int.
  259.09 25.8 65
  283.19 85.1 213
  284.15 17.8 45
  303.01 399.2 999
  304.20 113.9 285
  327.07 260.5 652
  328.12 50.0 125
  482.94 11.6 29
  500.10 90.6 227
  500.98 26.8 67
  506.35 15.0 38
  524.08 117.8 295
  525.06 34.8 87
  723.00 14.7 37
  724.03 52.0 130
  760.09 50.9 127
  791.69 10.4 26
  793.56 8.9 22
//
