ACCESSION: MSBNK-Chubu_Univ-UT001839
RECORD_TITLE: Phosphatidylethanolamine 16:0-18:1; LC-ESI-ITFT; MS2; [M-H]-; RT: 26.55; Exp: 2
DATE: 2016.01.19 (Created 2010.05.07, modified 2011.08.03)
AUTHORS: Taguchi R, Graduate School of Medicine, The University of Tokyo
LICENSE: CC BY-NC-SA
PUBLICATION: Taguchi, R.; Ishikawa, M. Precise and Global Identification of Phospholipid Molecular Species by an Orbitrap Mass Spectrometer and Automated Search Engine Lipid Search. Journal of Chromatography A 2010, 1217 (25), 4229–39. DOI:10.1016/j.chroma.2010.04.034
CH$NAME: Phosphatidylethanolamine 16:0-18:1
CH$COMPOUND_CLASS: Natural Product; Glycerophospholipids; Glycerophosphoethanolamines; Diacylglycerophosphoethanolamines
CH$FORMULA: C39H76NO8P
CH$EXACT_MASS: 717.53085
CH$SMILES: C(CCCCCCCCC=CCCC(=O)OC(COC(CCCCCCCCCCCCCCC)=O)COP(OCCN)(O)=O)CCCC
CH$IUPAC: InChI=1S/C39H76NO8P/c1-3-5-7-9-11-13-15-17-18-20-22-24-26-28-30-32-39(42)48-37(36-47-49(43,44)46-34-33-40)35-45-38(41)31-29-27-25-23-21-19-16-14-12-10-8-6-4-2/h26,28,37H,3-25,27,29-36,40H2,1-2H3,(H,43,44)/b28-26-
CH$LINK: INCHIKEY RECBGBLFDMTQRS-SGEDCAFJSA-N
SP$SCIENTIFIC_NAME: Mus musculus
SP$LINEAGE: cellular organisms; Eukaryota; Fungi/Metazoa group; Metazoa; Eumetazoa; Bilateria; Coelomata; Deuterostomia; Chordata; Craniata; Vertebrata; Gnathostomata; Teleostomi; Euteleostomi; Sarcopterygii; Tetrapoda; Amniota; Mammalia; Theria; Eutheria; Euarchontoglires; Glires; Rodentia; Sciurognathi; Muroidea; Muridae; Murinae; Mus
SP$LINK: NCBI-TAXONOMY 10090
SP$SAMPLE: liver
AC$INSTRUMENT: LC-10ADVPmicro HPLC, Shimadzu; LTQ Orbitrap, Thermo Scientific
AC$INSTRUMENT_TYPE: LC-ESI-ITFT
AC$MASS_SPECTROMETRY: MS_TYPE MS2
AC$MASS_SPECTROMETRY: ION_MODE NEGATIVE
AC$MASS_SPECTROMETRY: COLLISION_ENERGY 30%
AC$MASS_SPECTROMETRY: ION_SPRAY_VOLTAGE 3500 V
AC$MASS_SPECTROMETRY: IONIZATION ESI
AC$CHROMATOGRAPHY: COLUMN_NAME Develosil C30, Nomura Chemical
AC$CHROMATOGRAPHY: FLOW_GRADIENT  add 95/5 at 0 min, 70/30 at 40 min, 50/50 at 41 min, 50/50 at 90 min
AC$CHROMATOGRAPHY: FLOW_RATE  add 100 uL/min
AC$CHROMATOGRAPHY: RETENTION_TIME 26.56 min (in paper: 26.6 min)
AC$CHROMATOGRAPHY: SOLVENT A acetonitrile-methanol-water (19:19:2) with 0.1% acetic acid and 0.1% ammonium hydroxide (28%)
AC$CHROMATOGRAPHY: SOLVENT B 2-propanol with 0.1% acetic acid and 0.1% ammonium hydroxide (28%)
MS$FOCUSED_ION: PRECURSOR_M/Z 716.52
MS$FOCUSED_ION: PRECURSOR_TYPE [M-H]-
MS$DATA_PROCESSING: WHOLE Xcalibur ver-2.0
PK$SPLASH: splash10-001i-0090100000-6a7a02a7a968db2060ad
PK$ANNOTATION: m/z num type mass error(ppm) formula
  255.11 1 [fa(16:0)-H]- 255.2324052393 -479 C16H31O2-
  281.06 1 [fa(18:1)-H]- 281.2480553035 -668 C18H33O2-
  434.08 2 [lyso_PE(-,18:1)-CO2]- 434.3035350702 -514 C22H45NO5P-
  434.08 2 [lyso_PE(16:0,-)-H2O]- 434.2671495639 -430 C21H41NO6P-
  452.15 1 [lyso_PE(16:0,-)]- 452.2777142502 -281 C21H43NO7P-
  478.17 1 [lyso_PE(-,18:1)]- 478.2933643144 -257 C23H45NO7P-
PK$NUM_PEAK: 13
PK$PEAK: m/z int. rel.int.
  255.11 4833.2 285
  256.12 166.2 10
  263.00 12.6 1
  281.06 16923.1 999
  282.16 499.0 29
  390.91 36.7 2
  434.08 164.3 10
  452.15 1845.5 109
  453.19 145.4 9
  459.98 87.7 5
  478.17 332.7 20
  479.22 47.1 3
  584.96 25.9 2
//
