ACCESSION: MSBNK-Chubu_Univ-UT001150
RECORD_TITLE: Phosphatidylethanolamine 20:0-18:2; LC-ESI-ITFT; MS2; [M-H]-; RT: 37.71; Exp: 1
DATE: 2016.01.19 (Created 2010.05.07, modified 2011.08.03)
AUTHORS: Taguchi R, Graduate School of Medicine, The University of Tokyo
LICENSE: CC BY-NC-SA
PUBLICATION: Taguchi, R.; Ishikawa, M. Precise and Global Identification of Phospholipid Molecular Species by an Orbitrap Mass Spectrometer and Automated Search Engine Lipid Search. Journal of Chromatography A 2010, 1217 (25), 4229–39. DOI:10.1016/j.chroma.2010.04.034
CH$NAME: Phosphatidylethanolamine 20:0-18:2
CH$COMPOUND_CLASS: Natural Product; Glycerophospholipids; Glycerophosphoethanolamines; Diacylglycerophosphoethanolamines
CH$FORMULA: C43H82NO8P
CH$EXACT_MASS: 771.57781
CH$SMILES: OP(=O)(OCCN)OCC(COC(=O)CCCCCCCCCCCCCCCCCCC)OC(=O)CCC=CCC=CCCCCCCCCCC
CH$IUPAC: InChI=1S/C43H82NO8P/c1-3-5-7-9-11-13-15-17-19-20-22-23-25-27-29-31-33-35-42(45)49-39-41(40-51-53(47,48)50-38-37-44)52-43(46)36-34-32-30-28-26-24-21-18-16-14-12-10-8-6-4-2/h24,26,30,32,41H,3-23,25,27-29,31,33-40,44H2,1-2H3,(H,47,48)/b26-24-,32-30-
CH$LINK: INCHIKEY VWYTUCQACXRPSI-QIPJBBGZSA-N
SP$SCIENTIFIC_NAME: Mus musculus
SP$LINEAGE: cellular organisms; Eukaryota; Fungi/Metazoa group; Metazoa; Eumetazoa; Bilateria; Coelomata; Deuterostomia; Chordata; Craniata; Vertebrata; Gnathostomata; Teleostomi; Euteleostomi; Sarcopterygii; Tetrapoda; Amniota; Mammalia; Theria; Eutheria; Euarchontoglires; Glires; Rodentia; Sciurognathi; Muroidea; Muridae; Murinae; Mus
SP$LINK: NCBI-TAXONOMY 10090
SP$SAMPLE: liver
AC$INSTRUMENT: LC-10ADVPmicro HPLC, Shimadzu; LTQ Orbitrap, Thermo Scientific
AC$INSTRUMENT_TYPE: LC-ESI-ITFT
AC$MASS_SPECTROMETRY: MS_TYPE MS2
AC$MASS_SPECTROMETRY: ION_MODE NEGATIVE
AC$MASS_SPECTROMETRY: COLLISION_ENERGY 30%
AC$MASS_SPECTROMETRY: ION_SPRAY_VOLTAGE 3500 V
AC$MASS_SPECTROMETRY: IONIZATION ESI
AC$CHROMATOGRAPHY: COLUMN_NAME Develosil C30, Nomura Chemical
AC$CHROMATOGRAPHY: FLOW_GRADIENT  add 95/5 at 0 min, 70/30 at 40 min, 50/50 at 41 min, 50/50 at 90 min
AC$CHROMATOGRAPHY: FLOW_RATE  add 100 uL/min
AC$CHROMATOGRAPHY: RETENTION_TIME 37.56 min (in paper: 37.7 min)
AC$CHROMATOGRAPHY: SOLVENT A acetonitrile-methanol-water (19:19:2) with 0.1% acetic acid and 0.1% ammonium hydroxide (28%)
AC$CHROMATOGRAPHY: SOLVENT B 2-propanol with 0.1% acetic acid and 0.1% ammonium hydroxide (28%)
MS$FOCUSED_ION: PRECURSOR_M/Z 770.57
MS$FOCUSED_ION: PRECURSOR_TYPE [M-H]-
MS$DATA_PROCESSING: WHOLE Xcalibur ver-2.0
PK$SPLASH: splash10-004i-0094010000-3fc78971ba19d37b7436
PK$ANNOTATION: m/z num type mass error(ppm) formula
  279.04 1 [fa(18:2)-H]- 279.2324052393 -688 C18H31O2-
  311.16 1 [fa(20:0)-H]- 311.2950054961 -433 C20H39O2-
  458.38 1 [lyso_PE(-,18:2)-H2O]- 458.2671495639 246 C23H41NO6P-
  476.19 1 [lyso_PE(-,18:2)]- 476.2777142502 -183 C23H43NO7P-
  490.14 1 [lyso_PE(20:0,-)-H2O]- 490.3297498207 -386 C25H49NO6P-
PK$NUM_PEAK: 14
PK$PEAK: m/z int. rel.int.
  243.48 9.2 2
  279.04 5077.7 999
  280.10 549.7 108
  311.16 2306.1 454
  312.28 377.3 74
  457.77 27.8 5
  458.38 22.4 4
  476.19 4.7 1
  477.08 10.9 2
  490.14 79.2 16
  508.01 891.5 175
  509.08 148.5 29
  567.67 22.5 4
  695.72 7.5 1
//
