ACCESSION: MSBNK-Chubu_Univ-UT002751
RECORD_TITLE: Phosphatidylcholine 14:0-20:4; LC-ESI-ITFT; MS2; [M+CH3COO]-; RT: 12.34; Exp: 3
DATE: 2016.01.19 (Created 2010.05.07, modified 2011.08.03)
AUTHORS: Taguchi R, Graduate School of Medicine, The University of Tokyo
LICENSE: CC BY-NC-SA
PUBLICATION: Taguchi, R.; Ishikawa, M. Precise and Global Identification of Phospholipid Molecular Species by an Orbitrap Mass Spectrometer and Automated Search Engine Lipid Search. Journal of Chromatography A 2010, 1217 (25), 4229–39. DOI:10.1016/j.chroma.2010.04.034
CH$NAME: Phosphatidylcholine 14:0-20:4
CH$COMPOUND_CLASS: Natural Product; Glycerophospholipids; Glycerophosphocholines; Diacylglycerophosphocholines
CH$FORMULA: C42H76NO8P
CH$EXACT_MASS: 753.53085
CH$SMILES: C(COP([O-1])(=O)OCC(OC(=O)CCC=CCC=CCC=CCC=CCCCCCC)COC(=O)CCCCCCCCCCCCC)[N+1](C)(C)C
CH$IUPAC: InChI=1S/C42H76NO8P/c1-6-8-10-12-14-16-18-19-20-21-22-23-25-27-29-31-33-35-42(45)51-40(39-50-52(46,47)49-37-36-43(3,4)5)38-48-41(44)34-32-30-28-26-24-17-15-13-11-9-7-2/h16,18,20-21,23,25,29,31,40H,6-15,17,19,22,24,26-28,30,32-39H2,1-5H3/b18-16-,21-20-,25-23-,31-29-
CH$LINK: INCHIKEY LTAXKUDPWVWJJR-VONYRGFMSA-N
SP$SCIENTIFIC_NAME: Mus musculus
SP$LINEAGE: cellular organisms; Eukaryota; Fungi/Metazoa group; Metazoa; Eumetazoa; Bilateria; Coelomata; Deuterostomia; Chordata; Craniata; Vertebrata; Gnathostomata; Teleostomi; Euteleostomi; Sarcopterygii; Tetrapoda; Amniota; Mammalia; Theria; Eutheria; Euarchontoglires; Glires; Rodentia; Sciurognathi; Muroidea; Muridae; Murinae; Mus
SP$LINK: NCBI-TAXONOMY 10090
SP$SAMPLE: brain
AC$INSTRUMENT: LC-10ADVPmicro HPLC, Shimadzu; LTQ Orbitrap, Thermo Scientific
AC$INSTRUMENT_TYPE: LC-ESI-ITFT
AC$MASS_SPECTROMETRY: MS_TYPE MS2
AC$MASS_SPECTROMETRY: ION_MODE NEGATIVE
AC$MASS_SPECTROMETRY: COLLISION_ENERGY 30%
AC$MASS_SPECTROMETRY: ION_SPRAY_VOLTAGE 3500 V
AC$MASS_SPECTROMETRY: IONIZATION ESI
AC$CHROMATOGRAPHY: COLUMN_NAME Develosil C30, Nomura Chemical
AC$CHROMATOGRAPHY: FLOW_GRADIENT  add 95/5 at 0 min, 70/30 at 40 min, 50/50 at 41 min, 50/50 at 90 min
AC$CHROMATOGRAPHY: FLOW_RATE  add 100 uL/min
AC$CHROMATOGRAPHY: RETENTION_TIME 12.42 min (in paper: 12.3 min)
AC$CHROMATOGRAPHY: SOLVENT A acetonitrile-methanol-water (19:19:2) with 0.1% acetic acid and 0.1% ammonium hydroxide (28%)
AC$CHROMATOGRAPHY: SOLVENT B 2-propanol with 0.1% acetic acid and 0.1% ammonium hydroxide (28%)
MS$FOCUSED_ION: PRECURSOR_M/Z 812.54
MS$FOCUSED_ION: PRECURSOR_TYPE [M+CH3COO]-
MS$DATA_PROCESSING: WHOLE Xcalibur ver-2.0
PK$SPLASH: splash10-000i-0000000900-d90e94cf630e70846594
PK$ANNOTATION: m/z num type mass error(ppm) formula
  738.80 1 [PC(14:0,20:4)-CH3]- 738.5073798353 396 C41H73NO8P-
  768.37 1 [PC(14:0,20:4)+CH3COO-CO2]- 768.5543300279 -239 C43H79NO8P-
PK$NUM_PEAK: 9
PK$PEAK: m/z int. rel.int.
  502.37 23.7 65
  698.75 8.5 23
  734.44 4.3 12
  737.95 364.6 999
  738.80 40.6 111
  752.72 11.1 30
  768.37 8.4 23
  769.43 22.4 61
  783.80 19.0 52
//
