ACCESSION: MSBNK-Chubu_Univ-UT001040
RECORD_TITLE: Phosphatidylcholine 18:0-18:1; LC-ESI-ITFT; MS2; [M+CH3COO]-; RT: 33.72; Exp: 1
DATE: 2016.01.19 (Created 2010.05.07, modified 2011.08.03)
AUTHORS: Taguchi R, Graduate School of Medicine, The University of Tokyo
LICENSE: CC BY-NC-SA
PUBLICATION: Taguchi, R.; Ishikawa, M. Precise and Global Identification of Phospholipid Molecular Species by an Orbitrap Mass Spectrometer and Automated Search Engine Lipid Search. Journal of Chromatography A 2010, 1217 (25), 4229–39. DOI:10.1016/j.chroma.2010.04.034
CH$NAME: Phosphatidylcholine 18:0-18:1
CH$COMPOUND_CLASS: Natural Product; Glycerophospholipids; Glycerophosphocholines; Diacylglycerophosphocholines
CH$FORMULA: C44H86NO8P
CH$EXACT_MASS: 787.60911
CH$SMILES: C(CCCCCCCCC)CCCC=CCCC(=O)OC(COP(OCC[N+1](C)(C)C)([O-1])=O)COC(CCCCCCCCCCCCCCCCC)=O
CH$IUPAC: InChI=1S/C44H86NO8P/c1-6-8-10-12-14-16-18-20-22-24-26-28-30-32-34-36-43(46)50-40-42(41-52-54(48,49)51-39-38-45(3,4)5)53-44(47)37-35-33-31-29-27-25-23-21-19-17-15-13-11-9-7-2/h31,33,42H,6-30,32,34-41H2,1-5H3/b33-31-
CH$LINK: INCHIKEY OBRNLVIDOVBLPU-FPODKLOTSA-N
SP$SCIENTIFIC_NAME: Mus musculus
SP$LINEAGE: cellular organisms; Eukaryota; Fungi/Metazoa group; Metazoa; Eumetazoa; Bilateria; Coelomata; Deuterostomia; Chordata; Craniata; Vertebrata; Gnathostomata; Teleostomi; Euteleostomi; Sarcopterygii; Tetrapoda; Amniota; Mammalia; Theria; Eutheria; Euarchontoglires; Glires; Rodentia; Sciurognathi; Muroidea; Muridae; Murinae; Mus
SP$LINK: NCBI-TAXONOMY 10090
SP$SAMPLE: liver
AC$INSTRUMENT: LC-10ADVPmicro HPLC, Shimadzu; LTQ Orbitrap, Thermo Scientific
AC$INSTRUMENT_TYPE: LC-ESI-ITFT
AC$MASS_SPECTROMETRY: MS_TYPE MS2
AC$MASS_SPECTROMETRY: ION_MODE NEGATIVE
AC$MASS_SPECTROMETRY: COLLISION_ENERGY 30%
AC$MASS_SPECTROMETRY: ION_SPRAY_VOLTAGE 3500 V
AC$MASS_SPECTROMETRY: IONIZATION ESI
AC$CHROMATOGRAPHY: COLUMN_NAME Develosil C30, Nomura Chemical
AC$CHROMATOGRAPHY: FLOW_GRADIENT  add 95/5 at 0 min, 70/30 at 40 min, 50/50 at 41 min, 50/50 at 90 min
AC$CHROMATOGRAPHY: FLOW_RATE  add 100 uL/min
AC$CHROMATOGRAPHY: RETENTION_TIME 33.77 min (in paper: 33.7 min)
AC$CHROMATOGRAPHY: SOLVENT A acetonitrile-methanol-water (19:19:2) with 0.1% acetic acid and 0.1% ammonium hydroxide (28%)
AC$CHROMATOGRAPHY: SOLVENT B 2-propanol with 0.1% acetic acid and 0.1% ammonium hydroxide (28%)
MS$FOCUSED_ION: PRECURSOR_M/Z 846.62
MS$FOCUSED_ION: PRECURSOR_TYPE [M+CH3COO]-
MS$DATA_PROCESSING: WHOLE Xcalibur ver-2.0
PK$SPLASH: splash10-00di-0000000900-d99e3d00c14ac36ab054
PK$ANNOTATION: m/z num type mass error(ppm) formula
  281.12 1 [fa(18:1)-H]- 281.2480553035 -454 C18H33O2-
  283.14 1 [fa(18:0)-H]- 283.2637053677 -436 C18H35O2-
  506.17 1 [lyso_PC(-,18:1)]- 506.3246644428 -304 C25H49NO7P-
  508.35 1 [lyso_PC(18:0,-)]- 508.340314507 19 C25H51NO7P-
PK$NUM_PEAK: 13
PK$PEAK: m/z int. rel.int.
  281.12 484.7 9
  283.14 128.1 2
  417.11 32.1 1
  506.17 13.9 1
  508.35 109.1 2
  700.72 25.8 1
  727.09 10.8 1
  760.02 31.8 1
  772.21 52093.8 999
  773.10 15.4 1
  786.88 271.1 5
  787.49 157.1 3
  796.52 25.8 1
//
