ACCESSION: MSBNK-Chubu_Univ-UT000360
RECORD_TITLE: PGF2a; LC-ESI-QIT; MS2; CE:60 V; [M-H]-
DATE: 2016.01.19 (Created 2007.10.19, modified 2011.08.03)
AUTHORS: Nakanishi H, Taguchi R, Graduate School of Medicine, The University of Tokyo
LICENSE: CC BY-NC-SA
CH$NAME: Prostaglandin F2a
CH$NAME: Dinoprost
CH$NAME: PGF2a
CH$NAME: (5Z,13E,15S)-9alpha,11alpha,15-Trihydroxyprosta-5,13-diene-1-oic acid
CH$NAME: 9a,11a-PGF2
CH$COMPOUND_CLASS: Natural Product; Lipid; Eicosanoid
CH$FORMULA: C20H34O5
CH$EXACT_MASS: 354.24062
CH$SMILES: CCCCC[C@@H](/C=C/[C@H]1[C@@H](C[C@@H]([C@@H]1C/C=C\CCCC(=O)O)O)O)O
CH$IUPAC: InChI=1S/C20H34O5/c1-2-3-6-9-15(21)12-13-17-16(18(22)14-19(17)23)10-7-4-5-8-11-20(24)25/h4,7,12-13,15-19,21-23H,2-3,5-6,8-11,14H2,1H3,(H,24,25)/b7-4-,13-12+/t15-,16+,17+,18-,19+/m0/s1
CH$LINK: CAS 551-11-1
CH$LINK: CAYMAN 16010
CH$LINK: CHEBI CHEBI:15553
CH$LINK: COMPTOX DTXSID9022946
CH$LINK: INCHIKEY PXGPLTODNUVGFL-YNNPMVKQSA-N
CH$LINK: KEGG C00639
CH$LINK: LIPIDBANK XPR1501
CH$LINK: NIKKAJI J9.246K
CH$LINK: PUBCHEM CID:5280363
AC$INSTRUMENT: 4000Q TRAP, Applied Biosystems
AC$INSTRUMENT_TYPE: LC-ESI-QIT
AC$MASS_SPECTROMETRY: MS_TYPE MS2
AC$MASS_SPECTROMETRY: ION_MODE NEGATIVE
AC$MASS_SPECTROMETRY: COLLISION_ENERGY 60 V
AC$MASS_SPECTROMETRY: IONIZATION ESI
MS$FOCUSED_ION: PRECURSOR_TYPE [M-H]-
MS$DATA_PROCESSING: IGNORE rel.val. < 0.5
MS$DATA_PROCESSING: WHOLE Analyst 1.4.2
PK$SPLASH: splash10-014i-0910000000-b7ddafa2875b39a1d088
PK$NUM_PEAK: 44
PK$PEAK: m/z int. rel.int.
  70.800 16666.7 46
  81.080 16666.7 46
  82.800 12500.0 35
  90.800 12500.0 35
  92.880 12500.0 35
  93.040 16666.7 46
  107.040 8333.3 23
  110.960 12500.0 35
  112.960 16666.7 46
  113.120 12500.0 35
  117.040 16666.7 46
  119.058 95833.3 267
  120.000 8333.3 23
  122.960 12500.0 35
  137.280 8333.3 23
  139.120 12500.0 35
  144.080 12500.0 35
  145.120 20833.3 58
  147.069 58333.3 163
  148.240 8333.3 23
  149.200 8333.3 23
  151.120 20833.3 58
  155.040 12500.0 35
  161.040 33333.3 93
  163.040 79166.7 221
  165.091 358333.3 999
  170.960 20833.3 58
  173.040 16666.7 46
  175.072 25000.0 70
  181.120 12500.0 35
  189.120 20833.3 58
  191.120 29166.7 81
  192.880 50000.0 139
  193.101 187500.0 523
  201.040 41666.7 116
  201.173 41666.7 116
  219.040 41666.7 116
  224.960 8333.3 23
  227.040 8333.3 23
  229.120 8333.3 23
  229.280 16666.7 46
  245.040 29166.7 81
  247.093 16666.7 46
  263.120 8333.3 23
//
