ACCESSION: MSBNK-Chubu_Univ-UT001106
RECORD_TITLE: Phosphatidylethanolamine 16:0-20:4; LC-ESI-ITFT; MS2; [M-H]-; RT: 19.33; Exp: 1
DATE: 2016.01.19 (Created 2010.05.07, modified 2011.08.03)
AUTHORS: Taguchi R, Graduate School of Medicine, The University of Tokyo
LICENSE: CC BY-NC-SA
PUBLICATION: Taguchi, R.; Ishikawa, M. Precise and Global Identification of Phospholipid Molecular Species by an Orbitrap Mass Spectrometer and Automated Search Engine Lipid Search. Journal of Chromatography A 2010, 1217 (25), 4229–39. DOI:10.1016/j.chroma.2010.04.034
CH$NAME: Phosphatidylethanolamine 16:0-20:4
CH$COMPOUND_CLASS: Natural Product; Glycerophospholipids; Glycerophosphoethanolamines; Diacylglycerophosphoethanolamines
CH$FORMULA: C41H74NO8P
CH$EXACT_MASS: 739.51520
CH$SMILES: C(CCCCCC)=CCC=CCC=CCC=CCCC(OC(COC(=O)CCCCCCCCCCCCCCC)COP(O)(=O)OCCN)=O
CH$IUPAC: InChI=1S/C41H74NO8P/c1-3-5-7-9-11-13-15-17-18-19-20-22-24-26-28-30-32-34-41(44)50-39(38-49-51(45,46)48-36-35-42)37-47-40(43)33-31-29-27-25-23-21-16-14-12-10-8-6-4-2/h13,15,18-19,22,24,28,30,39H,3-12,14,16-17,20-21,23,25-27,29,31-38,42H2,1-2H3,(H,45,46)/b15-13-,19-18-,24-22-,30-28-
CH$LINK: INCHIKEY ARFPLDYYIYCLNV-WRDNLCFKSA-N
SP$SCIENTIFIC_NAME: Mus musculus
SP$LINEAGE: cellular organisms; Eukaryota; Fungi/Metazoa group; Metazoa; Eumetazoa; Bilateria; Coelomata; Deuterostomia; Chordata; Craniata; Vertebrata; Gnathostomata; Teleostomi; Euteleostomi; Sarcopterygii; Tetrapoda; Amniota; Mammalia; Theria; Eutheria; Euarchontoglires; Glires; Rodentia; Sciurognathi; Muroidea; Muridae; Murinae; Mus
SP$LINK: NCBI-TAXONOMY 10090
SP$SAMPLE: liver
AC$INSTRUMENT: LC-10ADVPmicro HPLC, Shimadzu; LTQ Orbitrap, Thermo Scientific
AC$INSTRUMENT_TYPE: LC-ESI-ITFT
AC$MASS_SPECTROMETRY: MS_TYPE MS2
AC$MASS_SPECTROMETRY: ION_MODE NEGATIVE
AC$MASS_SPECTROMETRY: COLLISION_ENERGY 30%
AC$MASS_SPECTROMETRY: ION_SPRAY_VOLTAGE 3500 V
AC$MASS_SPECTROMETRY: IONIZATION ESI
AC$CHROMATOGRAPHY: COLUMN_NAME Develosil C30, Nomura Chemical
AC$CHROMATOGRAPHY: FLOW_GRADIENT  add 95/5 at 0 min, 70/30 at 40 min, 50/50 at 41 min, 50/50 at 90 min
AC$CHROMATOGRAPHY: FLOW_RATE  add 100 uL/min
AC$CHROMATOGRAPHY: RETENTION_TIME 19.18 min (in paper: 19.3 min)
AC$CHROMATOGRAPHY: SOLVENT A acetonitrile-methanol-water (19:19:2) with 0.1% acetic acid and 0.1% ammonium hydroxide (28%)
AC$CHROMATOGRAPHY: SOLVENT B 2-propanol with 0.1% acetic acid and 0.1% ammonium hydroxide (28%)
MS$FOCUSED_ION: PRECURSOR_M/Z 738.51
MS$FOCUSED_ION: PRECURSOR_TYPE [M-H]-
MS$DATA_PROCESSING: WHOLE Xcalibur ver-2.0
PK$SPLASH: splash10-0udi-0049200000-d4d1a42f9a1c8ec33a07
PK$ANNOTATION: m/z num type mass error(ppm) formula
  255.03 1 [fa(16:0)-H]- 255.2324052393 -792 C16H31O2-
  259.16 1 [fa(20:4)-H-CO2]- 259.2425759951 -318 C19H31-
  303.08 1 [fa(20:4)-H]- 303.2324052393 -502 C20H31O2-
  434.08 1 [lyso_PE(16:0,-)-H2O]- 434.2671495639 -430 C21H41NO6P-
  452.07 1 [lyso_PE(16:0,-)]- 452.2777142502 -458 C21H43NO7P-
  482.06 1 [lyso_PE(-,20:4)-H2O]- 482.2671495639 -429 C25H41NO6P-
  500.12 1 [lyso_PE(-,20:4)]- 500.2777142502 -314 C25H43NO7P-
PK$NUM_PEAK: 18
PK$PEAK: m/z int. rel.int.
  214.07 99.6 1
  255.03 39378.2 402
  256.17 1301.9 13
  259.16 6678.6 68
  260.28 332.4 3
  261.35 169.4 2
  285.14 725.8 7
  301.25 289.2 3
  303.08 97866.6 999
  304.13 1981.1 20
  391.05 110.4 1
  434.08 1120.9 11
  452.07 23268.8 238
  453.10 1253.0 13
  481.31 122.3 1
  482.06 289.8 3
  500.12 2118.1 22
  501.10 184.8 2
//
