ACCESSION: MSBNK-Chubu_Univ-UT001548
RECORD_TITLE: Phosphatidylcholine 17:0-18:2; LC-ESI-ITFT; MS3; [M+CH3COO]-/[M-CH3]-; RT: 23.52; Exp: 1
DATE: 2016.01.19 (Created 2010.05.07, modified 2011.08.03)
AUTHORS: Taguchi R, Graduate School of Medicine, The University of Tokyo
LICENSE: CC BY-NC-SA
PUBLICATION: Taguchi, R.; Ishikawa, M. Precise and Global Identification of Phospholipid Molecular Species by an Orbitrap Mass Spectrometer and Automated Search Engine Lipid Search. Journal of Chromatography A 2010, 1217 (25), 4229–39. DOI:10.1016/j.chroma.2010.04.034
CH$NAME: Phosphatidylcholine 17:0-18:2
CH$COMPOUND_CLASS: Natural Product; Glycerophospholipids; Glycerophosphocholines; Diacylglycerophosphocholines
CH$FORMULA: C43H82NO8P
CH$EXACT_MASS: 771.57781
CH$SMILES: C(COP([O-1])(=O)OCC(OC(=O)CCC=CCC=CCCCCCCCCCC)COC(=O)CCCCCCCCCCCCCCCC)[N+1](C)(C)C
CH$IUPAC: InChI=1S/C43H82NO8P/c1-6-8-10-12-14-16-18-20-22-24-26-28-30-32-34-36-43(46)52-41(40-51-53(47,48)50-38-37-44(3,4)5)39-49-42(45)35-33-31-29-27-25-23-21-19-17-15-13-11-9-7-2/h24,26,30,32,41H,6-23,25,27-29,31,33-40H2,1-5H3/b26-24-,32-30-
CH$LINK: INCHIKEY OQJXXHSQJJIDBN-QIPJBBGZSA-N
SP$SCIENTIFIC_NAME: Mus musculus
SP$LINEAGE: cellular organisms; Eukaryota; Fungi/Metazoa group; Metazoa; Eumetazoa; Bilateria; Coelomata; Deuterostomia; Chordata; Craniata; Vertebrata; Gnathostomata; Teleostomi; Euteleostomi; Sarcopterygii; Tetrapoda; Amniota; Mammalia; Theria; Eutheria; Euarchontoglires; Glires; Rodentia; Sciurognathi; Muroidea; Muridae; Murinae; Mus
SP$LINK: NCBI-TAXONOMY 10090
SP$SAMPLE: liver
AC$INSTRUMENT: LC-10ADVPmicro HPLC, Shimadzu; LTQ Orbitrap, Thermo Scientific
AC$INSTRUMENT_TYPE: LC-ESI-ITFT
AC$MASS_SPECTROMETRY: MS_TYPE MS3
AC$MASS_SPECTROMETRY: ION_MODE NEGATIVE
AC$MASS_SPECTROMETRY: COLLISION_ENERGY 30%
AC$MASS_SPECTROMETRY: ION_SPRAY_VOLTAGE 3500 V
AC$MASS_SPECTROMETRY: IONIZATION ESI
AC$CHROMATOGRAPHY: COLUMN_NAME Develosil C30, Nomura Chemical
AC$CHROMATOGRAPHY: FLOW_GRADIENT  add 95/5 at 0 min, 70/30 at 40 min, 50/50 at 41 min, 50/50 at 90 min
AC$CHROMATOGRAPHY: FLOW_RATE  add 100 uL/min
AC$CHROMATOGRAPHY: RETENTION_TIME 23.68 min (in paper: 23.5 min)
AC$CHROMATOGRAPHY: SOLVENT A acetonitrile-methanol-water (19:19:2) with 0.1% acetic acid and 0.1% ammonium hydroxide (28%)
AC$CHROMATOGRAPHY: SOLVENT B 2-propanol with 0.1% acetic acid and 0.1% ammonium hydroxide (28%)
MS$FOCUSED_ION: PRECURSOR_M/Z 830.59/756.09
MS$FOCUSED_ION: PRECURSOR_TYPE [M+CH3COO]-/[M-CH3]-
MS$DATA_PROCESSING: WHOLE Xcalibur ver-2.0
PK$SPLASH: splash10-004i-0090100000-0a3fbfd5393acd4722ec
PK$ANNOTATION: m/z num type mass error(ppm) formula
  269.12 1 [fa(17:0)-H]- 269.2480553035 -475 C17H33O2-
  279.12 1 [fa(18:2)-H]- 279.2324052393 -402 C18H31O2-
  476.02 1 [lyso_PC(17:0,-)-H2O]- 476.3140997565 -616 C24H47NO6P-
  494.15 1 [lyso_PC(17:0,-)]- 494.3246644428 -352 C24H49NO7P-
  504.05 1 [lyso_PC(-,18:2)]- 504.3090143786 -513 C25H47NO7P-
PK$NUM_PEAK: 12
PK$PEAK: m/z int. rel.int.
  224.00 10.7 1
  241.98 10.7 1
  261.28 9.5 1
  269.12 2815.2 375
  279.12 7495.4 999
  280.16 12.9 2
  405.01 18.7 2
  462.22 26.0 3
  476.02 82.3 11
  485.98 51.5 7
  494.15 1214.5 162
  504.05 113.9 15
//
