ACCESSION: MSBNK-Chubu_Univ-UT000279
RECORD_TITLE: 9-KODE; LC-ESI-QIT; MS2; CE:50 V; [M-H]-
DATE: 2016.01.19 (Created 2007.10.19, modified 2011.08.03)
AUTHORS: Nakanishi H, Taguchi R, Graduate School of Medicine, The University of Tokyo
LICENSE: CC BY-NC-SA
CH$NAME: 9-KODE
CH$NAME: 9-keto-octadeca-10E,12Z-dienoic acid/9-oxo-10E,12Z-octadecadienoic acid
CH$NAME: 9-OxoODE
CH$COMPOUND_CLASS: Natural Product; Lipid; Fatty acid
CH$FORMULA: C18H30O3
CH$EXACT_MASS: 294.21949
CH$SMILES: CCCCCC=CC=CC(=O)CCCCCCCC(O)=O
CH$IUPAC: InChI=1S/C18H30O3/c1-2-3-4-5-6-8-11-14-17(19)15-12-9-7-10-13-16-18(20)21/h6,8,11,14H,2-5,7,9-10,12-13,15-16H2,1H3,(H,20,21)/b8-6+,14-11+
CH$LINK: CAS 54232-59-6
CH$LINK: CAYMAN 38420
CH$LINK: LIPIDBANK DFA8046
CH$LINK: INCHIKEY LUZSWWYKKLTDHU-SIGMCMEVSA-N
AC$INSTRUMENT: 4000Q TRAP, Applied Biosystems
AC$INSTRUMENT_TYPE: LC-ESI-QIT
AC$MASS_SPECTROMETRY: MS_TYPE MS2
AC$MASS_SPECTROMETRY: ION_MODE NEGATIVE
AC$MASS_SPECTROMETRY: COLLISION_ENERGY 50 V
AC$MASS_SPECTROMETRY: IONIZATION ESI
MS$FOCUSED_ION: PRECURSOR_TYPE [M-H]-
MS$DATA_PROCESSING: IGNORE rel.val. < 0.5
MS$DATA_PROCESSING: WHOLE Analyst 1.4.2
PK$SPLASH: splash10-00di-0190000000-f5b74564669bc13ea777
PK$NUM_PEAK: 13
PK$PEAK: m/z int. rel.int.
  96.800 15000.0 34
  97.032 37500.0 86
  148.044 57500.0 131
  164.080 25000.0 57
  177.016 102500.0 234
  190.240 10000.0 23
  192.160 22500.0 51
  205.076 347500.0 793
  217.120 20000.0 46
  220.118 437500.0 999
  221.149 380000.0 868
  221.440 17500.0 40
  221.840 5000.0 11
//
