ACCESSION: MSBNK-Chubu_Univ-UT001389
RECORD_TITLE: Phosphatidylethanolamine 18:1-22:6; LC-ESI-ITFT; MS2; [M-H]-; RT: 16.82; Exp: 1
DATE: 2016.01.19 (Created 2010.05.07, modified 2011.08.03)
AUTHORS: Taguchi R, Graduate School of Medicine, The University of Tokyo
LICENSE: CC BY-NC-SA
PUBLICATION: Taguchi, R.; Ishikawa, M. Precise and Global Identification of Phospholipid Molecular Species by an Orbitrap Mass Spectrometer and Automated Search Engine Lipid Search. Journal of Chromatography A 2010, 1217 (25), 4229–39. DOI:10.1016/j.chroma.2010.04.034
CH$NAME: Phosphatidylethanolamine 18:1-22:6
CH$COMPOUND_CLASS: Natural Product; Glycerophospholipids; Glycerophosphoethanolamines; Diacylglycerophosphoethanolamines
CH$FORMULA: C45H76NO8P
CH$EXACT_MASS: 789.53085
CH$SMILES: C(CC)=CCC=CCC=CCC=CCC=CCC=CCCC(OC(COC(CCC=CCCCCCCCCCCCCC)=O)COP(O)(=O)OCCN)=O
CH$IUPAC: InChI=1S/C45H76NO8P/c1-3-5-7-9-11-13-15-17-19-20-21-22-24-26-28-30-32-34-36-38-45(48)54-43(42-53-55(49,50)52-40-39-46)41-51-44(47)37-35-33-31-29-27-25-23-18-16-14-12-10-8-6-4-2/h5,7,11,13,17,19,21-22,26,28,31-34,43H,3-4,6,8-10,12,14-16,18,20,23-25,27,29-30,35-42,46H2,1-2H3,(H,49,50)/b7-5-,13-11-,19-17-,22-21-,28-26-,33-31-,34-32-
CH$LINK: INCHIKEY VPTWUJPVIKSANV-QRPORDCISA-N
SP$SCIENTIFIC_NAME: Mus musculus
SP$LINEAGE: cellular organisms; Eukaryota; Fungi/Metazoa group; Metazoa; Eumetazoa; Bilateria; Coelomata; Deuterostomia; Chordata; Craniata; Vertebrata; Gnathostomata; Teleostomi; Euteleostomi; Sarcopterygii; Tetrapoda; Amniota; Mammalia; Theria; Eutheria; Euarchontoglires; Glires; Rodentia; Sciurognathi; Muroidea; Muridae; Murinae; Mus
SP$LINK: NCBI-TAXONOMY 10090
SP$SAMPLE: brain
AC$INSTRUMENT: LC-10ADVPmicro HPLC, Shimadzu; LTQ Orbitrap, Thermo Scientific
AC$INSTRUMENT_TYPE: LC-ESI-ITFT
AC$MASS_SPECTROMETRY: MS_TYPE MS2
AC$MASS_SPECTROMETRY: ION_MODE NEGATIVE
AC$MASS_SPECTROMETRY: COLLISION_ENERGY 30%
AC$MASS_SPECTROMETRY: ION_SPRAY_VOLTAGE 3500 V
AC$MASS_SPECTROMETRY: IONIZATION ESI
AC$CHROMATOGRAPHY: COLUMN_NAME Develosil C30, Nomura Chemical
AC$CHROMATOGRAPHY: FLOW_GRADIENT  add 95/5 at 0 min, 70/30 at 40 min, 50/50 at 41 min, 50/50 at 90 min
AC$CHROMATOGRAPHY: FLOW_RATE  add 100 uL/min
AC$CHROMATOGRAPHY: RETENTION_TIME 16.71 min (in paper: 16.9 min)
AC$CHROMATOGRAPHY: SOLVENT A acetonitrile-methanol-water (19:19:2) with 0.1% acetic acid and 0.1% ammonium hydroxide (28%)
AC$CHROMATOGRAPHY: SOLVENT B 2-propanol with 0.1% acetic acid and 0.1% ammonium hydroxide (28%)
MS$FOCUSED_ION: PRECURSOR_M/Z 788.52
MS$FOCUSED_ION: PRECURSOR_TYPE [M-H]-
MS$DATA_PROCESSING: WHOLE Xcalibur ver-2.0
PK$SPLASH: splash10-0059-0096300000-5c25920543a14d798dc1
PK$ANNOTATION: m/z num type mass error(ppm) formula
  281.15 1 [fa(18:1)-H]- 281.2480553035 -348 C18H33O2-
  283.15 1 [fa(22:6)-H-CO2]- 283.2425759951 -326 C21H31-
  327.07 1 [fa(22:6)-H]- 327.2324052393 -495 C22H31O2-
  460.15 1 [lyso_PE(18:1,-)-H2O]- 460.2827996281 -288 C23H43NO6P-
  478.06 1 [lyso_PE(18:1,-)]- 478.2933643144 -487 C23H45NO7P-
  506.09 1 [lyso_PE(-,22:6)-H2O]- 506.2671495639 -349 C27H41NO6P-
  524.04 1 [lyso_PE(-,22:6)]- 524.2777142502 -452 C27H43NO7P-
PK$NUM_PEAK: 22
PK$PEAK: m/z int. rel.int.
  229.08 164.6 15
  230.12 21.0 2
  245.10 18.3 2
  249.04 32.4 3
  254.62 49.8 5
  281.15 9486.5 871
  282.23 1014.6 93
  283.15 5144.9 472
  284.14 326.9 30
  309.03 132.4 12
  325.20 11.4 1
  327.07 10881.4 999
  328.09 1062.1 98
  460.15 412.7 38
  460.93 14.1 1
  478.06 5034.6 462
  479.09 568.9 52
  506.09 135.8 12
  524.04 268.9 25
  525.18 128.3 12
  714.50 14.2 1
  731.52 18.3 2
//
