ACCESSION: MSBNK-Chubu_Univ-UT002031
RECORD_TITLE: Phosphatidylcholine 16:0-18:0; LC-ESI-ITFT; MS2; [M+CH3COO]-; RT: 35.97; Exp: 2
DATE: 2016.01.19 (Created 2010.05.07, modified 2011.08.03)
AUTHORS: Taguchi R, Graduate School of Medicine, The University of Tokyo
LICENSE: CC BY-NC-SA
PUBLICATION: Taguchi, R.; Ishikawa, M. Precise and Global Identification of Phospholipid Molecular Species by an Orbitrap Mass Spectrometer and Automated Search Engine Lipid Search. Journal of Chromatography A 2010, 1217 (25), 4229–39. DOI:10.1016/j.chroma.2010.04.034
CH$NAME: Phosphatidylcholine 16:0-18:0
CH$COMPOUND_CLASS: Natural Product; Glycerophospholipids; Glycerophosphocholines; Diacylglycerophosphocholines
CH$FORMULA: C42H84NO8P
CH$EXACT_MASS: 761.59346
CH$SMILES: O=C(OCC(COP(OCC[N+1](C)(C)C)([O-1])=O)OC(=O)CCCCCCCCCCCCCCCCC)CCCCCCCCCCCCCCC
CH$IUPAC: InChI=1S/C42H84NO8P/c1-6-8-10-12-14-16-18-20-21-23-25-27-29-31-33-35-42(45)51-40(39-50-52(46,47)49-37-36-43(3,4)5)38-48-41(44)34-32-30-28-26-24-22-19-17-15-13-11-9-7-2/h40H,6-39H2,1-5H3
CH$LINK: CAS 10589-47-6
CH$LINK: INCHIKEY PZNPLUBHRSSFHT-UHFFFAOYSA-N
CH$LINK: PUBCHEM CID:10147142
SP$SCIENTIFIC_NAME: Mus musculus
SP$LINEAGE: cellular organisms; Eukaryota; Fungi/Metazoa group; Metazoa; Eumetazoa; Bilateria; Coelomata; Deuterostomia; Chordata; Craniata; Vertebrata; Gnathostomata; Teleostomi; Euteleostomi; Sarcopterygii; Tetrapoda; Amniota; Mammalia; Theria; Eutheria; Euarchontoglires; Glires; Rodentia; Sciurognathi; Muroidea; Muridae; Murinae; Mus
SP$LINK: NCBI-TAXONOMY 10090
SP$SAMPLE: brain
AC$INSTRUMENT: LC-10ADVPmicro HPLC, Shimadzu; LTQ Orbitrap, Thermo Scientific
AC$INSTRUMENT_TYPE: LC-ESI-ITFT
AC$MASS_SPECTROMETRY: MS_TYPE MS2
AC$MASS_SPECTROMETRY: ION_MODE NEGATIVE
AC$MASS_SPECTROMETRY: COLLISION_ENERGY 30%
AC$MASS_SPECTROMETRY: ION_SPRAY_VOLTAGE 3500 V
AC$MASS_SPECTROMETRY: IONIZATION ESI
AC$CHROMATOGRAPHY: COLUMN_NAME Develosil C30, Nomura Chemical
AC$CHROMATOGRAPHY: FLOW_GRADIENT  add 95/5 at 0 min, 70/30 at 40 min, 50/50 at 41 min, 50/50 at 90 min
AC$CHROMATOGRAPHY: FLOW_RATE  add 100 uL/min
AC$CHROMATOGRAPHY: RETENTION_TIME 35.78 min (in paper: 36 min)
AC$CHROMATOGRAPHY: SOLVENT A acetonitrile-methanol-water (19:19:2) with 0.1% acetic acid and 0.1% ammonium hydroxide (28%)
AC$CHROMATOGRAPHY: SOLVENT B 2-propanol with 0.1% acetic acid and 0.1% ammonium hydroxide (28%)
MS$FOCUSED_ION: PRECURSOR_M/Z 820.61
MS$FOCUSED_ION: PRECURSOR_TYPE [M+CH3COO]-
MS$DATA_PROCESSING: WHOLE Xcalibur ver-2.0
PK$SPLASH: splash10-0002-0000000900-53a1f979799073e25cc9
PK$ANNOTATION: m/z num type mass error(ppm) formula
  254.96 1 [fa(16:0)-H]- 255.2324052393 -1066 C16H31O2-
  283.14 1 [fa(18:0)-H]- 283.2637053677 -436 C18H35O2-
PK$NUM_PEAK: 13
PK$PEAK: m/z int. rel.int.
  254.96 14.7 3
  259.24 8.4 2
  283.14 24.2 6
  285.21 4.8 1
  358.22 12.1 3
  404.24 9.0 2
  405.24 6.6 2
  743.90 11.0 3
  744.76 25.7 6
  746.10 4382.0 999
  747.13 102.8 23
  759.68 7.8 2
  783.54 5.4 1
//
