ACCESSION: MSBNK-Chubu_Univ-UT002897
RECORD_TITLE: Phosphatidylethanolamine alkenyl 18:0-24:6; LC-ESI-ITFT; MS2; [M-H]-; RT: 33.14; Exp: 3
DATE: 2016.01.19 (Created 2010.05.07, modified 2011.08.03)
AUTHORS: Taguchi R, Graduate School of Medicine, The University of Tokyo
LICENSE: CC BY-NC-SA
PUBLICATION: Taguchi, R.; Ishikawa, M. Precise and Global Identification of Phospholipid Molecular Species by an Orbitrap Mass Spectrometer and Automated Search Engine Lipid Search. Journal of Chromatography A 2010, 1217 (25), 4229–39. DOI:10.1016/j.chroma.2010.04.034
CH$NAME: Phosphatidylethanolamine alkenyl 18:0-24:6
CH$COMPOUND_CLASS: Natural Product; Glycerophospholipids; Glycerophosphoethanolamines; 1Z-alkenyl,2-acylglycerophosphoethanolamines
CH$FORMULA: C47H82NO7P
CH$EXACT_MASS: 803.58289
CH$SMILES: C(CCCCCCCCCCCCCCC)C=COCC(OC(=O)CCC=CCC=CCC=CCC=CCC=CCC=CCCCC)COP(OCCN)(O)=O
CH$IUPAC: InChI=1S/C47H82NO7P/c1-3-5-7-9-11-13-15-17-19-21-22-23-24-25-26-28-30-32-34-36-38-40-47(49)55-46(45-54-56(50,51)53-43-41-48)44-52-42-39-37-35-33-31-29-27-20-18-16-14-12-10-8-6-4-2/h9,11,15,17,21-22,24-25,28,30,34,36,39,42,46H,3-8,10,12-14,16,18-20,23,26-27,29,31-33,35,37-38,40-41,43-45,48H2,1-2H3,(H,50,51)/b11-9-,17-15-,22-21-,25-24-,30-28-,36-34-,42-39+
CH$LINK: INCHIKEY JKMKRFYKYHILMM-ZUVFDMEGSA-N
SP$SCIENTIFIC_NAME: Mus musculus
SP$LINEAGE: cellular organisms; Eukaryota; Fungi/Metazoa group; Metazoa; Eumetazoa; Bilateria; Coelomata; Deuterostomia; Chordata; Craniata; Vertebrata; Gnathostomata; Teleostomi; Euteleostomi; Sarcopterygii; Tetrapoda; Amniota; Mammalia; Theria; Eutheria; Euarchontoglires; Glires; Rodentia; Sciurognathi; Muroidea; Muridae; Murinae; Mus
SP$LINK: NCBI-TAXONOMY 10090
SP$SAMPLE: brain
AC$INSTRUMENT: LC-10ADVPmicro HPLC, Shimadzu; LTQ Orbitrap, Thermo Scientific
AC$INSTRUMENT_TYPE: LC-ESI-ITFT
AC$MASS_SPECTROMETRY: MS_TYPE MS2
AC$MASS_SPECTROMETRY: ION_MODE NEGATIVE
AC$MASS_SPECTROMETRY: COLLISION_ENERGY 30%
AC$MASS_SPECTROMETRY: ION_SPRAY_VOLTAGE 3500 V
AC$MASS_SPECTROMETRY: IONIZATION ESI
AC$CHROMATOGRAPHY: COLUMN_NAME Develosil C30, Nomura Chemical
AC$CHROMATOGRAPHY: FLOW_GRADIENT  add 95/5 at 0 min, 70/30 at 40 min, 50/50 at 41 min, 50/50 at 90 min
AC$CHROMATOGRAPHY: FLOW_RATE  add 100 uL/min
AC$CHROMATOGRAPHY: RETENTION_TIME 33.12 min (in paper: 33.1 min)
AC$CHROMATOGRAPHY: SOLVENT A acetonitrile-methanol-water (19:19:2) with 0.1% acetic acid and 0.1% ammonium hydroxide (28%)
AC$CHROMATOGRAPHY: SOLVENT B 2-propanol with 0.1% acetic acid and 0.1% ammonium hydroxide (28%)
MS$FOCUSED_ION: PRECURSOR_M/Z 802.57
MS$FOCUSED_ION: PRECURSOR_TYPE [M-H]-
MS$DATA_PROCESSING: WHOLE Xcalibur ver-2.0
PK$SPLASH: splash10-0a4i-0009500000-ced2159984479b8bd1d4
PK$ANNOTATION: m/z num type mass error(ppm) formula
  311.10 1 [fa(24:6)-H-CO2]- 311.2738761235 -558 C23H35-
  355.04 1 [fa(24:6)-H]- 355.2637053677 -629 C24H35O2-
  446.34 1 [lyso_PE(alkenyl-18:0,-)-H2O]- 446.3035350702 82 C23H45NO5P-
  464.13 1 [lyso_PE(alkenyl-18:0,-)]- 464.3140997565 -395 C23H47NO6P-
PK$NUM_PEAK: 28
PK$PEAK: m/z int. rel.int.
  257.22 12.7 9
  276.86 8.8 6
  292.97 12.7 9
  311.10 107.6 77
  312.45 18.1 13
  337.13 8.7 6
  355.04 1404.3 999
  356.15 249.7 178
  403.17 20.3 14
  446.34 73.7 52
  447.39 29.3 21
  455.23 9.0 6
  464.13 761.0 541
  465.21 104.1 74
  565.56 9.1 6
  703.03 7.7 5
  716.45 11.2 8
  717.31 11.3 8
  721.25 20.0 14
  726.36 6.6 5
  728.24 19.2 14
  738.85 5.5 4
  741.70 46.2 33
  742.37 16.3 12
  743.21 4.9 3
  776.11 5.4 4
  785.15 8.2 6
  801.83 12.4 9
//
