ACCESSION: MSBNK-Chubu_Univ-UT002674
RECORD_TITLE: Phosphatidylethanolamine lyso 22:6; LC-ESI-ITFT; MS2; [M-H]-; RT: 1.86; Exp: 3
DATE: 2016.01.19 (Created 2010.05.07, modified 2011.08.03)
AUTHORS: Taguchi R, Graduate School of Medicine, The University of Tokyo
LICENSE: CC BY-NC-SA
PUBLICATION: Taguchi, R.; Ishikawa, M. Precise and Global Identification of Phospholipid Molecular Species by an Orbitrap Mass Spectrometer and Automated Search Engine Lipid Search. Journal of Chromatography A 2010, 1217 (25), 4229–39. DOI:10.1016/j.chroma.2010.04.034
CH$NAME: Phosphatidylethanolamine lyso 22:6
CH$COMPOUND_CLASS: Natural Product; Glycerophospholipids; Glycerophosphoethanolamines; Monoacylglycerophosphoethanolamines
CH$FORMULA: C27H44NO7P
CH$EXACT_MASS: 525.28554
CH$SMILES: CCC=CCC=CCC=CCC=CCC=CCC=CCCC(=O)OC(CO)COP(O)(=O)OCCN
CH$IUPAC: InChI=1S/C27H44NO7P/c1-2-3-4-5-6-7-8-9-10-11-12-13-14-15-16-17-18-19-20-21-27(30)35-26(24-29)25-34-36(31,32)33-23-22-28/h3-4,6-7,9-10,12-13,15-16,18-19,26,29H,2,5,8,11,14,17,20-25,28H2,1H3,(H,31,32)/b4-3-,7-6-,10-9-,13-12-,16-15-,19-18-
CH$LINK: CAS 120282-73-7
CH$LINK: INCHIKEY TWBVHOYVCUOMJY-KUBAVDMBSA-N
SP$SCIENTIFIC_NAME: Mus musculus
SP$LINEAGE: cellular organisms; Eukaryota; Fungi/Metazoa group; Metazoa; Eumetazoa; Bilateria; Coelomata; Deuterostomia; Chordata; Craniata; Vertebrata; Gnathostomata; Teleostomi; Euteleostomi; Sarcopterygii; Tetrapoda; Amniota; Mammalia; Theria; Eutheria; Euarchontoglires; Glires; Rodentia; Sciurognathi; Muroidea; Muridae; Murinae; Mus
SP$LINK: NCBI-TAXONOMY 10090
SP$SAMPLE: liver
AC$INSTRUMENT: LC-10ADVPmicro HPLC, Shimadzu; LTQ Orbitrap, Thermo Scientific
AC$INSTRUMENT_TYPE: LC-ESI-ITFT
AC$MASS_SPECTROMETRY: MS_TYPE MS2
AC$MASS_SPECTROMETRY: ION_MODE NEGATIVE
AC$MASS_SPECTROMETRY: COLLISION_ENERGY 30%
AC$MASS_SPECTROMETRY: ION_SPRAY_VOLTAGE 3500 V
AC$MASS_SPECTROMETRY: IONIZATION ESI
AC$CHROMATOGRAPHY: COLUMN_NAME Develosil C30, Nomura Chemical
AC$CHROMATOGRAPHY: FLOW_GRADIENT  add 95/5 at 0 min, 70/30 at 40 min, 50/50 at 41 min, 50/50 at 90 min
AC$CHROMATOGRAPHY: FLOW_RATE  add 100 uL/min
AC$CHROMATOGRAPHY: RETENTION_TIME 1.82 min (in paper: 1.9 min)
AC$CHROMATOGRAPHY: SOLVENT A acetonitrile-methanol-water (19:19:2) with 0.1% acetic acid and 0.1% ammonium hydroxide (28%)
AC$CHROMATOGRAPHY: SOLVENT B 2-propanol with 0.1% acetic acid and 0.1% ammonium hydroxide (28%)
MS$FOCUSED_ION: PRECURSOR_M/Z 524.28
MS$FOCUSED_ION: PRECURSOR_TYPE [M-H]-
MS$DATA_PROCESSING: WHOLE Xcalibur ver-2.0
PK$SPLASH: splash10-0059-0059000000-223d522986431516be61
PK$ANNOTATION: m/z num type mass error(ppm) formula
  195.92 1 [lyso_PE(lyso,-)-H2O]- 196.0374839788 -598 C5H11NO5P-
  213.99 1 [lyso_PE(lyso,-)]- 214.0480486651 -270 C5H13NO6P-
  283.11 1 [fa(22:6)-H-CO2]- 283.2425759951 -467 C21H31-
  326.98 1 [fa(22:6)-H]- 327.2324052393 -770 C22H31O2-
  506.16 1 [PE(lyso,22:6)-H-H2O]- 506.2671495639 -211 C27H41NO6P-
PK$NUM_PEAK: 35
PK$PEAK: m/z int. rel.int.
  153.01 5.9 1
  175.17 6.7 1
  177.12 32.7 3
  183.08 22.2 2
  191.01 277.0 28
  195.92 40.3 4
  203.04 5.4 1
  204.96 15.1 2
  213.99 354.1 36
  225.04 4.8 1
  229.05 311.3 32
  230.10 12.4 1
  231.19 8.2 1
  240.88 11.8 1
  247.03 7.1 1
  248.97 110.3 11
  267.39 11.6 1
  283.11 5077.7 518
  284.09 113.5 12
  309.08 32.5 3
  326.98 9783.3 999
  328.08 116.9 12
  343.55 5.0 1
  345.92 10.5 1
  359.86 20.3 2
  380.29 17.3 2
  381.74 11.1 1
  421.72 9.9 1
  450.45 16.8 2
  464.09 5.9 1
  481.13 8.9 1
  482.33 5.9 1
  503.75 40.0 4
  506.16 12.4 1
  523.31 24.7 3
//
