ACCESSION: MSBNK-Chubu_Univ-UT001147
RECORD_TITLE: Phosphatidylethanolamine 19:0-18:2; LC-ESI-ITFT; MS2; [M-H]-; RT: 33.16; Exp: 1
DATE: 2016.01.19 (Created 2010.05.07, modified 2011.08.03)
AUTHORS: Taguchi R, Graduate School of Medicine, The University of Tokyo
LICENSE: CC BY-NC-SA
PUBLICATION: Taguchi, R.; Ishikawa, M. Precise and Global Identification of Phospholipid Molecular Species by an Orbitrap Mass Spectrometer and Automated Search Engine Lipid Search. Journal of Chromatography A 2010, 1217 (25), 4229–39. DOI:10.1016/j.chroma.2010.04.034
CH$NAME: Phosphatidylethanolamine 19:0-18:2
CH$COMPOUND_CLASS: Natural Product; Glycerophospholipids; Glycerophosphoethanolamines; Diacylglycerophosphoethanolamines
CH$FORMULA: C42H80NO8P
CH$EXACT_MASS: 757.56216
CH$SMILES: OP(=O)(OCCN)OCC(COC(=O)CCCCCCCCCCCCCCCCCC)OC(=O)CCC=CCC=CCCCCCCCCCC
CH$IUPAC: InChI=1S/C42H80NO8P/c1-3-5-7-9-11-13-15-17-19-21-22-24-26-28-30-32-34-41(44)48-38-40(39-50-52(46,47)49-37-36-43)51-42(45)35-33-31-29-27-25-23-20-18-16-14-12-10-8-6-4-2/h23,25,29,31,40H,3-22,24,26-28,30,32-39,43H2,1-2H3,(H,46,47)/b25-23-,31-29-
CH$LINK: INCHIKEY GTOGJRHPAQPWSR-WGPKDLKGSA-N
SP$SCIENTIFIC_NAME: Mus musculus
SP$LINEAGE: cellular organisms; Eukaryota; Fungi/Metazoa group; Metazoa; Eumetazoa; Bilateria; Coelomata; Deuterostomia; Chordata; Craniata; Vertebrata; Gnathostomata; Teleostomi; Euteleostomi; Sarcopterygii; Tetrapoda; Amniota; Mammalia; Theria; Eutheria; Euarchontoglires; Glires; Rodentia; Sciurognathi; Muroidea; Muridae; Murinae; Mus
SP$LINK: NCBI-TAXONOMY 10090
SP$SAMPLE: liver
AC$INSTRUMENT: LC-10ADVPmicro HPLC, Shimadzu; LTQ Orbitrap, Thermo Scientific
AC$INSTRUMENT_TYPE: LC-ESI-ITFT
AC$MASS_SPECTROMETRY: MS_TYPE MS2
AC$MASS_SPECTROMETRY: ION_MODE NEGATIVE
AC$MASS_SPECTROMETRY: COLLISION_ENERGY 30%
AC$MASS_SPECTROMETRY: ION_SPRAY_VOLTAGE 3500 V
AC$MASS_SPECTROMETRY: IONIZATION ESI
AC$CHROMATOGRAPHY: COLUMN_NAME Develosil C30, Nomura Chemical
AC$CHROMATOGRAPHY: FLOW_GRADIENT  add 95/5 at 0 min, 70/30 at 40 min, 50/50 at 41 min, 50/50 at 90 min
AC$CHROMATOGRAPHY: FLOW_RATE  add 100 uL/min
AC$CHROMATOGRAPHY: RETENTION_TIME 33.26 min (in paper: 33.2 min)
AC$CHROMATOGRAPHY: SOLVENT A acetonitrile-methanol-water (19:19:2) with 0.1% acetic acid and 0.1% ammonium hydroxide (28%)
AC$CHROMATOGRAPHY: SOLVENT B 2-propanol with 0.1% acetic acid and 0.1% ammonium hydroxide (28%)
MS$FOCUSED_ION: PRECURSOR_M/Z 756.55
MS$FOCUSED_ION: PRECURSOR_TYPE [M-H]-
MS$DATA_PROCESSING: WHOLE Xcalibur ver-2.0
PK$SPLASH: splash10-004i-0090100000-2db6d2a14bb77706aac7
PK$ANNOTATION: m/z num type mass error(ppm) formula
  279.05 1 [fa(18:2)-H]- 279.2324052393 -652 C18H31O2-
  297.13 1 [fa(19:0)-H]- 297.2793554319 -501 C19H37O2-
  476.33 2 [lyso_PE(-,18:2)]- 476.2777142502 110 C23H43NO7P-
  476.33 2 [lyso_PE(19:0,-)-H2O]- 476.3140997565 33 C24H47NO6P-
  494.12 1 [lyso_PE(19:0,-)]- 494.3246644428 -413 C24H49NO7P-
PK$NUM_PEAK: 17
PK$PEAK: m/z int. rel.int.
  255.28 7.8 4
  261.15 6.1 3
  279.05 1979.9 999
  280.11 434.2 219
  283.52 10.7 5
  293.12 8.4 4
  297.13 728.0 367
  298.02 100.2 51
  475.71 12.9 7
  476.33 30.9 16
  477.99 6.1 3
  494.12 370.5 187
  495.24 150.1 76
  636.83 12.1 6
  673.42 17.9 9
  674.40 49.3 25
  696.22 5.0 3
//
