ACCESSION: MSBNK-Chubu_Univ-UT003120
RECORD_TITLE: Phosphatidylcholine 16:0-22:6; LC-ESI-ITFT; MS3; [M+CH3COO]-/[M-CH3]-; RT: 16.63; Exp: 3
DATE: 2016.01.19 (Created 2010.05.07, modified 2011.08.03)
AUTHORS: Taguchi R, Graduate School of Medicine, The University of Tokyo
LICENSE: CC BY-NC-SA
PUBLICATION: Taguchi, R.; Ishikawa, M. Precise and Global Identification of Phospholipid Molecular Species by an Orbitrap Mass Spectrometer and Automated Search Engine Lipid Search. Journal of Chromatography A 2010, 1217 (25), 4229–39. DOI:10.1016/j.chroma.2010.04.034
CH$NAME: Phosphatidylcholine 16:0-22:6
CH$COMPOUND_CLASS: Natural Product; Glycerophospholipids; Glycerophosphocholines; Diacylglycerophosphocholines
CH$FORMULA: C46H80NO8P
CH$EXACT_MASS: 805.56216
CH$SMILES: C(CCCCCCCC(=O)OCC(COP(OCC[N+1](C)(C)C)([O-1])=O)OC(=O)CCC=CCC=CCC=CCC=CCC=CCC=CCC)CCCCCCC
CH$IUPAC: InChI=1S/C46H80NO8P/c1-6-8-10-12-14-16-18-20-21-22-23-24-25-27-29-31-33-35-37-39-46(49)55-44(43-54-56(50,51)53-41-40-47(3,4)5)42-52-45(48)38-36-34-32-30-28-26-19-17-15-13-11-9-7-2/h8,10,14,16,20-21,23-24,27,29,33,35,44H,6-7,9,11-13,15,17-19,22,25-26,28,30-32,34,36-43H2,1-5H3/b10-8-,16-14-,21-20-,24-23-,29-27-,35-33-
CH$LINK: CAS 83306-24-5
CH$LINK: LIPIDBANK PGP3017
CH$LINK: INCHIKEY IESVDEZGAHUQJU-SYGPSSPWSA-N
SP$SCIENTIFIC_NAME: Mus musculus
SP$LINEAGE: cellular organisms; Eukaryota; Fungi/Metazoa group; Metazoa; Eumetazoa; Bilateria; Coelomata; Deuterostomia; Chordata; Craniata; Vertebrata; Gnathostomata; Teleostomi; Euteleostomi; Sarcopterygii; Tetrapoda; Amniota; Mammalia; Theria; Eutheria; Euarchontoglires; Glires; Rodentia; Sciurognathi; Muroidea; Muridae; Murinae; Mus
SP$LINK: NCBI-TAXONOMY 10090
SP$SAMPLE: brain
AC$INSTRUMENT: LC-10ADVPmicro HPLC, Shimadzu; LTQ Orbitrap, Thermo Scientific
AC$INSTRUMENT_TYPE: LC-ESI-ITFT
AC$MASS_SPECTROMETRY: MS_TYPE MS3
AC$MASS_SPECTROMETRY: ION_MODE NEGATIVE
AC$MASS_SPECTROMETRY: COLLISION_ENERGY 30%
AC$MASS_SPECTROMETRY: ION_SPRAY_VOLTAGE 3500 V
AC$MASS_SPECTROMETRY: IONIZATION ESI
AC$CHROMATOGRAPHY: COLUMN_NAME Develosil C30, Nomura Chemical
AC$CHROMATOGRAPHY: FLOW_GRADIENT  add 95/5 at 0 min, 70/30 at 40 min, 50/50 at 41 min, 50/50 at 90 min
AC$CHROMATOGRAPHY: FLOW_RATE  add 100 uL/min
AC$CHROMATOGRAPHY: RETENTION_TIME 16.22 min (in paper: 16.5 min)
AC$CHROMATOGRAPHY: SOLVENT A acetonitrile-methanol-water (19:19:2) with 0.1% acetic acid and 0.1% ammonium hydroxide (28%)
AC$CHROMATOGRAPHY: SOLVENT B 2-propanol with 0.1% acetic acid and 0.1% ammonium hydroxide (28%)
MS$FOCUSED_ION: PRECURSOR_M/Z 864.58/790.78
MS$FOCUSED_ION: PRECURSOR_TYPE [M+CH3COO]-/[M-CH3]-
MS$DATA_PROCESSING: WHOLE Xcalibur ver-2.0
PK$SPLASH: splash10-0a4i-0091010000-bb2347d0aa48ab7c8f46
PK$ANNOTATION: m/z num type mass error(ppm) formula
  255.06 1 [fa(16:0)-H]- 255.2324052393 -674 C16H31O2-
  283.22 1 [fa(22:6)-H-CO2]- 283.2425759951 -79 C21H31-
  327.10 1 [fa(22:6)-H]- 327.2324052393 -404 C22H31O2-
  480.15 1 [lyso_PC(16:0,-)]- 480.3090143786 -330 C23H47NO7P-
  534.07 1 [lyso_PC(-,22:6)-H2O]- 534.2984496923 -427 C29H45NO6P-
PK$NUM_PEAK: 14
PK$PEAK: m/z int. rel.int.
  223.98 21.2 4
  229.03 19.6 4
  242.11 7.3 2
  244.08 5.7 1
  248.62 5.0 1
  255.06 4849.0 999
  283.22 450.7 93
  327.10 889.2 183
  461.99 107.9 22
  480.15 209.9 43
  534.07 47.1 10
  551.97 853.9 176
  552.67 2.6 1
  718.99 19.6 4
//
