ACCESSION: MSBNK-Chubu_Univ-UT001347
RECORD_TITLE: Phosphatidylcholine lyso 18:0; LC-ESI-ITFT; MS2; [M+CH3COO]-; RT: 3.80; Exp: 1
DATE: 2016.01.19 (Created 2010.05.07, modified 2011.08.03)
AUTHORS: Taguchi R, Graduate School of Medicine, The University of Tokyo
LICENSE: CC BY-NC-SA
PUBLICATION: Taguchi, R.; Ishikawa, M. Precise and Global Identification of Phospholipid Molecular Species by an Orbitrap Mass Spectrometer and Automated Search Engine Lipid Search. Journal of Chromatography A 2010, 1217 (25), 4229–39. DOI:10.1016/j.chroma.2010.04.034
CH$NAME: Phosphatidylcholine lyso 18:0
CH$COMPOUND_CLASS: Natural Product; Glycerophospholipids; Glycerophosphocholines; Monoacylglycerophosphocholines
CH$FORMULA: C26H54NO7P
CH$EXACT_MASS: 523.36379
CH$SMILES: P([O-1])(=O)(OCC[N+1](C)(C)C)OCC(CO)OC(=O)CCCCCCCCCCCCCCCCC
CH$IUPAC: InChI=1S/C26H54NO7P/c1-5-6-7-8-9-10-11-12-13-14-15-16-17-18-19-20-26(29)34-25(23-28)24-33-35(30,31)32-22-21-27(2,3)4/h25,28H,5-24H2,1-4H3
CH$LINK: CAS 17364-19-1
CH$LINK: INCHIKEY IQGPMZRCLCCXAG-UHFFFAOYSA-N
CH$LINK: PUBCHEM CID:10208382
SP$SCIENTIFIC_NAME: Mus musculus
SP$LINEAGE: cellular organisms; Eukaryota; Fungi/Metazoa group; Metazoa; Eumetazoa; Bilateria; Coelomata; Deuterostomia; Chordata; Craniata; Vertebrata; Gnathostomata; Teleostomi; Euteleostomi; Sarcopterygii; Tetrapoda; Amniota; Mammalia; Theria; Eutheria; Euarchontoglires; Glires; Rodentia; Sciurognathi; Muroidea; Muridae; Murinae; Mus
SP$LINK: NCBI-TAXONOMY 10090
SP$SAMPLE: brain
AC$INSTRUMENT: LC-10ADVPmicro HPLC, Shimadzu; LTQ Orbitrap, Thermo Scientific
AC$INSTRUMENT_TYPE: LC-ESI-ITFT
AC$MASS_SPECTROMETRY: MS_TYPE MS2
AC$MASS_SPECTROMETRY: ION_MODE NEGATIVE
AC$MASS_SPECTROMETRY: COLLISION_ENERGY 30%
AC$MASS_SPECTROMETRY: ION_SPRAY_VOLTAGE 3500 V
AC$MASS_SPECTROMETRY: IONIZATION ESI
AC$CHROMATOGRAPHY: COLUMN_NAME Develosil C30, Nomura Chemical
AC$CHROMATOGRAPHY: FLOW_GRADIENT  add 95/5 at 0 min, 70/30 at 40 min, 50/50 at 41 min, 50/50 at 90 min
AC$CHROMATOGRAPHY: FLOW_RATE  add 100 uL/min
AC$CHROMATOGRAPHY: RETENTION_TIME 3.88 min (in paper: 3.8 min)
AC$CHROMATOGRAPHY: SOLVENT A acetonitrile-methanol-water (19:19:2) with 0.1% acetic acid and 0.1% ammonium hydroxide (28%)
AC$CHROMATOGRAPHY: SOLVENT B 2-propanol with 0.1% acetic acid and 0.1% ammonium hydroxide (28%)
MS$FOCUSED_ION: PRECURSOR_M/Z 582.38
MS$FOCUSED_ION: PRECURSOR_TYPE [M+CH3COO]-
MS$DATA_PROCESSING: WHOLE Xcalibur ver-2.0
PK$SPLASH: splash10-0a4i-0000090000-34e1c18dcdc63c0e503c
PK$ANNOTATION: m/z num type mass error(ppm) formula
  283.25 1 [fa(18:0)-H]- 283.2637053677 -47 C18H35O2-
  508.06 1 [PC(lyso,18:0)-CH3]- 508.340314507 -550 C25H51NO7P-
PK$NUM_PEAK: 7
PK$PEAK: m/z int. rel.int.
  278.63 9.3 1
  283.25 37.4 4
  419.15 9.4 1
  481.72 18.8 2
  508.06 8687.5 999
  508.78 24.0 3
  523.11 47.2 5
//
