ACCESSION: MSBNK-Chubu_Univ-UT002610
RECORD_TITLE: Phosphatidylethanolamine 18:1-22:4; LC-ESI-ITFT; MS2; [M-H]-; RT: 23.13; Exp: 3
DATE: 2016.01.19 (Created 2010.05.07, modified 2011.08.03)
AUTHORS: Taguchi R, Graduate School of Medicine, The University of Tokyo
LICENSE: CC BY-NC-SA
PUBLICATION: Taguchi, R.; Ishikawa, M. Precise and Global Identification of Phospholipid Molecular Species by an Orbitrap Mass Spectrometer and Automated Search Engine Lipid Search. Journal of Chromatography A 2010, 1217 (25), 4229–39. DOI:10.1016/j.chroma.2010.04.034
CH$NAME: Phosphatidylethanolamine 18:1-22:4
CH$COMPOUND_CLASS: Natural Product; Glycerophospholipids; Glycerophosphoethanolamines; Diacylglycerophosphoethanolamines
CH$FORMULA: C45H80NO8P
CH$EXACT_MASS: 793.56216
CH$SMILES: C(CCCCCCCC)CCCCC=CCCC(OCC(OC(CCC=CCC=CCC=CCC=CCCCCCCCC)=O)COP(O)(=O)OCCN)=O
CH$IUPAC: InChI=1S/C45H80NO8P/c1-3-5-7-9-11-13-15-17-19-20-21-22-24-26-28-30-32-34-36-38-45(48)54-43(42-53-55(49,50)52-40-39-46)41-51-44(47)37-35-33-31-29-27-25-23-18-16-14-12-10-8-6-4-2/h17,19,21-22,26,28,31-34,43H,3-16,18,20,23-25,27,29-30,35-42,46H2,1-2H3,(H,49,50)/b19-17-,22-21-,28-26-,33-31-,34-32-
CH$LINK: INCHIKEY XBPHCFQOKKXKHJ-IVJZGABJSA-N
SP$SCIENTIFIC_NAME: Mus musculus
SP$LINEAGE: cellular organisms; Eukaryota; Fungi/Metazoa group; Metazoa; Eumetazoa; Bilateria; Coelomata; Deuterostomia; Chordata; Craniata; Vertebrata; Gnathostomata; Teleostomi; Euteleostomi; Sarcopterygii; Tetrapoda; Amniota; Mammalia; Theria; Eutheria; Euarchontoglires; Glires; Rodentia; Sciurognathi; Muroidea; Muridae; Murinae; Mus
SP$LINK: NCBI-TAXONOMY 10090
SP$SAMPLE: liver
AC$INSTRUMENT: LC-10ADVPmicro HPLC, Shimadzu; LTQ Orbitrap, Thermo Scientific
AC$INSTRUMENT_TYPE: LC-ESI-ITFT
AC$MASS_SPECTROMETRY: MS_TYPE MS2
AC$MASS_SPECTROMETRY: ION_MODE NEGATIVE
AC$MASS_SPECTROMETRY: COLLISION_ENERGY 30%
AC$MASS_SPECTROMETRY: ION_SPRAY_VOLTAGE 3500 V
AC$MASS_SPECTROMETRY: IONIZATION ESI
AC$CHROMATOGRAPHY: COLUMN_NAME Develosil C30, Nomura Chemical
AC$CHROMATOGRAPHY: FLOW_GRADIENT  add 95/5 at 0 min, 70/30 at 40 min, 50/50 at 41 min, 50/50 at 90 min
AC$CHROMATOGRAPHY: FLOW_RATE  add 100 uL/min
AC$CHROMATOGRAPHY: RETENTION_TIME 23.20 min (in paper: 23.1 min)
AC$CHROMATOGRAPHY: SOLVENT A acetonitrile-methanol-water (19:19:2) with 0.1% acetic acid and 0.1% ammonium hydroxide (28%)
AC$CHROMATOGRAPHY: SOLVENT B 2-propanol with 0.1% acetic acid and 0.1% ammonium hydroxide (28%)
MS$FOCUSED_ION: PRECURSOR_M/Z 792.55
MS$FOCUSED_ION: PRECURSOR_TYPE [M-H]-
MS$DATA_PROCESSING: WHOLE Xcalibur ver-2.0
PK$SPLASH: splash10-001i-0039200100-4183f180fbe3a77336a4
PK$ANNOTATION: m/z num type mass error(ppm) formula
  281.04 1 [fa(18:1)-H]- 281.2480553035 -739 C18H33O2-
  331.18 1 [fa(22:4)-H]- 331.2637053677 -252 C22H35O2-
  460.05 1 [lyso_PE(18:1,-)-H2O]- 460.2827996281 -505 C23H43NO6P-
  478.16 1 [lyso_PE(18:1,-)]- 478.2933643144 -278 C23H45NO7P-
PK$NUM_PEAK: 25
PK$PEAK: m/z int. rel.int.
  241.74 20.7 40
  279.03 11.0 21
  281.04 175.1 340
  281.90 7.3 14
  283.26 30.6 59
  284.13 9.5 18
  286.95 15.5 30
  304.92 22.0 43
  326.84 13.6 26
  328.04 15.2 29
  329.34 9.3 18
  331.18 515.1 999
  332.12 55.2 107
  419.25 4.9 10
  460.05 8.2 16
  467.04 4.8 9
  478.16 122.9 238
  479.15 14.4 28
  481.40 28.0 54
  686.91 23.3 45
  689.01 4.8 9
  718.10 18.6 36
  742.18 39.2 76
  742.79 7.6 15
  760.32 6.5 13
//
