ACCESSION: MSBNK-Chubu_Univ-UT001359
RECORD_TITLE: Phosphatidylethanolamine 16:0-18:2; LC-ESI-ITFT; MS2; [M-H]-; RT: 20.86; Exp: 1
DATE: 2016.01.19 (Created 2010.05.07, modified 2011.08.03)
AUTHORS: Taguchi R, Graduate School of Medicine, The University of Tokyo
LICENSE: CC BY-NC-SA
PUBLICATION: Taguchi, R.; Ishikawa, M. Precise and Global Identification of Phospholipid Molecular Species by an Orbitrap Mass Spectrometer and Automated Search Engine Lipid Search. Journal of Chromatography A 2010, 1217 (25), 4229–39. DOI:10.1016/j.chroma.2010.04.034
CH$NAME: Phosphatidylethanolamine 16:0-18:2
CH$COMPOUND_CLASS: Natural Product; Glycerophospholipids; Glycerophosphoethanolamines; Diacylglycerophosphoethanolamines
CH$FORMULA: C39H74NO8P
CH$EXACT_MASS: 715.51520
CH$SMILES: C(OP(OCCN)(O)=O)C(OC(CCC=CCC=CCCCCCCCCCC)=O)COC(CCCCCCCCCCCCCCC)=O
CH$IUPAC: InChI=1S/C39H74NO8P/c1-3-5-7-9-11-13-15-17-18-20-22-24-26-28-30-32-39(42)48-37(36-47-49(43,44)46-34-33-40)35-45-38(41)31-29-27-25-23-21-19-16-14-12-10-8-6-4-2/h20,22,26,28,37H,3-19,21,23-25,27,29-36,40H2,1-2H3,(H,43,44)/b22-20-,28-26-
CH$LINK: INCHIKEY JXRDSKPCJNWQEG-BAOXYHDDSA-N
SP$SCIENTIFIC_NAME: Mus musculus
SP$LINEAGE: cellular organisms; Eukaryota; Fungi/Metazoa group; Metazoa; Eumetazoa; Bilateria; Coelomata; Deuterostomia; Chordata; Craniata; Vertebrata; Gnathostomata; Teleostomi; Euteleostomi; Sarcopterygii; Tetrapoda; Amniota; Mammalia; Theria; Eutheria; Euarchontoglires; Glires; Rodentia; Sciurognathi; Muroidea; Muridae; Murinae; Mus
SP$LINK: NCBI-TAXONOMY 10090
SP$SAMPLE: brain
AC$INSTRUMENT: LC-10ADVPmicro HPLC, Shimadzu; LTQ Orbitrap, Thermo Scientific
AC$INSTRUMENT_TYPE: LC-ESI-ITFT
AC$MASS_SPECTROMETRY: MS_TYPE MS2
AC$MASS_SPECTROMETRY: ION_MODE NEGATIVE
AC$MASS_SPECTROMETRY: COLLISION_ENERGY 30%
AC$MASS_SPECTROMETRY: ION_SPRAY_VOLTAGE 3500 V
AC$MASS_SPECTROMETRY: IONIZATION ESI
AC$CHROMATOGRAPHY: COLUMN_NAME Develosil C30, Nomura Chemical
AC$CHROMATOGRAPHY: FLOW_GRADIENT  add 95/5 at 0 min, 70/30 at 40 min, 50/50 at 41 min, 50/50 at 90 min
AC$CHROMATOGRAPHY: FLOW_RATE  add 100 uL/min
AC$CHROMATOGRAPHY: RETENTION_TIME 21.13 min (in paper: 20.8 min)
AC$CHROMATOGRAPHY: SOLVENT A acetonitrile-methanol-water (19:19:2) with 0.1% acetic acid and 0.1% ammonium hydroxide (28%)
AC$CHROMATOGRAPHY: SOLVENT B 2-propanol with 0.1% acetic acid and 0.1% ammonium hydroxide (28%)
MS$FOCUSED_ION: PRECURSOR_M/Z 714.51
MS$FOCUSED_ION: PRECURSOR_TYPE [M-H]-
MS$DATA_PROCESSING: WHOLE Xcalibur ver-2.0
PK$SPLASH: splash10-004i-0090100000-4e92bf6550597d01e922
PK$ANNOTATION: m/z num type mass error(ppm) formula
  255.10 1 [fa(16:0)-H]- 255.2324052393 -518 C16H31O2-
  279.16 1 [fa(18:2)-H]- 279.2324052393 -258 C18H31O2-
  452.20 1 [lyso_PE(16:0,-)]- 452.2777142502 -171 C21H43NO7P-
  458.16 1 [lyso_PE(-,18:2)-H2O]- 458.2671495639 -233 C23H41NO6P-
  476.09 1 [lyso_PE(-,18:2)]- 476.2777142502 -393 C23H43NO7P-
PK$NUM_PEAK: 14
PK$PEAK: m/z int. rel.int.
  255.10 271.3 350
  256.05 15.2 20
  279.16 774.2 999
  280.24 98.6 127
  281.07 22.2 29
  299.57 6.1 8
  433.90 7.5 10
  451.58 6.0 8
  452.20 149.7 193
  453.08 11.3 15
  458.16 6.2 8
  476.09 48.7 63
  477.82 7.9 10
  625.14 8.5 11
//
