ACCESSION: MSBNK-Chubu_Univ-UT000084
RECORD_TITLE: 13-HpOTrE; LC-ESI-QIT; MS2; CE:20 V; [M-H]-
DATE: 2016.01.19 (Created 2007.10.19, modified 2011.08.03)
AUTHORS: Nakanishi H, Taguchi R, Graduate School of Medicine, The University of Tokyo
LICENSE: CC BY-NC-SA
CH$NAME: 13-HpOTrE
CH$NAME: 13S-hydroperoxy-9Z,11E,15Z-octadecatrienoic acid
CH$NAME: (9Z,11E,15Z)-13-Hydroperoxy-9,11,15-octadecatrienoic acid
CH$NAME: 13(S)-HpOTrE
CH$COMPOUND_CLASS: Natural Product; Lipid; Fatty acid
CH$FORMULA: C18H30O4
CH$EXACT_MASS: 310.21441
CH$SMILES: CCC=CCC(OO)C=CC=CCCCCCCCC(O)=O
CH$IUPAC: InChI=1S/C18H30O4/c1-2-3-11-14-17(22-21)15-12-9-7-5-4-6-8-10-13-16-18(19)20/h3,7,9,11-12,15,17,21H,2,4-6,8,10,13-14,16H2,1H3,(H,19,20)/b9-7?,11-3-,15-12+
CH$LINK: CAS 67597-26-6
CH$LINK: CAYMAN 45220
CH$LINK: LIPIDBANK DFA8052
CH$LINK: INCHIKEY UYQGVDXDXBAABN-TUAAJWHTSA-N
AC$INSTRUMENT: 4000Q TRAP, Applied Biosystems
AC$INSTRUMENT_TYPE: LC-ESI-QIT
AC$MASS_SPECTROMETRY: MS_TYPE MS2
AC$MASS_SPECTROMETRY: ION_MODE NEGATIVE
AC$MASS_SPECTROMETRY: COLLISION_ENERGY 20 V
AC$MASS_SPECTROMETRY: IONIZATION ESI
MS$FOCUSED_ION: PRECURSOR_TYPE [M-H]-
MS$DATA_PROCESSING: IGNORE rel.val. < 0.5
MS$DATA_PROCESSING: WHOLE Analyst 1.4.2
PK$SPLASH: splash10-052f-0094000000-55442acd5f9f6e75705d
PK$NUM_PEAK: 14
PK$PEAK: m/z int. rel.int.
  177.140 9375.0 12
  179.120 9375.0 12
  195.064 35416.7 47
  197.140 9375.0 12
  209.163 59375.0 79
  227.214 182291.7 242
  243.120 6250.0 8
  247.164 40625.0 54
  247.360 9375.0 12
  273.120 10416.7 14
  273.360 4166.7 6
  291.150 753125.0 999
  309.086 529166.7 702
  309.520 12500.0 17
//
