ACCESSION: MSBNK-Chubu_Univ-UT000200
RECORD_TITLE: 8,15-DiHETE; LC-ESI-QIT; MS2; CE:15 V; [M-H]-
DATE: 2016.01.19 (Created 2007.10.19, modified 2011.08.03)
AUTHORS: Nakanishi H, Taguchi R, Graduate School of Medicine, The University of Tokyo
LICENSE: CC BY-NC-SA
CH$NAME: 8,15-DiHETE
CH$NAME: 8S,15S-dihydroxy-5Z,9E,11Z,13E-eicosatetraenoic acid
CH$NAME: 8(S),15(S)-DiHETE
CH$COMPOUND_CLASS: Natural Product; Lipid; Fatty acid
CH$FORMULA: C20H32O4
CH$EXACT_MASS: 336.23006
CH$SMILES: CCCCCC(O)C=CC=CC=CC(O)CC=CCCCC(O)=O
CH$IUPAC: InChI=1S/C20H32O4/c1-2-3-8-13-18(21)14-9-4-5-10-15-19(22)16-11-6-7-12-17-20(23)24/h4-6,9-11,14-15,18-19,21-22H,2-3,7-8,12-13,16-17H2,1H3,(H,23,24)/b5-4-,11-6-,14-9+,15-10+/t18-,19+/m0/s1
CH$LINK: CAS 80234-65-7
CH$LINK: CAYMAN 35370
CH$LINK: LIPIDBANK DFA8105
CH$LINK: INCHIKEY NNPWRKSGORGTIM-HCCKYKKOSA-N
AC$INSTRUMENT: 4000Q TRAP, Applied Biosystems
AC$INSTRUMENT_TYPE: LC-ESI-QIT
AC$MASS_SPECTROMETRY: MS_TYPE MS2
AC$MASS_SPECTROMETRY: ION_MODE NEGATIVE
AC$MASS_SPECTROMETRY: COLLISION_ENERGY 15 V
AC$MASS_SPECTROMETRY: IONIZATION ESI
MS$FOCUSED_ION: PRECURSOR_TYPE [M-H]-
MS$DATA_PROCESSING: IGNORE rel.val. < 0.5
MS$DATA_PROCESSING: WHOLE Analyst 1.4.2
PK$SPLASH: splash10-000i-0009000000-18914871603eafb839d6
PK$NUM_PEAK: 24
PK$PEAK: m/z int. rel.int.
  151.200 12500.0 1
  154.983 121875.0 5
  155.120 62500.0 3
  177.120 12500.0 1
  191.131 59375.0 3
  217.164 187500.0 8
  217.440 12500.0 1
  219.120 15625.0 1
  220.960 12500.0 1
  221.137 65625.0 3
  235.167 568750.0 25
  236.080 15625.0 1
  255.307 21875.0 1
  273.132 112500.0 5
  273.280 50000.0 2
  291.088 40625.0 2
  291.280 12500.0 1
  299.200 12500.0 1
  299.413 12500.0 1
  317.265 1081250.0 47
  318.080 21875.0 1
  318.960 12500.0 1
  335.144 22853125.0 999
  335.932 59375.0 3
//
