ACCESSION: MSBNK-Chubu_Univ-UT001682
RECORD_TITLE: Phosphatidylcholine 18:1-24:0; LC-ESI-ITFT; MS3; [M+CH3COO]-/[M-CH3]-; RT: 50.77; Exp: 1
DATE: 2016.01.19 (Created 2010.05.07, modified 2011.08.03)
AUTHORS: Taguchi R, Graduate School of Medicine, The University of Tokyo
LICENSE: CC BY-NC-SA
PUBLICATION: Taguchi, R.; Ishikawa, M. Precise and Global Identification of Phospholipid Molecular Species by an Orbitrap Mass Spectrometer and Automated Search Engine Lipid Search. Journal of Chromatography A 2010, 1217 (25), 4229–39. DOI:10.1016/j.chroma.2010.04.034
CH$NAME: Phosphatidylcholine 18:1-24:0
CH$COMPOUND_CLASS: Natural Product; Glycerophospholipids; Glycerophosphocholines; Diacylglycerophosphocholines
CH$FORMULA: C50H98NO8P
CH$EXACT_MASS: 871.70301
CH$SMILES: C(C)CCCCCCCCCCCC=CCCC(=O)OCC(COP(OCC[N+1](C)(C)C)([O-1])=O)OC(=O)CCCCCCCCCCCCCCCCCCCCCCC
CH$IUPAC: InChI=1S/C50H98NO8P/c1-6-8-10-12-14-16-18-20-22-23-24-25-26-27-29-31-33-35-37-39-41-43-50(53)59-48(47-58-60(54,55)57-45-44-51(3,4)5)46-56-49(52)42-40-38-36-34-32-30-28-21-19-17-15-13-11-9-7-2/h36,38,48H,6-35,37,39-47H2,1-5H3/b38-36-
CH$LINK: INCHIKEY LGOGTXKSCSWTOW-WASYMBJWSA-N
SP$SCIENTIFIC_NAME: Mus musculus
SP$LINEAGE: cellular organisms; Eukaryota; Fungi/Metazoa group; Metazoa; Eumetazoa; Bilateria; Coelomata; Deuterostomia; Chordata; Craniata; Vertebrata; Gnathostomata; Teleostomi; Euteleostomi; Sarcopterygii; Tetrapoda; Amniota; Mammalia; Theria; Eutheria; Euarchontoglires; Glires; Rodentia; Sciurognathi; Muroidea; Muridae; Murinae; Mus
SP$LINK: NCBI-TAXONOMY 10090
SP$SAMPLE: brain
AC$INSTRUMENT: LC-10ADVPmicro HPLC, Shimadzu; LTQ Orbitrap, Thermo Scientific
AC$INSTRUMENT_TYPE: LC-ESI-ITFT
AC$MASS_SPECTROMETRY: MS_TYPE MS3
AC$MASS_SPECTROMETRY: ION_MODE NEGATIVE
AC$MASS_SPECTROMETRY: COLLISION_ENERGY 30%
AC$MASS_SPECTROMETRY: ION_SPRAY_VOLTAGE 3500 V
AC$MASS_SPECTROMETRY: IONIZATION ESI
AC$CHROMATOGRAPHY: COLUMN_NAME Develosil C30, Nomura Chemical
AC$CHROMATOGRAPHY: FLOW_GRADIENT  add 95/5 at 0 min, 70/30 at 40 min, 50/50 at 41 min, 50/50 at 90 min
AC$CHROMATOGRAPHY: FLOW_RATE  add 100 uL/min
AC$CHROMATOGRAPHY: RETENTION_TIME 50.76 min (in paper: 50.8 min)
AC$CHROMATOGRAPHY: SOLVENT A acetonitrile-methanol-water (19:19:2) with 0.1% acetic acid and 0.1% ammonium hydroxide (28%)
AC$CHROMATOGRAPHY: SOLVENT B 2-propanol with 0.1% acetic acid and 0.1% ammonium hydroxide (28%)
MS$FOCUSED_ION: PRECURSOR_M/Z 930.72/856.29
MS$FOCUSED_ION: PRECURSOR_TYPE [M+CH3COO]-/[M-CH3]-
MS$DATA_PROCESSING: WHOLE Xcalibur ver-2.0
PK$SPLASH: splash10-00lr-0096010000-83e2eb7a660b189b679f
PK$ANNOTATION: m/z num type mass error(ppm) formula
  281.13 1 [fa(18:1)-H]- 281.2480553035 -419 C18H33O2-
  367.20 1 [fa(24:0)-H]- 367.3576057529 -428 C24H47O2-
  592.37 1 [lyso_PC(-,24:0)]- 592.4342148922 -107 C31H63NO7P-
PK$NUM_PEAK: 3
PK$PEAK: m/z int. rel.int.
  281.13 344.9 999
  367.20 242.7 703
  592.37 45.1 131
//
