ACCESSION: MSBNK-Chubu_Univ-UT002896
RECORD_TITLE: Phosphatidylethanolamine alkenyl 18:0-24:5; LC-ESI-ITFT; MS2; [M-H]-; RT: 37.85; Exp: 3
DATE: 2016.01.19 (Created 2010.05.07, modified 2011.08.03)
AUTHORS: Taguchi R, Graduate School of Medicine, The University of Tokyo
LICENSE: CC BY-NC-SA
PUBLICATION: Taguchi, R.; Ishikawa, M. Precise and Global Identification of Phospholipid Molecular Species by an Orbitrap Mass Spectrometer and Automated Search Engine Lipid Search. Journal of Chromatography A 2010, 1217 (25), 4229–39. DOI:10.1016/j.chroma.2010.04.034
CH$NAME: Phosphatidylethanolamine alkenyl 18:0-24:5
CH$COMPOUND_CLASS: Natural Product; Glycerophospholipids; Glycerophosphoethanolamines; 1Z-alkenyl,2-acylglycerophosphoethanolamines
CH$FORMULA: C47H84NO7P
CH$EXACT_MASS: 805.59854
CH$SMILES: C(CCCCCCCCCCCCCCC)C=COCC(OC(=O)CCC=CCC=CCC=CCC=CCC=CCCCCCCC)COP(OCCN)(O)=O
CH$IUPAC: InChI=1S/C47H84NO7P/c1-3-5-7-9-11-13-15-17-19-21-22-23-24-25-26-28-30-32-34-36-38-40-47(49)55-46(45-54-56(50,51)53-43-41-48)44-52-42-39-37-35-33-31-29-27-20-18-16-14-12-10-8-6-4-2/h15,17,21-22,24-25,28,30,34,36,39,42,46H,3-14,16,18-20,23,26-27,29,31-33,35,37-38,40-41,43-45,48H2,1-2H3,(H,50,51)/b17-15-,22-21-,25-24-,30-28-,36-34-,42-39+
CH$LINK: INCHIKEY OXSYLAKUJGJRGC-PBMCJBRHSA-N
SP$SCIENTIFIC_NAME: Mus musculus
SP$LINEAGE: cellular organisms; Eukaryota; Fungi/Metazoa group; Metazoa; Eumetazoa; Bilateria; Coelomata; Deuterostomia; Chordata; Craniata; Vertebrata; Gnathostomata; Teleostomi; Euteleostomi; Sarcopterygii; Tetrapoda; Amniota; Mammalia; Theria; Eutheria; Euarchontoglires; Glires; Rodentia; Sciurognathi; Muroidea; Muridae; Murinae; Mus
SP$LINK: NCBI-TAXONOMY 10090
SP$SAMPLE: brain
AC$INSTRUMENT: LC-10ADVPmicro HPLC, Shimadzu; LTQ Orbitrap, Thermo Scientific
AC$INSTRUMENT_TYPE: LC-ESI-ITFT
AC$MASS_SPECTROMETRY: MS_TYPE MS2
AC$MASS_SPECTROMETRY: ION_MODE NEGATIVE
AC$MASS_SPECTROMETRY: COLLISION_ENERGY 30%
AC$MASS_SPECTROMETRY: ION_SPRAY_VOLTAGE 3500 V
AC$MASS_SPECTROMETRY: IONIZATION ESI
AC$CHROMATOGRAPHY: COLUMN_NAME Develosil C30, Nomura Chemical
AC$CHROMATOGRAPHY: FLOW_GRADIENT  add 95/5 at 0 min, 70/30 at 40 min, 50/50 at 41 min, 50/50 at 90 min
AC$CHROMATOGRAPHY: FLOW_RATE  add 100 uL/min
AC$CHROMATOGRAPHY: RETENTION_TIME 38.00 min (in paper: 37.9 min)
AC$CHROMATOGRAPHY: SOLVENT A acetonitrile-methanol-water (19:19:2) with 0.1% acetic acid and 0.1% ammonium hydroxide (28%)
AC$CHROMATOGRAPHY: SOLVENT B 2-propanol with 0.1% acetic acid and 0.1% ammonium hydroxide (28%)
MS$FOCUSED_ION: PRECURSOR_M/Z 804.59
MS$FOCUSED_ION: PRECURSOR_TYPE [M-H]-
MS$DATA_PROCESSING: WHOLE Xcalibur ver-2.0
PK$SPLASH: splash10-0a4i-0009400000-256ffffcf9a9355a5415
PK$ANNOTATION: m/z num type mass error(ppm) formula
  313.25 1 [fa(24:5)-H-CO2]- 313.2895261877 -125 C23H37-
  357.07 1 [fa(24:5)-H]- 357.2793554319 -585 C24H37O2-
  446.24 1 [lyso_PE(alkenyl-18:0,-)-H2O]- 446.3035350702 -141 C23H45NO5P-
  464.13 1 [lyso_PE(alkenyl-18:0,-)]- 464.3140997565 -395 C23H47NO6P-
PK$NUM_PEAK: 34
PK$PEAK: m/z int. rel.int.
  229.47 13.8 9
  256.07 19.1 13
  259.30 10.4 7
  273.01 25.0 16
  279.30 4.8 3
  282.84 38.8 25
  284.22 94.6 62
  285.20 10.5 7
  310.44 21.7 14
  313.25 154.9 102
  314.20 20.2 13
  327.08 154.8 102
  328.19 88.0 58
  357.07 1521.7 999
  358.12 241.7 159
  404.24 7.9 5
  432.98 12.9 8
  446.24 124.8 82
  447.32 15.6 10
  464.13 451.9 297
  465.12 90.2 59
  475.10 11.2 7
  492.29 107.3 70
  493.27 110.9 73
  494.23 63.8 42
  517.93 6.5 4
  519.35 12.1 8
  649.22 24.6 16
  702.60 28.1 18
  703.43 23.0 15
  713.88 12.3 8
  728.15 11.8 8
  730.16 12.7 8
  771.92 10.4 7
//
