ACCESSION: MSBNK-Chubu_Univ-UT002275
RECORD_TITLE: Phosphatidylcholine 16:0-20:3; LC-ESI-ITFT; MS3; [M+CH3COO]-/[M-CH3]-; RT: 21.21; Exp: 2
DATE: 2016.01.19 (Created 2010.05.07, modified 2011.08.03)
AUTHORS: Taguchi R, Graduate School of Medicine, The University of Tokyo
LICENSE: CC BY-NC-SA
PUBLICATION: Taguchi, R.; Ishikawa, M. Precise and Global Identification of Phospholipid Molecular Species by an Orbitrap Mass Spectrometer and Automated Search Engine Lipid Search. Journal of Chromatography A 2010, 1217 (25), 4229–39. DOI:10.1016/j.chroma.2010.04.034
CH$NAME: Phosphatidylcholine 16:0-20:3
CH$COMPOUND_CLASS: Natural Product; Glycerophospholipids; Glycerophosphocholines; Diacylglycerophosphocholines
CH$FORMULA: C44H82NO8P
CH$EXACT_MASS: 783.57781
CH$SMILES: C(CCCCC)CCCC=CCC=CCC=CCCC(=O)OC(COP(OCC[N+1](C)(C)C)([O-1])=O)COC(CCCCCCCCCCCCCCC)=O
CH$IUPAC: InChI=1S/C44H82NO8P/c1-6-8-10-12-14-16-18-20-21-22-23-25-27-29-31-33-35-37-44(47)53-42(41-52-54(48,49)51-39-38-45(3,4)5)40-50-43(46)36-34-32-30-28-26-24-19-17-15-13-11-9-7-2/h21-22,25,27,31,33,42H,6-20,23-24,26,28-30,32,34-41H2,1-5H3/b22-21-,27-25-,33-31-
CH$LINK: INCHIKEY XWDUIGPTBYOBBP-BQYMPCJESA-N
SP$SCIENTIFIC_NAME: Mus musculus
SP$LINEAGE: cellular organisms; Eukaryota; Fungi/Metazoa group; Metazoa; Eumetazoa; Bilateria; Coelomata; Deuterostomia; Chordata; Craniata; Vertebrata; Gnathostomata; Teleostomi; Euteleostomi; Sarcopterygii; Tetrapoda; Amniota; Mammalia; Theria; Eutheria; Euarchontoglires; Glires; Rodentia; Sciurognathi; Muroidea; Muridae; Murinae; Mus
SP$LINK: NCBI-TAXONOMY 10090
SP$SAMPLE: liver
AC$INSTRUMENT: LC-10ADVPmicro HPLC, Shimadzu; LTQ Orbitrap, Thermo Scientific
AC$INSTRUMENT_TYPE: LC-ESI-ITFT
AC$MASS_SPECTROMETRY: MS_TYPE MS3
AC$MASS_SPECTROMETRY: ION_MODE NEGATIVE
AC$MASS_SPECTROMETRY: COLLISION_ENERGY 30%
AC$MASS_SPECTROMETRY: ION_SPRAY_VOLTAGE 3500 V
AC$MASS_SPECTROMETRY: IONIZATION ESI
AC$CHROMATOGRAPHY: COLUMN_NAME Develosil C30, Nomura Chemical
AC$CHROMATOGRAPHY: FLOW_GRADIENT  add 95/5 at 0 min, 70/30 at 40 min, 50/50 at 41 min, 50/50 at 90 min
AC$CHROMATOGRAPHY: FLOW_RATE  add 100 uL/min
AC$CHROMATOGRAPHY: RETENTION_TIME 21.41 min (in paper: 21.2 min)
AC$CHROMATOGRAPHY: SOLVENT A acetonitrile-methanol-water (19:19:2) with 0.1% acetic acid and 0.1% ammonium hydroxide (28%)
AC$CHROMATOGRAPHY: SOLVENT B 2-propanol with 0.1% acetic acid and 0.1% ammonium hydroxide (28%)
MS$FOCUSED_ION: PRECURSOR_M/Z 842.59/768.15
MS$FOCUSED_ION: PRECURSOR_TYPE [M+CH3COO]-/[M-CH3]-
MS$DATA_PROCESSING: WHOLE Xcalibur ver-2.0
PK$SPLASH: splash10-0a4i-0029100000-9258a7e524b8495f3450
PK$ANNOTATION: m/z num type mass error(ppm) formula
  255.07 1 [fa(16:0)-H]- 255.2324052393 -635 C16H31O2-
  261.20 1 [fa(20:3)-H-CO2]- 261.2582260593 -222 C19H33-
  305.04 1 [fa(20:3)-H]- 305.2480553035 -681 C20H33O2-
  462.05 1 [lyso_PC(16:0,-)-H2O]- 462.2984496923 -536 C23H45NO6P-
  480.08 1 [lyso_PC(16:0,-)]- 480.3090143786 -476 C23H47NO7P-
  512.15 1 [lyso_PC(-,20:3)-H2O]- 512.3140997565 -319 C27H47NO6P-
  530.18 1 [lyso_PC(-,20:3)]- 530.3246644428 -272 C27H49NO7P-
PK$NUM_PEAK: 21
PK$PEAK: m/z int. rel.int.
  223.79 24.6 1
  233.10 12.6 1
  237.13 34.4 2
  242.12 24.1 1
  255.07 5210.8 269
  261.20 107.3 6
  279.09 395.2 20
  281.12 198.1 10
  285.22 21.7 1
  286.89 24.0 1
  303.14 30.1 2
  305.04 19346.4 999
  305.71 55.9 3
  462.05 199.7 10
  480.08 2671.8 138
  480.77 3.7 1
  488.10 6.7 1
  506.02 65.0 3
  512.15 134.5 7
  530.18 123.2 6
  697.03 16.8 1
//
