ACCESSION: MSBNK-Chubu_Univ-UT000032
RECORD_TITLE: 12-HETE; LC-ESI-QIT; MS2; CE:40 V; [M-H]-
DATE: 2016.01.19 (Created 2007.10.19, modified 2011.08.03)
AUTHORS: Nakanishi H, Taguchi R, Graduate School of Medicine, The University of Tokyo
LICENSE: CC BY-NC-SA
CH$NAME: 12-HETE
CH$NAME: 12S-hydoxy-5Z,8Z,10E,14Z-eicosatetraenoic acid
CH$NAME: (5Z,8Z,10E,14Z)-12-Hydroxy-5,8,10,14-icosatetraenoic acid
CH$NAME: 12(S)-HETE
CH$NAME: (5Z,8Z,10E,14Z)-(12S)-12-Hydroxyeicosa-5,8,10,14-tetraenoic acid
CH$NAME: (5Z,8Z,10E,14Z)-(12S)-12-Hydroxyicosa-5,8,10,14-tetraenoic acid
CH$COMPOUND_CLASS: Natural Product; Lipid; Eicosanoid
CH$FORMULA: C20H32O3
CH$EXACT_MASS: 320.23514
CH$SMILES: CCCCCC=CCC(O)C=CC=CCC=CCCCC(O)=O
CH$IUPAC: InChI=1S/C20H32O3/c1-2-3-4-5-10-13-16-19(21)17-14-11-8-6-7-9-12-15-18-20(22)23/h7-11,13-14,17,19,21H,2-6,12,15-16,18H2,1H3,(H,22,23)/b9-7-,11-8-,13-10-,17-14+/t19-/m0/s1
CH$LINK: CAS 54397-83-0
CH$LINK: CAYMAN 34570
CH$LINK: CHEBI CHEBI:34146
CH$LINK: KEGG C14777
CH$LINK: LIPIDBANK XPR6102
CH$LINK: NIKKAJI J356.364B
CH$LINK: INCHIKEY ZNHVWPKMFKADKW-LQWMCKPYSA-N
AC$INSTRUMENT: 4000Q TRAP, Applied Biosystems
AC$INSTRUMENT_TYPE: LC-ESI-QIT
AC$MASS_SPECTROMETRY: MS_TYPE MS2
AC$MASS_SPECTROMETRY: ION_MODE NEGATIVE
AC$MASS_SPECTROMETRY: COLLISION_ENERGY 40 V
AC$MASS_SPECTROMETRY: IONIZATION ESI
MS$FOCUSED_ION: PRECURSOR_TYPE [M-H]-
MS$DATA_PROCESSING: IGNORE rel.val. < 0.5
MS$DATA_PROCESSING: WHOLE Analyst 1.4.2
PK$SPLASH: splash10-119i-0590000000-aeab46f6858233665b5b
PK$NUM_PEAK: 7
PK$PEAK: m/z int. rel.int.
  160.960 8333.3 250
  163.040 16666.7 500
  189.120 33333.3 999
  203.120 33333.3 999
  229.120 25000.0 749
  229.360 8333.3 250
  257.040 25000.0 749
//
