ACCESSION: MSBNK-Chubu_Univ-UT000152
RECORD_TITLE: 20-HDoHE; LC-ESI-QIT; MS2; CE:45 V; [M-H]-
DATE: 2016.01.19 (Created 2007.10.19, modified 2011.08.03)
AUTHORS: Nakanishi H, Taguchi R, Graduate School of Medicine, The University of Tokyo
LICENSE: CC BY-NC-SA
CH$NAME: 20-HDoHE
CH$NAME: 20-hydroxy-4Z,7Z,10Z,13Z,16Z,18E-docosahexaenoic acid
CH$NAME: (+-)20-HDoHE
CH$COMPOUND_CLASS: Natural Product; Lipid; Fatty acid
CH$FORMULA: C22H32O3
CH$EXACT_MASS: 344.23514
CH$SMILES: CCC(O)C=CC=CCC=CCC=CCC=CCC=CCCC(O)=O
CH$IUPAC: InChI=1S/C22H32O3/c1-2-21(23)19-17-15-13-11-9-7-5-3-4-6-8-10-12-14-16-18-20-22(24)25/h3-4,7-10,13-17,19,21,23H,2,5-6,11-12,18,20H2,1H3,(H,24,25)/b4-3-,9-7-,10-8-,15-13-,16-14-,19-17+
CH$LINK: CAS 90906-41-5
CH$LINK: CAYMAN 33750
CH$LINK: INCHIKEY YUZXOJOCNGKDNI-LFVREGEGSA-N
AC$INSTRUMENT: 4000Q TRAP, Applied Biosystems
AC$INSTRUMENT_TYPE: LC-ESI-QIT
AC$MASS_SPECTROMETRY: MS_TYPE MS2
AC$MASS_SPECTROMETRY: ION_MODE NEGATIVE
AC$MASS_SPECTROMETRY: COLLISION_ENERGY 45 V
AC$MASS_SPECTROMETRY: IONIZATION ESI
MS$FOCUSED_ION: PRECURSOR_TYPE [M-H]-
MS$DATA_PROCESSING: IGNORE rel.val. < 0.5
MS$DATA_PROCESSING: WHOLE Analyst 1.4.2
PK$SPLASH: splash10-00lr-1900000000-b13dc13981814f068964
PK$NUM_PEAK: 3
PK$PEAK: m/z int. rel.int.
  71.200 6250.0 285
  115.200 12500.0 571
  133.013 21875.0 999
//
