ACCESSION: MSBNK-Chubu_Univ-UT002291
RECORD_TITLE: Phosphatidylcholine 17:0-20:5; LC-ESI-ITFT; MS3; [M+CH3COO]-/[M-CH3]-; RT: 17.81; Exp: 2
DATE: 2016.01.19 (Created 2010.05.07, modified 2011.08.03)
AUTHORS: Taguchi R, Graduate School of Medicine, The University of Tokyo
LICENSE: CC BY-NC-SA
PUBLICATION: Taguchi, R.; Ishikawa, M. Precise and Global Identification of Phospholipid Molecular Species by an Orbitrap Mass Spectrometer and Automated Search Engine Lipid Search. Journal of Chromatography A 2010, 1217 (25), 4229–39. DOI:10.1016/j.chroma.2010.04.034
CH$NAME: Phosphatidylcholine 17:0-20:5
CH$COMPOUND_CLASS: Natural Product; Glycerophospholipids; Glycerophosphocholines; Diacylglycerophosphocholines
CH$FORMULA: C45H80NO8P
CH$EXACT_MASS: 793.56216
CH$SMILES: C(CCCCCC)CCCCCCCCCC(=O)OCC(COP(OCC[N+1](C)(C)C)([O-1])=O)OC(CCC=CCC=CCC=CCC=CCC=CCCC)=O
CH$IUPAC: InChI=1S/C45H80NO8P/c1-6-8-10-12-14-16-18-20-22-23-24-26-28-30-32-34-36-38-45(48)54-43(42-53-55(49,50)52-40-39-46(3,4)5)41-51-44(47)37-35-33-31-29-27-25-21-19-17-15-13-11-9-7-2/h10,12,16,18,22-23,26,28,32,34,43H,6-9,11,13-15,17,19-21,24-25,27,29-31,33,35-42H2,1-5H3/b12-10-,18-16-,23-22-,28-26-,34-32-
CH$LINK: INCHIKEY QNXFYUSBFXCOSM-ZXKFMESCSA-N
SP$SCIENTIFIC_NAME: Mus musculus
SP$LINEAGE: cellular organisms; Eukaryota; Fungi/Metazoa group; Metazoa; Eumetazoa; Bilateria; Coelomata; Deuterostomia; Chordata; Craniata; Vertebrata; Gnathostomata; Teleostomi; Euteleostomi; Sarcopterygii; Tetrapoda; Amniota; Mammalia; Theria; Eutheria; Euarchontoglires; Glires; Rodentia; Sciurognathi; Muroidea; Muridae; Murinae; Mus
SP$LINK: NCBI-TAXONOMY 10090
SP$SAMPLE: liver
AC$INSTRUMENT: LC-10ADVPmicro HPLC, Shimadzu; LTQ Orbitrap, Thermo Scientific
AC$INSTRUMENT_TYPE: LC-ESI-ITFT
AC$MASS_SPECTROMETRY: MS_TYPE MS3
AC$MASS_SPECTROMETRY: ION_MODE NEGATIVE
AC$MASS_SPECTROMETRY: COLLISION_ENERGY 30%
AC$MASS_SPECTROMETRY: ION_SPRAY_VOLTAGE 3500 V
AC$MASS_SPECTROMETRY: IONIZATION ESI
AC$CHROMATOGRAPHY: COLUMN_NAME Develosil C30, Nomura Chemical
AC$CHROMATOGRAPHY: FLOW_GRADIENT  add 95/5 at 0 min, 70/30 at 40 min, 50/50 at 41 min, 50/50 at 90 min
AC$CHROMATOGRAPHY: FLOW_RATE  add 100 uL/min
AC$CHROMATOGRAPHY: RETENTION_TIME 17.69 min (in paper: 17.8 min)
AC$CHROMATOGRAPHY: SOLVENT A acetonitrile-methanol-water (19:19:2) with 0.1% acetic acid and 0.1% ammonium hydroxide (28%)
AC$CHROMATOGRAPHY: SOLVENT B 2-propanol with 0.1% acetic acid and 0.1% ammonium hydroxide (28%)
MS$FOCUSED_ION: PRECURSOR_M/Z 852.57/778.09
MS$FOCUSED_ION: PRECURSOR_TYPE [M+CH3COO]-/[M-CH3]-
MS$DATA_PROCESSING: WHOLE Xcalibur ver-2.0
PK$SPLASH: splash10-0udl-0069410000-f5d578eedffc277c46a1
PK$ANNOTATION: m/z num type mass error(ppm) formula
  257.10 1 [fa(20:5)-H-CO2]- 257.2269259309 -492 C19H29-
  269.33 1 [fa(17:0)-H]- 269.2480553035 304 C17H33O2-
  301.14 1 [fa(20:5)-H]- 301.2167551751 -254 C20H29O2-
  526.17 1 [lyso_PC(-,20:5)]- 526.2933643144 -233 C27H45NO7P-
PK$NUM_PEAK: 9
PK$PEAK: m/z int. rel.int.
  257.10 45.8 403
  269.33 47.9 422
  301.14 113.5 999
  303.31 9.4 83
  329.32 10.5 92
  492.23 6.1 54
  493.73 66.0 581
  507.82 6.7 59
  526.17 9.4 83
//
