ACCESSION: MSBNK-Chubu_Univ-UT001616
RECORD_TITLE: Phosphatidylserine 18:0-18:2; LC-ESI-ITFT; MS3; [M-H]-/[M-C3H6NO2]-; RT: 28.22; Exp: 1
DATE: 2016.01.19 (Created 2010.05.07, modified 2011.08.03)
AUTHORS: Taguchi R, Graduate School of Medicine, The University of Tokyo
LICENSE: CC BY-NC-SA
PUBLICATION: Taguchi, R.; Ishikawa, M. Precise and Global Identification of Phospholipid Molecular Species by an Orbitrap Mass Spectrometer and Automated Search Engine Lipid Search. Journal of Chromatography A 2010, 1217 (25), 4229–39. DOI:10.1016/j.chroma.2010.04.034
COMMENT: PRECURSOR_TYPE [M-H]-/[M-Ser]-
CH$NAME: Phosphatidylserine 18:0-18:2
CH$COMPOUND_CLASS: Natural Product; Glycerophospholipids; Glycerophosphoserines; Diacylglycerophosphoserines
CH$FORMULA: C43H80NO9P
CH$EXACT_MASS: 785.55707
CH$SMILES: C(CCCCCC)CCCCCCCCCCC(OCC(OC(CCC=CCC=CCCCCCCCCCC)=O)COP(O)(=O)OCC(N)C(C)=O)=O
CH$IUPAC: InChI=1S/C43H80NO9P/c1-4-6-8-10-12-14-16-18-20-22-24-26-28-30-32-34-42(46)50-36-40(37-51-54(48,49)52-38-41(44)39(3)45)53-43(47)35-33-31-29-27-25-23-21-19-17-15-13-11-9-7-5-2/h23,25,29,31,40-41H,4-22,24,26-28,30,32-38,44H2,1-3H3,(H,48,49)/b25-23-,31-29-
CH$LINK: INCHIKEY IWSSAKWTRTWQEA-WGPKDLKGSA-N
SP$SCIENTIFIC_NAME: Mus musculus
SP$LINEAGE: cellular organisms; Eukaryota; Fungi/Metazoa group; Metazoa; Eumetazoa; Bilateria; Coelomata; Deuterostomia; Chordata; Craniata; Vertebrata; Gnathostomata; Teleostomi; Euteleostomi; Sarcopterygii; Tetrapoda; Amniota; Mammalia; Theria; Eutheria; Euarchontoglires; Glires; Rodentia; Sciurognathi; Muroidea; Muridae; Murinae; Mus
SP$LINK: NCBI-TAXONOMY 10090
SP$SAMPLE: liver
AC$INSTRUMENT: LC-10ADVPmicro HPLC, Shimadzu; LTQ Orbitrap, Thermo Scientific
AC$INSTRUMENT_TYPE: LC-ESI-ITFT
AC$MASS_SPECTROMETRY: MS_TYPE MS3
AC$MASS_SPECTROMETRY: ION_MODE NEGATIVE
AC$MASS_SPECTROMETRY: COLLISION_ENERGY 30%
AC$MASS_SPECTROMETRY: ION_SPRAY_VOLTAGE 3500 V
AC$MASS_SPECTROMETRY: IONIZATION ESI
AC$CHROMATOGRAPHY: COLUMN_NAME Develosil C30, Nomura Chemical
AC$CHROMATOGRAPHY: FLOW_GRADIENT  add 95/5 at 0 min, 70/30 at 40 min, 50/50 at 41 min, 50/50 at 90 min
AC$CHROMATOGRAPHY: FLOW_RATE  add 100 uL/min
AC$CHROMATOGRAPHY: RETENTION_TIME 28.43 min (in paper: 28.2 min)
AC$CHROMATOGRAPHY: SOLVENT A acetonitrile-methanol-water (19:19:2) with 0.1% acetic acid and 0.1% ammonium hydroxide (28%)
AC$CHROMATOGRAPHY: SOLVENT B 2-propanol with 0.1% acetic acid and 0.1% ammonium hydroxide (28%)
MS$FOCUSED_ION: PRECURSOR_M/Z 786.53/699.18
MS$FOCUSED_ION: PRECURSOR_TYPE [M-H]-/[M-C3H6NO2]-
MS$DATA_PROCESSING: WHOLE Xcalibur ver-2.0
PK$SPLASH: splash10-017i-0070900000-d508b526212eb0c634de
PK$ANNOTATION: m/z num type mass error(ppm) formula
  279.12 1 [fa(18:2)-H]- 279.2324052393 -402 C18H31O2-
  283.07 1 [fa(18:0)-H]- 283.2637053677 -683 C18H35O2-
  415.07 1 [lyso_PS(-,18:2)-H2O]- 415.2249503982 -372 C21H36O6P-
  419.14 1 [lyso_PS(18:0,-)-H2O]- 419.2562505266 -276 C21H40O6P-
  437.51 1 [lyso_PS(18:0,-)]- 437.2668152129 556 C21H42O7P-
PK$NUM_PEAK: 7
PK$PEAK: m/z int. rel.int.
  279.12 98.6 625
  283.07 122.3 776
  415.07 34.5 219
  419.14 157.5 999
  432.90 17.5 111
  436.84 35.2 223
  437.51 10.6 67
//
