ACCESSION: MSBNK-Chubu_Univ-UT002810
RECORD_TITLE: Phosphatidylcholine alkyl 18:1-16:0; LC-ESI-ITFT; MS2; [M+CH3COO]-; RT: 30.43; Exp: 3
DATE: 2016.01.19 (Created 2010.05.07, modified 2011.08.03)
AUTHORS: Taguchi R, Graduate School of Medicine, The University of Tokyo
LICENSE: CC BY-NC-SA
PUBLICATION: Taguchi, R.; Ishikawa, M. Precise and Global Identification of Phospholipid Molecular Species by an Orbitrap Mass Spectrometer and Automated Search Engine Lipid Search. Journal of Chromatography A 2010, 1217 (25), 4229–39. DOI:10.1016/j.chroma.2010.04.034
CH$NAME: Phosphatidylcholine alkyl 18:1-16:0
CH$COMPOUND_CLASS: Natural Product; Glycerophospholipids; Glycerophosphocholines; 1-alkyl,2-acylglycerophosphocholines
CH$FORMULA: C42H84NO7P
CH$EXACT_MASS: 745.59854
CH$SMILES: C[N+1](C)(C)CCOP([O-1])(=O)OCC(OC(=O)CCCCCCCCCCCCCCC)COCCCC=CCCCCCCCCCCCCC
CH$IUPAC: InChI=1S/C42H84NO7P/c1-6-8-10-12-14-16-18-20-21-22-24-26-28-30-32-34-37-47-39-41(40-49-51(45,46)48-38-36-43(3,4)5)50-42(44)35-33-31-29-27-25-23-19-17-15-13-11-9-7-2/h28,30,41H,6-27,29,31-40H2,1-5H3/b30-28-
CH$LINK: INCHIKEY ITFYCOXGRQISEW-HYOGKJQXSA-N
SP$SCIENTIFIC_NAME: Mus musculus
SP$LINEAGE: cellular organisms; Eukaryota; Fungi/Metazoa group; Metazoa; Eumetazoa; Bilateria; Coelomata; Deuterostomia; Chordata; Craniata; Vertebrata; Gnathostomata; Teleostomi; Euteleostomi; Sarcopterygii; Tetrapoda; Amniota; Mammalia; Theria; Eutheria; Euarchontoglires; Glires; Rodentia; Sciurognathi; Muroidea; Muridae; Murinae; Mus
SP$LINK: NCBI-TAXONOMY 10090
SP$SAMPLE: brain
AC$INSTRUMENT: LC-10ADVPmicro HPLC, Shimadzu; LTQ Orbitrap, Thermo Scientific
AC$INSTRUMENT_TYPE: LC-ESI-ITFT
AC$MASS_SPECTROMETRY: MS_TYPE MS2
AC$MASS_SPECTROMETRY: ION_MODE NEGATIVE
AC$MASS_SPECTROMETRY: COLLISION_ENERGY 30%
AC$MASS_SPECTROMETRY: ION_SPRAY_VOLTAGE 3500 V
AC$MASS_SPECTROMETRY: IONIZATION ESI
AC$CHROMATOGRAPHY: COLUMN_NAME Develosil C30, Nomura Chemical
AC$CHROMATOGRAPHY: FLOW_GRADIENT  add 95/5 at 0 min, 70/30 at 40 min, 50/50 at 41 min, 50/50 at 90 min
AC$CHROMATOGRAPHY: FLOW_RATE  add 100 uL/min
AC$CHROMATOGRAPHY: RETENTION_TIME 30.71 min (in paper: 30.3 min)
AC$CHROMATOGRAPHY: SOLVENT A acetonitrile-methanol-water (19:19:2) with 0.1% acetic acid and 0.1% ammonium hydroxide (28%)
AC$CHROMATOGRAPHY: SOLVENT B 2-propanol with 0.1% acetic acid and 0.1% ammonium hydroxide (28%)
MS$FOCUSED_ION: PRECURSOR_M/Z 804.61
MS$FOCUSED_ION: PRECURSOR_TYPE [M+CH3COO]-
MS$DATA_PROCESSING: WHOLE Xcalibur ver-2.0
PK$SPLASH: splash10-001i-0000000900-7a735c2c58c6e8d5d4e4
PK$ANNOTATION: m/z num type mass error(ppm) formula
  255.03 1 [fa(16:0)-H]- 255.2324052393 -792 C16H31O2-
  474.19 1 [lyso_PC(alkyl-18:1,-)-H2O]- 474.3348351986 -304 C25H49NO5P-
PK$NUM_PEAK: 17
PK$PEAK: m/z int. rel.int.
  253.14 8.2 1
  255.03 45.8 4
  255.63 9.2 1
  394.06 10.4 1
  474.19 5.3 1
  516.53 20.7 2
  537.74 15.5 1
  685.29 11.6 1
  720.25 4.8 1
  722.95 22.3 2
  730.15 11767.5 999
  731.32 52.5 4
  745.13 41.5 4
  766.48 12.2 1
  785.21 5.3 1
  787.53 4.2 1
  805.91 14.7 1
//
