ACCESSION: MSBNK-Chubu_Univ-UT001509
RECORD_TITLE: Phosphatidylserine 22:6-22:6; LC-ESI-ITFT; MS2; [M-H]-; RT: 8.76; Exp: 1
DATE: 2016.01.19 (Created 2010.05.07, modified 2013.05.16)
AUTHORS: Taguchi R, Graduate School of Medicine, The University of Tokyo
LICENSE: CC BY-NC-SA
PUBLICATION: Taguchi, R.; Ishikawa, M. Precise and Global Identification of Phospholipid Molecular Species by an Orbitrap Mass Spectrometer and Automated Search Engine Lipid Search. Journal of Chromatography A 2010, 1217 (25), 4229–39. DOI:10.1016/j.chroma.2010.04.034
CH$NAME: Phosphatidylserine 22:6-22:6
CH$COMPOUND_CLASS: Natural Product; Glycerophospholipids; Glycerophosphoserines; Diacylglycerophosphoserines
CH$FORMULA: C50H74NO10P
CH$EXACT_MASS: 879.50503
CH$SMILES: C(=CCC=CCC=CCC=CCCC(=O)OCC(OC(CCC=CCC=CCC=CCC=CCC=CCC=CCC)=O)COP(O)(=O)OCC(C(O)=O)N)CC=CCC=CCC
CH$IUPAC: InChI=1S/C50H74NO10P/c1-3-5-7-9-11-13-15-17-19-21-23-25-27-29-31-33-35-37-39-41-48(52)58-43-46(44-59-62(56,57)60-45-47(51)50(54)55)61-49(53)42-40-38-36-34-32-30-28-26-24-22-20-18-16-14-12-10-8-6-4-2/h5-8,11-14,17-20,23-26,29-32,35-38,46-47H,3-4,9-10,15-16,21-22,27-28,33-34,39-45,51H2,1-2H3,(H,54,55)(H,56,57)/b7-5-,8-6-,13-11-,14-12-,19-17-,20-18-,25-23-,26-24-,31-29-,32-30-,37-35-,38-36-
CH$LINK: INCHIKEY RJCZACBLQGCNCW-GZSOIYOPSA-N
SP$SCIENTIFIC_NAME: Mus musculus
SP$LINEAGE: cellular organisms; Eukaryota; Fungi/Metazoa group; Metazoa; Eumetazoa; Bilateria; Coelomata; Deuterostomia; Chordata; Craniata; Vertebrata; Gnathostomata; Teleostomi; Euteleostomi; Sarcopterygii; Tetrapoda; Amniota; Mammalia; Theria; Eutheria; Euarchontoglires; Glires; Rodentia; Sciurognathi; Muroidea; Muridae; Murinae; Mus
SP$LINK: NCBI-TAXONOMY 10090
SP$SAMPLE: brain
AC$INSTRUMENT: LC-10ADVPmicro HPLC, Shimadzu; LTQ Orbitrap, Thermo Scientific
AC$INSTRUMENT_TYPE: LC-ESI-ITFT
AC$MASS_SPECTROMETRY: MS_TYPE MS2
AC$MASS_SPECTROMETRY: ION_MODE NEGATIVE
AC$MASS_SPECTROMETRY: COLLISION_ENERGY 30%
AC$MASS_SPECTROMETRY: ION_SPRAY_VOLTAGE 3500 V
AC$MASS_SPECTROMETRY: IONIZATION ESI
AC$CHROMATOGRAPHY: COLUMN_NAME Develosil C30, Nomura Chemical
AC$CHROMATOGRAPHY: FLOW_GRADIENT add 95/5 at 0 min, 70/30 at 40 min, 50/50 at 41 min, 50/50 at 90 min
AC$CHROMATOGRAPHY: FLOW_RATE add 100 uL/min
AC$CHROMATOGRAPHY: RETENTION_TIME 8.74 min (in paper: 9.4 min)
AC$CHROMATOGRAPHY: SOLVENT A acetonitrile-methanol-water (19:19:2) with 0.1% acetic acid and 0.1% ammonium hydroxide (28%)
AC$CHROMATOGRAPHY: SOLVENT B 2-propanol with 0.1% acetic acid and 0.1% ammonium hydroxide (28%)
MS$FOCUSED_ION: PRECURSOR_M/Z 878.50
MS$FOCUSED_ION: PRECURSOR_TYPE [M-H]-
MS$DATA_PROCESSING: WHOLE Xcalibur ver-2.0
PK$SPLASH: splash10-0006-0000100900-f026534d07590bba45d0
PK$ANNOTATION: m/z num type mass error(ppm) formula
  283.37 1 [fa(22:6)-H-CO2]- 283.2425759951 450 C21H31-
  327.14 1 [fa(22:6)-H]- 327.2324052393 -281 C22H31O2-
  463.03 2 [lyso_PS(-,22:6)-H2O]- 463.2249503982 -420 C25H36O6P-
  463.03 2 [lyso_PS(22:6,-)-H2O]- 463.2249503982 -420 C25H36O6P-
  481.04 2 [lyso_PS(-,22:6)]- 481.2355150845 -405 C25H38O7P-
  481.04 2 [lyso_PS(22:6,-)]- 481.2355150845 -405 C25H38O7P-
PK$NUM_PEAK: 9
PK$PEAK: m/z int. rel.int.
  283.37 19.0 6
  327.14 58.5 19
  463.03 514.8 167
  481.04 81.7 27
  671.85 18.5 6
  746.91 7.9 3
  766.20 5.7 2
  791.01 3073.4 999
  791.97 40.7 13
//
