ACCESSION: MSBNK-Chubu_Univ-UT001768
RECORD_TITLE: Phosphatidylcholine 17:0-20:3; LC-ESI-ITFT; MS2; [M+CH3COO]-; RT: 24.99; Exp: 2
DATE: 2016.01.19 (Created 2010.05.07, modified 2011.08.03)
AUTHORS: Taguchi R, Graduate School of Medicine, The University of Tokyo
LICENSE: CC BY-NC-SA
PUBLICATION: Taguchi, R.; Ishikawa, M. Precise and Global Identification of Phospholipid Molecular Species by an Orbitrap Mass Spectrometer and Automated Search Engine Lipid Search. Journal of Chromatography A 2010, 1217 (25), 4229–39. DOI:10.1016/j.chroma.2010.04.034
CH$NAME: Phosphatidylcholine 17:0-20:3
CH$COMPOUND_CLASS: Natural Product; Glycerophospholipids; Glycerophosphocholines; Diacylglycerophosphocholines
CH$FORMULA: C45H84NO8P
CH$EXACT_MASS: 797.59346
CH$SMILES: C(CCCCCC)CCCCCCCCCC(=O)OCC(COP(OCC[N+1](C)(C)C)([O-1])=O)OC(CCC=CCC=CCC=CCCCCCCCCC)=O
CH$IUPAC: InChI=1S/C45H84NO8P/c1-6-8-10-12-14-16-18-20-22-23-24-26-28-30-32-34-36-38-45(48)54-43(42-53-55(49,50)52-40-39-46(3,4)5)41-51-44(47)37-35-33-31-29-27-25-21-19-17-15-13-11-9-7-2/h22-23,26,28,32,34,43H,6-21,24-25,27,29-31,33,35-42H2,1-5H3/b23-22-,28-26-,34-32-
CH$LINK: INCHIKEY WONILIINQKCSNA-XXLZVXFVSA-N
SP$SCIENTIFIC_NAME: Mus musculus
SP$LINEAGE: cellular organisms; Eukaryota; Fungi/Metazoa group; Metazoa; Eumetazoa; Bilateria; Coelomata; Deuterostomia; Chordata; Craniata; Vertebrata; Gnathostomata; Teleostomi; Euteleostomi; Sarcopterygii; Tetrapoda; Amniota; Mammalia; Theria; Eutheria; Euarchontoglires; Glires; Rodentia; Sciurognathi; Muroidea; Muridae; Murinae; Mus
SP$LINK: NCBI-TAXONOMY 10090
SP$SAMPLE: liver
AC$INSTRUMENT: LC-10ADVPmicro HPLC, Shimadzu; LTQ Orbitrap, Thermo Scientific
AC$INSTRUMENT_TYPE: LC-ESI-ITFT
AC$MASS_SPECTROMETRY: MS_TYPE MS2
AC$MASS_SPECTROMETRY: ION_MODE NEGATIVE
AC$MASS_SPECTROMETRY: COLLISION_ENERGY 30%
AC$MASS_SPECTROMETRY: ION_SPRAY_VOLTAGE 3500 V
AC$MASS_SPECTROMETRY: IONIZATION ESI
AC$CHROMATOGRAPHY: COLUMN_NAME Develosil C30, Nomura Chemical
AC$CHROMATOGRAPHY: FLOW_GRADIENT  add 95/5 at 0 min, 70/30 at 40 min, 50/50 at 41 min, 50/50 at 90 min
AC$CHROMATOGRAPHY: FLOW_RATE  add 100 uL/min
AC$CHROMATOGRAPHY: RETENTION_TIME 24.88 min (in paper: 25 min)
AC$CHROMATOGRAPHY: SOLVENT A acetonitrile-methanol-water (19:19:2) with 0.1% acetic acid and 0.1% ammonium hydroxide (28%)
AC$CHROMATOGRAPHY: SOLVENT B 2-propanol with 0.1% acetic acid and 0.1% ammonium hydroxide (28%)
MS$FOCUSED_ION: PRECURSOR_M/Z 856.61
MS$FOCUSED_ION: PRECURSOR_TYPE [M+CH3COO]-
MS$DATA_PROCESSING: WHOLE Xcalibur ver-2.0
PK$SPLASH: splash10-001i-0000000900-d2175be0e811b3cb7cda
PK$ANNOTATION: m/z num type mass error(ppm) formula
  782.86 1 [PC(17:0,20:3)-CH3]- 782.5699800921 371 C44H81NO8P-
PK$NUM_PEAK: 12
PK$PEAK: m/z int. rel.int.
  283.15 7.3 6
  419.18 36.0 28
  507.09 7.1 6
  546.08 4.9 4
  591.44 7.3 6
  769.58 39.4 31
  774.12 7.0 5
  782.13 1274.1 999
  782.86 14.7 12
  790.04 9.8 8
  796.26 13.0 10
  837.98 9.2 7
//
