ACCESSION: MSBNK-Chubu_Univ-UT002798
RECORD_TITLE: Phosphatidylcholine alkenyl 16:0-18:1; LC-ESI-ITFT; MS2; [M+CH3COO]-; RT: 29.15; Exp: 3
DATE: 2016.01.19 (Created 2010.05.07, modified 2011.08.03)
AUTHORS: Taguchi R, Graduate School of Medicine, The University of Tokyo
LICENSE: CC BY-NC-SA
PUBLICATION: Taguchi, R.; Ishikawa, M. Precise and Global Identification of Phospholipid Molecular Species by an Orbitrap Mass Spectrometer and Automated Search Engine Lipid Search. Journal of Chromatography A 2010, 1217 (25), 4229–39. DOI:10.1016/j.chroma.2010.04.034
CH$NAME: Phosphatidylcholine alkenyl 16:0-18:1
CH$COMPOUND_CLASS: Natural Product; Glycerophospholipids; Glycerophosphocholines; 1Z-alkenyl,2-acylglycerophosphocholines
CH$FORMULA: C42H82NO7P
CH$EXACT_MASS: 743.58289
CH$SMILES: C(C=CCCC(=O)OC(COP(OCC[N+1](C)(C)C)([O-1])=O)COC=CCCCCCCCCCCCCCC)CCCCCCCCCCCC
CH$IUPAC: InChI=1S/C42H82NO7P/c1-6-8-10-12-14-16-18-20-22-23-25-27-29-31-33-35-42(44)50-41(40-49-51(45,46)48-38-36-43(3,4)5)39-47-37-34-32-30-28-26-24-21-19-17-15-13-11-9-7-2/h29,31,34,37,41H,6-28,30,32-33,35-36,38-40H2,1-5H3/b31-29-,37-34+
CH$LINK: INCHIKEY BKVSUCOFPMXRFF-ZTIAWKCXSA-N
SP$SCIENTIFIC_NAME: Mus musculus
SP$LINEAGE: cellular organisms; Eukaryota; Fungi/Metazoa group; Metazoa; Eumetazoa; Bilateria; Coelomata; Deuterostomia; Chordata; Craniata; Vertebrata; Gnathostomata; Teleostomi; Euteleostomi; Sarcopterygii; Tetrapoda; Amniota; Mammalia; Theria; Eutheria; Euarchontoglires; Glires; Rodentia; Sciurognathi; Muroidea; Muridae; Murinae; Mus
SP$LINK: NCBI-TAXONOMY 10090
SP$SAMPLE: brain
AC$INSTRUMENT: LC-10ADVPmicro HPLC, Shimadzu; LTQ Orbitrap, Thermo Scientific
AC$INSTRUMENT_TYPE: LC-ESI-ITFT
AC$MASS_SPECTROMETRY: MS_TYPE MS2
AC$MASS_SPECTROMETRY: ION_MODE NEGATIVE
AC$MASS_SPECTROMETRY: COLLISION_ENERGY 30%
AC$MASS_SPECTROMETRY: ION_SPRAY_VOLTAGE 3500 V
AC$MASS_SPECTROMETRY: IONIZATION ESI
AC$CHROMATOGRAPHY: COLUMN_NAME Develosil C30, Nomura Chemical
AC$CHROMATOGRAPHY: FLOW_GRADIENT  add 95/5 at 0 min, 70/30 at 40 min, 50/50 at 41 min, 50/50 at 90 min
AC$CHROMATOGRAPHY: FLOW_RATE  add 100 uL/min
AC$CHROMATOGRAPHY: RETENTION_TIME 29.40 min (in paper: 29.2 min)
AC$CHROMATOGRAPHY: SOLVENT A acetonitrile-methanol-water (19:19:2) with 0.1% acetic acid and 0.1% ammonium hydroxide (28%)
AC$CHROMATOGRAPHY: SOLVENT B 2-propanol with 0.1% acetic acid and 0.1% ammonium hydroxide (28%)
MS$FOCUSED_ION: PRECURSOR_M/Z 802.60
MS$FOCUSED_ION: PRECURSOR_TYPE [M+CH3COO]-
MS$DATA_PROCESSING: WHOLE Xcalibur ver-2.0
PK$SPLASH: splash10-004i-0000000900-7e6a95840c332c4b0184
PK$ANNOTATION: m/z num type mass error(ppm) formula
  784.41 1 [PC(alkenyl-16:0,18:1)+CH3COO-H2O]- 784.5856301563 -223 C44H83NO8P-
PK$NUM_PEAK: 23
PK$PEAK: m/z int. rel.int.
  280.77 6.3 2
  283.08 15.1 5
  284.31 5.2 2
  303.20 7.0 2
  308.22 28.5 10
  308.90 5.9 2
  357.13 9.8 3
  416.99 8.3 3
  419.75 16.3 6
  535.96 7.4 3
  554.93 13.7 5
  596.34 27.2 10
  630.93 22.2 8
  701.47 12.5 4
  715.10 9.8 3
  716.38 5.2 2
  726.19 4.6 2
  728.20 2799.2 999
  729.06 68.6 24
  741.69 6.9 2
  743.03 24.0 9
  784.41 18.3 7
  792.61 14.3 5
//
