ACCESSION: MSBNK-Chubu_Univ-UT000546
RECORD_TITLE: Triacylglycerol 14:0-16:0-16:0; LC-ESI-QTOF; MS; mouse liver
DATE: 2016.01.19 (Created 2010.05.07, modified 2011.05.06)
AUTHORS: Taguchi R, Graduate School of Medicine, The University of Tokyo
LICENSE: CC BY-NC-SA
PUBLICATION: Ikeda, K.; Oike, Y.; Shimizu, T.; Taguchi, R. Global Analysis of Triacylglycerols Including Oxidized Molecular Species by Reverse-Phase High Resolution LC/ESI-QTOF MS/MS. Journal of Chromatography B 2009, 877 (25), 2639–47. DOI:10.1016/j.jchromb.2009.03.047
CH$NAME: Triacylglycerol 14:0-16:0-16:0
CH$COMPOUND_CLASS: Natural Product; Glycerolipid; Triradylglycerol
CH$FORMULA: C49H94O6
CH$EXACT_MASS: 778.70504
CH$SMILES: C(OCC(OC(=O)CCCCCCCCCCCCCCC)COC(=O)CCCCCCCCCCCCCCC)(CCCCCCCCCCCCC)=O
CH$IUPAC: InChI=1S/C49H94O6/c1-4-7-10-13-16-19-22-24-27-30-33-36-39-42-48(51)54-45-46(44-53-47(50)41-38-35-32-29-26-21-18-15-12-9-6-3)55-49(52)43-40-37-34-31-28-25-23-20-17-14-11-8-5-2/h46H,4-45H2,1-3H3
CH$LINK: COMPTOX DTXSID30972903
CH$LINK: INCHIKEY JWVXCFSNEOMSHH-UHFFFAOYSA-N
CH$LINK: PUBCHEM CID:4099879
SP$SCIENTIFIC_NAME: Mus musculus
SP$LINEAGE: cellular organisms; Eukaryota; Fungi/Metazoa group; Metazoa; Eumetazoa; Bilateria; Coelomata; Deuterostomia; Chordata; Craniata; Vertebrata; Gnathostomata; Teleostomi; Euteleostomi; Sarcopterygii; Tetrapoda; Amniota; Mammalia; Theria; Eutheria; Euarchontoglires; Glires; Rodentia; Sciurognathi; Muroidea; Muridae; Murinae; Mus
SP$LINK: NCBI-TAXONOMY 10090
SP$SAMPLE: liver
AC$INSTRUMENT: ACQUITY UPLC System, Waters
AC$INSTRUMENT_TYPE: LC-ESI-QTOF
AC$MASS_SPECTROMETRY: MS_TYPE MS
AC$MASS_SPECTROMETRY: ION_MODE POSITIVE
AC$MASS_SPECTROMETRY: COLLISION_ENERGY 30 V
AC$MASS_SPECTROMETRY: IONIZATION ESI
AC$CHROMATOGRAPHY: CAPILLARY_VOLTAGE 3.5 kV
AC$CHROMATOGRAPHY: COLUMN_NAME ACQUITY UPLC BEH C18 column, Waters
AC$CHROMATOGRAPHY: COLUMN_PRESSURE < 5000 psi
AC$CHROMATOGRAPHY: FLOW_GRADIENT 90/10 at 0 min, 90/10 at 7.5 min, 70/30 at 40 min, 60/40 at 41 min, 40/60 at 65 min, 40/60 at 90 min
AC$CHROMATOGRAPHY: FLOW_RATE 50 uL/min
AC$CHROMATOGRAPHY: RETENTION_TIME 62.117001 min
AC$CHROMATOGRAPHY: SOLVENT A acetonitrile/methanol/water 19/19/2 (0.1% formic acid + 0.028% ammonia)
AC$CHROMATOGRAPHY: SOLVENT B isopropanol (0.1% formic acid + 0.028% ammonia)
MS$FOCUSED_ION: BASE_PEAK 551.492065
MS$FOCUSED_ION: PRECURSOR_M/Z 796.7
MS$FOCUSED_ION: PRECURSOR_TYPE [M+NH4]+
PK$SPLASH: splash10-00di-0000090000-bf158621d2396d5442c3
PK$ANNOTATION: m/z num type mass error(ppm)
  523.4880 1 [{14:0-16:0}-OH]+ 523.47264 29.3425077576177
  551.4921 1 [{16:0-16:0}-OH]+ 551.50394 -21.4685682932616
PK$NUM_PEAK: 11
PK$PEAK: m/z int. rel.int.
  245.2631 0.5 125
  263.2137 0.5 125
  523.4880 4.0 999
  524.4532 3.0 749
  525.4467 1.0 250
  526.6809 0.5 125
  537.4563 1.0 250
  537.8970 0.5 125
  551.4921 1.5 375
  552.5740 0.5 125
  575.5162 1.5 375
//
