ACCESSION: MSBNK-Chubu_Univ-UT001849
RECORD_TITLE: Phosphatidylethanolamine 16:1-20:4; LC-ESI-ITFT; MS2; [M-H]-; RT: 12.81; Exp: 2
DATE: 2016.01.19 (Created 2010.05.07, modified 2011.08.03)
AUTHORS: Taguchi R, Graduate School of Medicine, The University of Tokyo
LICENSE: CC BY-NC-SA
PUBLICATION: Taguchi, R.; Ishikawa, M. Precise and Global Identification of Phospholipid Molecular Species by an Orbitrap Mass Spectrometer and Automated Search Engine Lipid Search. Journal of Chromatography A 2010, 1217 (25), 4229–39. DOI:10.1016/j.chroma.2010.04.034
CH$NAME: Phosphatidylethanolamine 16:1-20:4
CH$COMPOUND_CLASS: Natural Product; Glycerophospholipids; Glycerophosphoethanolamines; Diacylglycerophosphoethanolamines
CH$FORMULA: C41H72NO8P
CH$EXACT_MASS: 737.49955
CH$SMILES: C(CCCCCC)=CCC=CCC=CCC=CCCC(OC(COC(CCC=CCCCCCCCCCCC)=O)COP(O)(=O)OCCN)=O
CH$IUPAC: InChI=1S/C41H72NO8P/c1-3-5-7-9-11-13-15-17-18-19-20-22-24-26-28-30-32-34-41(44)50-39(38-49-51(45,46)48-36-35-42)37-47-40(43)33-31-29-27-25-23-21-16-14-12-10-8-6-4-2/h13,15,18-19,22,24,27-30,39H,3-12,14,16-17,20-21,23,25-26,31-38,42H2,1-2H3,(H,45,46)/b15-13-,19-18-,24-22-,29-27-,30-28-
CH$LINK: INCHIKEY TUAWQIYXFSBSNQ-RQDZWXAXSA-N
SP$SCIENTIFIC_NAME: Mus musculus
SP$LINEAGE: cellular organisms; Eukaryota; Fungi/Metazoa group; Metazoa; Eumetazoa; Bilateria; Coelomata; Deuterostomia; Chordata; Craniata; Vertebrata; Gnathostomata; Teleostomi; Euteleostomi; Sarcopterygii; Tetrapoda; Amniota; Mammalia; Theria; Eutheria; Euarchontoglires; Glires; Rodentia; Sciurognathi; Muroidea; Muridae; Murinae; Mus
SP$LINK: NCBI-TAXONOMY 10090
SP$SAMPLE: liver
AC$INSTRUMENT: LC-10ADVPmicro HPLC, Shimadzu; LTQ Orbitrap, Thermo Scientific
AC$INSTRUMENT_TYPE: LC-ESI-ITFT
AC$MASS_SPECTROMETRY: MS_TYPE MS2
AC$MASS_SPECTROMETRY: ION_MODE NEGATIVE
AC$MASS_SPECTROMETRY: COLLISION_ENERGY 30%
AC$MASS_SPECTROMETRY: ION_SPRAY_VOLTAGE 3500 V
AC$MASS_SPECTROMETRY: IONIZATION ESI
AC$CHROMATOGRAPHY: COLUMN_NAME Develosil C30, Nomura Chemical
AC$CHROMATOGRAPHY: FLOW_GRADIENT  add 95/5 at 0 min, 70/30 at 40 min, 50/50 at 41 min, 50/50 at 90 min
AC$CHROMATOGRAPHY: FLOW_RATE  add 100 uL/min
AC$CHROMATOGRAPHY: RETENTION_TIME 13.04 min (in paper: 12.8 min)
AC$CHROMATOGRAPHY: SOLVENT A acetonitrile-methanol-water (19:19:2) with 0.1% acetic acid and 0.1% ammonium hydroxide (28%)
AC$CHROMATOGRAPHY: SOLVENT B 2-propanol with 0.1% acetic acid and 0.1% ammonium hydroxide (28%)
MS$FOCUSED_ION: PRECURSOR_M/Z 736.49
MS$FOCUSED_ION: PRECURSOR_TYPE [M-H]-
MS$DATA_PROCESSING: WHOLE Xcalibur ver-2.0
PK$SPLASH: splash10-0udi-0059200000-114fd0ab96bb1ba0b784
PK$ANNOTATION: m/z num type mass error(ppm) formula
  253.06 1 [fa(16:1)-H]- 253.2167551751 -618 C16H29O2-
  259.19 1 [fa(20:4)-H-CO2]- 259.2425759951 -202 C19H31-
  303.10 1 [fa(20:4)-H]- 303.2324052393 -436 C20H31O2-
  450.10 1 [lyso_PE(16:1,-)]- 450.262064186 -359 C21H41NO7P-
  482.28 1 [lyso_PE(-,20:4)-H2O]- 482.2671495639 27 C25H41NO6P-
  500.16 1 [lyso_PE(-,20:4)]- 500.2777142502 -234 C25H43NO7P-
PK$NUM_PEAK: 15
PK$PEAK: m/z int. rel.int.
  253.06 421.9 415
  254.14 22.4 22
  259.19 149.4 147
  259.86 41.9 41
  277.01 25.3 25
  278.98 15.4 15
  301.15 5.3 5
  303.10 1015.0 999
  304.15 99.6 98
  450.10 246.8 243
  450.99 7.2 7
  482.28 26.6 26
  500.16 19.2 19
  641.16 9.8 10
  662.41 38.3 38
//
