ACCESSION: MSBNK-Chubu_Univ-UT002145
RECORD_TITLE: Phosphatidylethanolamine alkenyl 16:0-20:2; LC-ESI-ITFT; MS2; [M-H]-; RT: 31.37; Exp: 2
DATE: 2016.01.19 (Created 2010.05.07, modified 2011.08.03)
AUTHORS: Taguchi R, Graduate School of Medicine, The University of Tokyo
LICENSE: CC BY-NC-SA
PUBLICATION: Taguchi, R.; Ishikawa, M. Precise and Global Identification of Phospholipid Molecular Species by an Orbitrap Mass Spectrometer and Automated Search Engine Lipid Search. Journal of Chromatography A 2010, 1217 (25), 4229–39. DOI:10.1016/j.chroma.2010.04.034
CH$NAME: Phosphatidylethanolamine alkenyl 16:0-20:2
CH$COMPOUND_CLASS: Natural Product; Glycerophospholipids; Glycerophosphoethanolamines; 1Z-alkenyl,2-acylglycerophosphoethanolamines
CH$FORMULA: C41H78NO7P
CH$EXACT_MASS: 727.55159
CH$SMILES: C(=COCC(OC(CCC=CCC=CCCCCCCCCCCCC)=O)COP(O)(=O)OCCN)CCCCCCCCCCCCCC
CH$IUPAC: InChI=1S/C41H78NO7P/c1-3-5-7-9-11-13-15-17-19-20-21-22-24-26-28-30-32-34-41(43)49-40(39-48-50(44,45)47-37-35-42)38-46-36-33-31-29-27-25-23-18-16-14-12-10-8-6-4-2/h22,24,28,30,33,36,40H,3-21,23,25-27,29,31-32,34-35,37-39,42H2,1-2H3,(H,44,45)/b24-22-,30-28-,36-33+
CH$LINK: INCHIKEY NDDBMPXGHSKRHS-CZAAGYDRSA-N
SP$SCIENTIFIC_NAME: Mus musculus
SP$LINEAGE: cellular organisms; Eukaryota; Fungi/Metazoa group; Metazoa; Eumetazoa; Bilateria; Coelomata; Deuterostomia; Chordata; Craniata; Vertebrata; Gnathostomata; Teleostomi; Euteleostomi; Sarcopterygii; Tetrapoda; Amniota; Mammalia; Theria; Eutheria; Euarchontoglires; Glires; Rodentia; Sciurognathi; Muroidea; Muridae; Murinae; Mus
SP$LINK: NCBI-TAXONOMY 10090
SP$SAMPLE: brain
AC$INSTRUMENT: LC-10ADVPmicro HPLC, Shimadzu; LTQ Orbitrap, Thermo Scientific
AC$INSTRUMENT_TYPE: LC-ESI-ITFT
AC$MASS_SPECTROMETRY: MS_TYPE MS2
AC$MASS_SPECTROMETRY: ION_MODE NEGATIVE
AC$MASS_SPECTROMETRY: COLLISION_ENERGY 30%
AC$MASS_SPECTROMETRY: ION_SPRAY_VOLTAGE 3500 V
AC$MASS_SPECTROMETRY: IONIZATION ESI
AC$CHROMATOGRAPHY: COLUMN_NAME Develosil C30, Nomura Chemical
AC$CHROMATOGRAPHY: FLOW_GRADIENT  add 95/5 at 0 min, 70/30 at 40 min, 50/50 at 41 min, 50/50 at 90 min
AC$CHROMATOGRAPHY: FLOW_RATE  add 100 uL/min
AC$CHROMATOGRAPHY: RETENTION_TIME 31.43 min (in paper: 31.4 min)
AC$CHROMATOGRAPHY: SOLVENT A acetonitrile-methanol-water (19:19:2) with 0.1% acetic acid and 0.1% ammonium hydroxide (28%)
AC$CHROMATOGRAPHY: SOLVENT B 2-propanol with 0.1% acetic acid and 0.1% ammonium hydroxide (28%)
MS$FOCUSED_ION: PRECURSOR_M/Z 726.54
MS$FOCUSED_ION: PRECURSOR_TYPE [M-H]-
MS$DATA_PROCESSING: WHOLE Xcalibur ver-2.0
PK$SPLASH: splash10-0a4i-0039300000-dfd747e9296b87ac065a
PK$ANNOTATION: m/z num type mass error(ppm) formula
  307.14 1 [fa(20:2)-H]- 307.2637053677 -402 C20H35O2-
  418.06 1 [lyso_PE(alkenyl-16:0,-)-H2O]- 418.2722349418 -506 C21H41NO5P-
  436.11 1 [lyso_PE(alkenyl-16:0,-)]- 436.2827996281 -395 C21H43NO6P-
PK$NUM_PEAK: 22
PK$PEAK: m/z int. rel.int.
  255.00 35.1 10
  256.02 6.6 2
  265.21 13.3 4
  281.14 1520.7 419
  282.12 170.2 47
  307.14 3623.6 999
  308.18 336.9 93
  309.18 27.5 8
  375.17 20.5 6
  418.06 74.0 20
  419.39 10.5 3
  421.80 10.0 3
  436.11 744.0 205
  437.18 95.6 26
  444.39 10.4 3
  462.19 416.4 115
  463.38 13.9 4
  470.21 13.9 4
  487.93 5.9 2
  506.88 5.4 1
  522.19 8.2 2
  684.15 9.3 3
//
