ACCESSION: MSBNK-Chubu_Univ-UT000196
RECORD_TITLE: 7-HDoHE; LC-ESI-QIT; MS2; CE:40 V; [M-H]-
DATE: 2016.01.19 (Created 2007.10.19, modified 2011.08.03)
AUTHORS: Nakanishi H, Taguchi R, Graduate School of Medicine, The University of Tokyo
LICENSE: CC BY-NC-SA
CH$NAME: 7-HDoHE
CH$NAME: 7-hydroxy-4Z,8E,10Z,13Z,16Z,19Z-docosahexaenoic acid
CH$NAME: (+-)7-HDoHE
CH$COMPOUND_CLASS: Natural Product; Lipid; Fatty acid
CH$FORMULA: C22H32O3
CH$EXACT_MASS: 344.23514
CH$SMILES: CCC=CCC=CCC=CCC=CC=CC(O)CC=CCCC(O)=O
CH$IUPAC: InChI=1S/C22H32O3/c1-2-3-4-5-6-7-8-9-10-11-12-13-15-18-21(23)19-16-14-17-20-22(24)25/h3-4,6-7,9-10,12-16,18,21,23H,2,5,8,11,17,19-20H2,1H3,(H,24,25)/b4-3-,7-6-,10-9-,13-12-,16-14-,18-15+
CH$LINK: CAS 90780-55-5
CH$LINK: CAYMAN 33300
CH$LINK: INCHIKEY OZXAIGIRPOOJTI-XJAVJPOHSA-N
AC$INSTRUMENT: 4000Q TRAP, Applied Biosystems
AC$INSTRUMENT_TYPE: LC-ESI-QIT
AC$MASS_SPECTROMETRY: MS_TYPE MS2
AC$MASS_SPECTROMETRY: ION_MODE NEGATIVE
AC$MASS_SPECTROMETRY: COLLISION_ENERGY 40 V
AC$MASS_SPECTROMETRY: IONIZATION ESI
MS$FOCUSED_ION: PRECURSOR_TYPE [M-H]-
MS$DATA_PROCESSING: IGNORE rel.val. < 0.5
MS$DATA_PROCESSING: WHOLE Analyst 1.4.2
PK$SPLASH: splash10-0fk9-0940000000-83944431c48508abdfec
PK$NUM_PEAK: 10
PK$PEAK: m/z int. rel.int.
  112.960 9375.0 250
  118.960 12500.0 333
  121.040 37500.0 999
  147.120 6250.0 167
  157.120 12500.0 333
  173.200 6250.0 167
  201.170 15625.0 416
  227.040 9375.0 250
  235.040 6250.0 167
  253.280 6250.0 167
//
