ACCESSION: MSBNK-Chubu_Univ-UT001740
RECORD_TITLE: Phosphatidylcholine 15:0-16:0; LC-ESI-ITFT; MS2; [M+CH3COO]-; RT: 23.07; Exp: 2
DATE: 2016.01.19 (Created 2010.05.07, modified 2011.08.03)
AUTHORS: Taguchi R, Graduate School of Medicine, The University of Tokyo
LICENSE: CC BY-NC-SA
PUBLICATION: Taguchi, R.; Ishikawa, M. Precise and Global Identification of Phospholipid Molecular Species by an Orbitrap Mass Spectrometer and Automated Search Engine Lipid Search. Journal of Chromatography A 2010, 1217 (25), 4229–39. DOI:10.1016/j.chroma.2010.04.034
CH$NAME: Phosphatidylcholine 15:0-16:0
CH$COMPOUND_CLASS: Natural Product; Glycerophospholipids; Glycerophosphocholines; Diacylglycerophosphocholines
CH$FORMULA: C39H78NO8P
CH$EXACT_MASS: 719.54650
CH$SMILES: C(CCCCC)CCCCCCCCC(=O)OCC(OC(CCCCCCCCCCCCCCC)=O)COP([O-1])(=O)OCC[N+1](C)(C)C
CH$IUPAC: InChI=1S/C39H78NO8P/c1-6-8-10-12-14-16-18-20-22-24-26-28-30-32-39(42)48-37(36-47-49(43,44)46-34-33-40(3,4)5)35-45-38(41)31-29-27-25-23-21-19-17-15-13-11-9-7-2/h37H,6-36H2,1-5H3
CH$LINK: INCHIKEY LLHISNQVRRYJGL-UHFFFAOYSA-N
CH$LINK: PUBCHEM CID:14818904
SP$SCIENTIFIC_NAME: Mus musculus
SP$LINEAGE: cellular organisms; Eukaryota; Fungi/Metazoa group; Metazoa; Eumetazoa; Bilateria; Coelomata; Deuterostomia; Chordata; Craniata; Vertebrata; Gnathostomata; Teleostomi; Euteleostomi; Sarcopterygii; Tetrapoda; Amniota; Mammalia; Theria; Eutheria; Euarchontoglires; Glires; Rodentia; Sciurognathi; Muroidea; Muridae; Murinae; Mus
SP$LINK: NCBI-TAXONOMY 10090
SP$SAMPLE: liver
AC$INSTRUMENT: LC-10ADVPmicro HPLC, Shimadzu; LTQ Orbitrap, Thermo Scientific
AC$INSTRUMENT_TYPE: LC-ESI-ITFT
AC$MASS_SPECTROMETRY: MS_TYPE MS2
AC$MASS_SPECTROMETRY: ION_MODE NEGATIVE
AC$MASS_SPECTROMETRY: COLLISION_ENERGY 30%
AC$MASS_SPECTROMETRY: ION_SPRAY_VOLTAGE 3500 V
AC$MASS_SPECTROMETRY: IONIZATION ESI
AC$CHROMATOGRAPHY: COLUMN_NAME Develosil C30, Nomura Chemical
AC$CHROMATOGRAPHY: FLOW_GRADIENT  add 95/5 at 0 min, 70/30 at 40 min, 50/50 at 41 min, 50/50 at 90 min
AC$CHROMATOGRAPHY: FLOW_RATE  add 100 uL/min
AC$CHROMATOGRAPHY: RETENTION_TIME 22.86 min (in paper: 23.1 min)
AC$CHROMATOGRAPHY: SOLVENT A acetonitrile-methanol-water (19:19:2) with 0.1% acetic acid and 0.1% ammonium hydroxide (28%)
AC$CHROMATOGRAPHY: SOLVENT B 2-propanol with 0.1% acetic acid and 0.1% ammonium hydroxide (28%)
MS$FOCUSED_ION: PRECURSOR_M/Z 778.56
MS$FOCUSED_ION: PRECURSOR_TYPE [M+CH3COO]-
MS$DATA_PROCESSING: WHOLE Xcalibur ver-2.0
PK$SPLASH: splash10-0udi-0000000900-4c9236bf0c4b49d316d8
PK$ANNOTATION: m/z num type mass error(ppm) formula
  466.01 1 [lyso_PC(15:0,-)]- 466.2933643144 -607 C22H45NO7P-
  704.75 1 [PC(15:0,16:0)-CH3]- 704.5230298995 322 C38H75NO8P-
  778.37 1 [PC(15:0,16:0)+CH3COO]- 778.5598093363 -243 C41H81NO10P-
PK$NUM_PEAK: 13
PK$PEAK: m/z int. rel.int.
  240.91 16.0 11
  257.12 13.6 9
  301.90 7.9 5
  303.22 29.6 20
  304.20 9.6 7
  310.24 4.0 3
  330.50 4.0 3
  466.01 17.6 12
  704.10 1458.9 999
  704.75 68.2 47
  718.97 7.4 5
  728.25 13.0 9
  778.37 20.9 14
//
