ACCESSION: MSBNK-Chubu_Univ-UT001941
RECORD_TITLE: Phosphatidylethanolamine lyso 20:5; LC-ESI-ITFT; MS2; [M-H]-; RT: 1.70; Exp: 2
DATE: 2016.01.19 (Created 2010.05.07, modified 2011.08.03)
AUTHORS: Taguchi R, Graduate School of Medicine, The University of Tokyo
LICENSE: CC BY-NC-SA
PUBLICATION: Taguchi, R.; Ishikawa, M. Precise and Global Identification of Phospholipid Molecular Species by an Orbitrap Mass Spectrometer and Automated Search Engine Lipid Search. Journal of Chromatography A 2010, 1217 (25), 4229–39. DOI:10.1016/j.chroma.2010.04.034
CH$NAME: Phosphatidylethanolamine lyso 20:5
CH$COMPOUND_CLASS: Natural Product; Glycerophospholipids; Glycerophosphoethanolamines; Monoacylglycerophosphoethanolamines
CH$FORMULA: C25H42NO7P
CH$EXACT_MASS: 499.26989
CH$SMILES: CCCC=CCC=CCC=CCC=CCC=CCCC(=O)OC(CO)COP(O)(=O)OCCN
CH$IUPAC: InChI=1S/C25H42NO7P/c1-2-3-4-5-6-7-8-9-10-11-12-13-14-15-16-17-18-19-25(28)33-24(22-27)23-32-34(29,30)31-21-20-26/h4-5,7-8,10-11,13-14,16-17,24,27H,2-3,6,9,12,15,18-23,26H2,1H3,(H,29,30)/b5-4-,8-7-,11-10-,14-13-,17-16-
CH$LINK: INCHIKEY UNILCTDPRMGSDM-JEBPEJKESA-N
SP$SCIENTIFIC_NAME: Mus musculus
SP$LINEAGE: cellular organisms; Eukaryota; Fungi/Metazoa group; Metazoa; Eumetazoa; Bilateria; Coelomata; Deuterostomia; Chordata; Craniata; Vertebrata; Gnathostomata; Teleostomi; Euteleostomi; Sarcopterygii; Tetrapoda; Amniota; Mammalia; Theria; Eutheria; Euarchontoglires; Glires; Rodentia; Sciurognathi; Muroidea; Muridae; Murinae; Mus
SP$LINK: NCBI-TAXONOMY 10090
SP$SAMPLE: liver
AC$INSTRUMENT: LC-10ADVPmicro HPLC, Shimadzu; LTQ Orbitrap, Thermo Scientific
AC$INSTRUMENT_TYPE: LC-ESI-ITFT
AC$MASS_SPECTROMETRY: MS_TYPE MS2
AC$MASS_SPECTROMETRY: ION_MODE NEGATIVE
AC$MASS_SPECTROMETRY: COLLISION_ENERGY 30%
AC$MASS_SPECTROMETRY: ION_SPRAY_VOLTAGE 3500 V
AC$MASS_SPECTROMETRY: IONIZATION ESI
AC$CHROMATOGRAPHY: COLUMN_NAME Develosil C30, Nomura Chemical
AC$CHROMATOGRAPHY: FLOW_GRADIENT  add 95/5 at 0 min, 70/30 at 40 min, 50/50 at 41 min, 50/50 at 90 min
AC$CHROMATOGRAPHY: FLOW_RATE  add 100 uL/min
AC$CHROMATOGRAPHY: RETENTION_TIME 1.72 min (in paper: 1.7 min)
AC$CHROMATOGRAPHY: SOLVENT A acetonitrile-methanol-water (19:19:2) with 0.1% acetic acid and 0.1% ammonium hydroxide (28%)
AC$CHROMATOGRAPHY: SOLVENT B 2-propanol with 0.1% acetic acid and 0.1% ammonium hydroxide (28%)
MS$FOCUSED_ION: PRECURSOR_M/Z 498.26
MS$FOCUSED_ION: PRECURSOR_TYPE [M-H]-
MS$DATA_PROCESSING: WHOLE Xcalibur ver-2.0
PK$SPLASH: splash10-0udi-0039000000-e005e80dabd780d34aeb
PK$ANNOTATION: m/z num type mass error(ppm) formula
  213.90 1 [lyso_PE(lyso,-)]- 214.0480486651 -691 C5H13NO6P-
  257.12 1 [fa(20:5)-H-CO2]- 257.2269259309 -415 C19H29-
  301.12 1 [fa(20:5)-H]- 301.2167551751 -320 C20H29O2-
PK$NUM_PEAK: 18
PK$PEAK: m/z int. rel.int.
  163.17 5.6 5
  202.94 33.6 31
  203.55 7.3 7
  213.90 68.1 63
  222.94 23.2 21
  257.12 271.8 251
  283.04 7.5 7
  301.12 1082.1 999
  302.09 54.4 50
  318.92 16.3 15
  333.59 6.1 6
  356.91 22.2 20
  370.79 6.7 6
  409.34 10.7 10
  415.78 25.6 24
  416.85 30.0 28
  437.58 10.0 9
  438.36 7.8 7
//
