ACCESSION: MSBNK-Chubu_Univ-UT001864
RECORD_TITLE: Phosphatidylethanolamine 18:0-20:1; LC-ESI-ITFT; MS2; [M-H]-; RT: 42.40; Exp: 2
DATE: 2016.01.19 (Created 2010.05.07, modified 2011.08.03)
AUTHORS: Taguchi R, Graduate School of Medicine, The University of Tokyo
LICENSE: CC BY-NC-SA
PUBLICATION: Taguchi, R.; Ishikawa, M. Precise and Global Identification of Phospholipid Molecular Species by an Orbitrap Mass Spectrometer and Automated Search Engine Lipid Search. Journal of Chromatography A 2010, 1217 (25), 4229–39. DOI:10.1016/j.chroma.2010.04.034
CH$NAME: Phosphatidylethanolamine 18:0-20:1
CH$COMPOUND_CLASS: Natural Product; Glycerophospholipids; Glycerophosphoethanolamines; Diacylglycerophosphoethanolamines
CH$FORMULA: C43H84NO8P
CH$EXACT_MASS: 773.59346
CH$SMILES: C(CCCCCC)CCCCCCCCCCC(OCC(OC(=O)CCC=CCCCCCCCCCCCCCCC)COP(O)(=O)OCCN)=O
CH$IUPAC: InChI=1S/C43H84NO8P/c1-3-5-7-9-11-13-15-17-19-20-22-24-26-28-30-32-34-36-43(46)52-41(40-51-53(47,48)50-38-37-44)39-49-42(45)35-33-31-29-27-25-23-21-18-16-14-12-10-8-6-4-2/h30,32,41H,3-29,31,33-40,44H2,1-2H3,(H,47,48)/b32-30-
CH$LINK: INCHIKEY HCYMNYLUWGMUCG-GCUVURNUSA-N
SP$SCIENTIFIC_NAME: Mus musculus
SP$LINEAGE: cellular organisms; Eukaryota; Fungi/Metazoa group; Metazoa; Eumetazoa; Bilateria; Coelomata; Deuterostomia; Chordata; Craniata; Vertebrata; Gnathostomata; Teleostomi; Euteleostomi; Sarcopterygii; Tetrapoda; Amniota; Mammalia; Theria; Eutheria; Euarchontoglires; Glires; Rodentia; Sciurognathi; Muroidea; Muridae; Murinae; Mus
SP$LINK: NCBI-TAXONOMY 10090
SP$SAMPLE: liver
AC$INSTRUMENT: LC-10ADVPmicro HPLC, Shimadzu; LTQ Orbitrap, Thermo Scientific
AC$INSTRUMENT_TYPE: LC-ESI-ITFT
AC$MASS_SPECTROMETRY: MS_TYPE MS2
AC$MASS_SPECTROMETRY: ION_MODE NEGATIVE
AC$MASS_SPECTROMETRY: COLLISION_ENERGY 30%
AC$MASS_SPECTROMETRY: ION_SPRAY_VOLTAGE 3500 V
AC$MASS_SPECTROMETRY: IONIZATION ESI
AC$CHROMATOGRAPHY: COLUMN_NAME Develosil C30, Nomura Chemical
AC$CHROMATOGRAPHY: FLOW_GRADIENT  add 95/5 at 0 min, 70/30 at 40 min, 50/50 at 41 min, 50/50 at 90 min
AC$CHROMATOGRAPHY: FLOW_RATE  add 100 uL/min
AC$CHROMATOGRAPHY: RETENTION_TIME 42.52 min (in paper: 42.4 min)
AC$CHROMATOGRAPHY: SOLVENT A acetonitrile-methanol-water (19:19:2) with 0.1% acetic acid and 0.1% ammonium hydroxide (28%)
AC$CHROMATOGRAPHY: SOLVENT B 2-propanol with 0.1% acetic acid and 0.1% ammonium hydroxide (28%)
MS$FOCUSED_ION: PRECURSOR_M/Z 772.59
MS$FOCUSED_ION: PRECURSOR_TYPE [M-H]-
MS$DATA_PROCESSING: WHOLE Xcalibur ver-2.0
PK$SPLASH: splash10-0a4i-0029100000-119652444cb2c2abe672
PK$ANNOTATION: m/z num type mass error(ppm) formula
  283.21 1 [fa(18:0)-H]- 283.2637053677 -189 C18H35O2-
  309.09 1 [fa(20:1)-H]- 309.2793554319 -611 C20H37O2-
  462.21 2 [lyso_PE(-,20:1)-CO2]- 462.3348351986 -269 C24H49NO5P-
  462.21 2 [lyso_PE(18:0,-)-H2O]- 462.2984496923 -190 C23H45NO6P-
  480.17 1 [lyso_PE(18:0,-)]- 480.3090143786 -288 C23H47NO7P-
  506.28 1 [lyso_PE(-,20:1)]- 506.3246644428 -87 C25H49NO7P-
PK$NUM_PEAK: 15
PK$PEAK: m/z int. rel.int.
  283.21 1168.4 305
  284.24 218.4 57
  309.09 3830.7 999
  310.19 642.5 168
  311.11 8.3 2
  462.21 28.5 7
  480.17 417.5 109
  481.19 53.7 14
  488.00 47.5 12
  488.90 27.5 7
  506.28 37.6 10
  507.08 11.5 3
  625.53 18.1 5
  683.86 6.7 2
  690.81 5.6 1
//
