ACCESSION: MSBNK-Chubu_Univ-UT002823
RECORD_TITLE: Phosphatidylethanolamine 14:0-22:6; LC-ESI-ITFT; MS2; [M-H]-; RT: 11.53; Exp: 3
DATE: 2016.01.19 (Created 2010.05.07, modified 2011.08.03)
AUTHORS: Taguchi R, Graduate School of Medicine, The University of Tokyo
LICENSE: CC BY-NC-SA
PUBLICATION: Taguchi, R.; Ishikawa, M. Precise and Global Identification of Phospholipid Molecular Species by an Orbitrap Mass Spectrometer and Automated Search Engine Lipid Search. Journal of Chromatography A 2010, 1217 (25), 4229–39. DOI:10.1016/j.chroma.2010.04.034
CH$NAME: Phosphatidylethanolamine 14:0-22:6
CH$COMPOUND_CLASS: Natural Product; Glycerophospholipids; Glycerophosphoethanolamines; Diacylglycerophosphoethanolamines
CH$FORMULA: C41H70NO8P
CH$EXACT_MASS: 735.48390
CH$SMILES: C(C=CCC=CCC)C=CCC=CCC=CCC=CCCC(OC(COC(=O)CCCCCCCCCCCCC)COP(O)(=O)OCCN)=O
CH$IUPAC: InChI=1S/C41H70NO8P/c1-3-5-7-9-11-13-15-16-17-18-19-20-21-22-24-26-28-30-32-34-41(44)50-39(38-49-51(45,46)48-36-35-42)37-47-40(43)33-31-29-27-25-23-14-12-10-8-6-4-2/h5,7,11,13,16-17,19-20,22,24,28,30,39H,3-4,6,8-10,12,14-15,18,21,23,25-27,29,31-38,42H2,1-2H3,(H,45,46)/b7-5-,13-11-,17-16-,20-19-,24-22-,30-28-
CH$LINK: INCHIKEY XQLJDXRKMXWECX-PAHVTNPFSA-N
SP$SCIENTIFIC_NAME: Mus musculus
SP$LINEAGE: cellular organisms; Eukaryota; Fungi/Metazoa group; Metazoa; Eumetazoa; Bilateria; Coelomata; Deuterostomia; Chordata; Craniata; Vertebrata; Gnathostomata; Teleostomi; Euteleostomi; Sarcopterygii; Tetrapoda; Amniota; Mammalia; Theria; Eutheria; Euarchontoglires; Glires; Rodentia; Sciurognathi; Muroidea; Muridae; Murinae; Mus
SP$LINK: NCBI-TAXONOMY 10090
SP$SAMPLE: brain
AC$INSTRUMENT: LC-10ADVPmicro HPLC, Shimadzu; LTQ Orbitrap, Thermo Scientific
AC$INSTRUMENT_TYPE: LC-ESI-ITFT
AC$MASS_SPECTROMETRY: MS_TYPE MS2
AC$MASS_SPECTROMETRY: ION_MODE NEGATIVE
AC$MASS_SPECTROMETRY: COLLISION_ENERGY 30%
AC$MASS_SPECTROMETRY: ION_SPRAY_VOLTAGE 3500 V
AC$MASS_SPECTROMETRY: IONIZATION ESI
AC$CHROMATOGRAPHY: COLUMN_NAME Develosil C30, Nomura Chemical
AC$CHROMATOGRAPHY: FLOW_GRADIENT  add 95/5 at 0 min, 70/30 at 40 min, 50/50 at 41 min, 50/50 at 90 min
AC$CHROMATOGRAPHY: FLOW_RATE  add 100 uL/min
AC$CHROMATOGRAPHY: RETENTION_TIME 11.63 min (in paper: 11.5 min)
AC$CHROMATOGRAPHY: SOLVENT A acetonitrile-methanol-water (19:19:2) with 0.1% acetic acid and 0.1% ammonium hydroxide (28%)
AC$CHROMATOGRAPHY: SOLVENT B 2-propanol with 0.1% acetic acid and 0.1% ammonium hydroxide (28%)
MS$FOCUSED_ION: PRECURSOR_M/Z 734.48
MS$FOCUSED_ION: PRECURSOR_TYPE [M-H]-
MS$DATA_PROCESSING: WHOLE Xcalibur ver-2.0
PK$SPLASH: splash10-0059-0089306000-decd93de10cf69074b53
PK$ANNOTATION: m/z num type mass error(ppm) formula
  227.15 1 [fa(14:0)-H]- 227.2011051109 -224 C14H27O2-
  283.11 1 [fa(22:6)-H-CO2]- 283.2425759951 -467 C21H31-
  327.15 1 [fa(22:6)-H]- 327.2324052393 -251 C22H31O2-
  424.29 1 [lyso_PE(14:0,-)]- 424.2464141218 103 C19H39NO7P-
PK$NUM_PEAK: 12
PK$PEAK: m/z int. rel.int.
  227.15 31.0 398
  257.07 16.0 205
  283.11 69.4 890
  327.15 77.9 999
  328.05 47.7 612
  424.29 34.3 440
  480.84 12.2 156
  553.49 6.9 88
  635.58 30.8 395
  636.52 18.2 233
  652.41 36.3 466
  691.07 6.6 85
//
