ACCESSION: MSBNK-Chubu_Univ-UT001332
RECORD_TITLE: Phosphatidylcholine alkenyl 18:1-18:1; LC-ESI-ITFT; MS2; [M+CH3COO]-; RT: 27.69; Exp: 1
DATE: 2016.01.19 (Created 2010.05.07, modified 2011.08.03)
AUTHORS: Taguchi R, Graduate School of Medicine, The University of Tokyo
LICENSE: CC BY-NC-SA
PUBLICATION: Taguchi, R.; Ishikawa, M. Precise and Global Identification of Phospholipid Molecular Species by an Orbitrap Mass Spectrometer and Automated Search Engine Lipid Search. Journal of Chromatography A 2010, 1217 (25), 4229–39. DOI:10.1016/j.chroma.2010.04.034
CH$NAME: Phosphatidylcholine alkenyl 18:1-18:1
CH$COMPOUND_CLASS: Natural Product; Glycerophospholipids; Glycerophosphocholines; 1Z-alkenyl,2-acylglycerophosphocholines
CH$FORMULA: C44H84NO7P
CH$EXACT_MASS: 769.59854
CH$SMILES: O=C(OC(COP(OCC[N+1](C)(C)C)([O-1])=O)COC=CCC=CCCCCCCCCCCCCC)CCC=CCCCCCCCCCCCCC
CH$IUPAC: InChI=1S/C44H84NO7P/c1-6-8-10-12-14-16-18-20-22-24-26-28-30-32-34-36-39-49-41-43(42-51-53(47,48)50-40-38-45(3,4)5)52-44(46)37-35-33-31-29-27-25-23-21-19-17-15-13-11-9-7-2/h30-33,36,39,43H,6-29,34-35,37-38,40-42H2,1-5H3/b32-30-,33-31-,39-36+
CH$LINK: INCHIKEY AESCCJYARVQUNT-JFFREXDCSA-N
SP$SCIENTIFIC_NAME: Mus musculus
SP$LINEAGE: cellular organisms; Eukaryota; Fungi/Metazoa group; Metazoa; Eumetazoa; Bilateria; Coelomata; Deuterostomia; Chordata; Craniata; Vertebrata; Gnathostomata; Teleostomi; Euteleostomi; Sarcopterygii; Tetrapoda; Amniota; Mammalia; Theria; Eutheria; Euarchontoglires; Glires; Rodentia; Sciurognathi; Muroidea; Muridae; Murinae; Mus
SP$LINK: NCBI-TAXONOMY 10090
SP$SAMPLE: brain
AC$INSTRUMENT: LC-10ADVPmicro HPLC, Shimadzu; LTQ Orbitrap, Thermo Scientific
AC$INSTRUMENT_TYPE: LC-ESI-ITFT
AC$MASS_SPECTROMETRY: MS_TYPE MS2
AC$MASS_SPECTROMETRY: ION_MODE NEGATIVE
AC$MASS_SPECTROMETRY: COLLISION_ENERGY 30%
AC$MASS_SPECTROMETRY: ION_SPRAY_VOLTAGE 3500 V
AC$MASS_SPECTROMETRY: IONIZATION ESI
AC$CHROMATOGRAPHY: COLUMN_NAME Develosil C30, Nomura Chemical
AC$CHROMATOGRAPHY: FLOW_GRADIENT  add 95/5 at 0 min, 70/30 at 40 min, 50/50 at 41 min, 50/50 at 90 min
AC$CHROMATOGRAPHY: FLOW_RATE  add 100 uL/min
AC$CHROMATOGRAPHY: RETENTION_TIME 27.94 min (in paper: 27.7 min)
AC$CHROMATOGRAPHY: SOLVENT A acetonitrile-methanol-water (19:19:2) with 0.1% acetic acid and 0.1% ammonium hydroxide (28%)
AC$CHROMATOGRAPHY: SOLVENT B 2-propanol with 0.1% acetic acid and 0.1% ammonium hydroxide (28%)
MS$FOCUSED_ION: PRECURSOR_M/Z 828.61
MS$FOCUSED_ION: PRECURSOR_TYPE [M+CH3COO]-
MS$DATA_PROCESSING: WHOLE Xcalibur ver-2.0
PK$SPLASH: splash10-0udi-0000000900-558c2ce8a43a759dadec
PK$NUM_PEAK: 9
PK$PEAK: m/z int. rel.int.
  331.21 6.9 10
  360.22 6.9 10
  593.03 13.1 19
  715.31 81.4 117
  743.99 6.9 10
  747.22 23.2 33
  754.20 693.0 999
  755.47 24.6 35
  770.01 8.0 12
//
