ACCESSION: MSBNK-Chubu_Univ-UT002655
RECORD_TITLE: Phosphatidylethanolamine alkenyl 20:0-22:6; LC-ESI-ITFT; MS2; [M-H]-; RT: 37.32; Exp: 3
DATE: 2016.01.19 (Created 2010.05.07, modified 2011.08.03)
AUTHORS: Taguchi R, Graduate School of Medicine, The University of Tokyo
LICENSE: CC BY-NC-SA
PUBLICATION: Taguchi, R.; Ishikawa, M. Precise and Global Identification of Phospholipid Molecular Species by an Orbitrap Mass Spectrometer and Automated Search Engine Lipid Search. Journal of Chromatography A 2010, 1217 (25), 4229–39. DOI:10.1016/j.chroma.2010.04.034
CH$NAME: Phosphatidylethanolamine alkenyl 20:0-22:6
CH$COMPOUND_CLASS: Natural Product; Glycerophospholipids; Glycerophosphoethanolamines; 1Z-alkenyl,2-acylglycerophosphoethanolamines
CH$FORMULA: C47H82NO7P
CH$EXACT_MASS: 803.58289
CH$SMILES: O(CC(OC(=O)CCC=CCC=CCC=CCC=CCC=CCC=CCC)COP(OCCN)(O)=O)C=CCCCCCCCCCCCCCCCCCC
CH$IUPAC: InChI=1S/C47H82NO7P/c1-3-5-7-9-11-13-15-17-19-21-23-24-26-28-30-32-34-36-38-40-47(49)55-46(45-54-56(50,51)53-43-41-48)44-52-42-39-37-35-33-31-29-27-25-22-20-18-16-14-12-10-8-6-4-2/h5,7,11,13,17,19,23-24,28,30,34,36,39,42,46H,3-4,6,8-10,12,14-16,18,20-22,25-27,29,31-33,35,37-38,40-41,43-45,48H2,1-2H3,(H,50,51)/b7-5-,13-11-,19-17-,24-23-,30-28-,36-34-,42-39+
CH$LINK: INCHIKEY GWWKPJFGKBNJDJ-DYEXTAMESA-N
SP$SCIENTIFIC_NAME: Mus musculus
SP$LINEAGE: cellular organisms; Eukaryota; Fungi/Metazoa group; Metazoa; Eumetazoa; Bilateria; Coelomata; Deuterostomia; Chordata; Craniata; Vertebrata; Gnathostomata; Teleostomi; Euteleostomi; Sarcopterygii; Tetrapoda; Amniota; Mammalia; Theria; Eutheria; Euarchontoglires; Glires; Rodentia; Sciurognathi; Muroidea; Muridae; Murinae; Mus
SP$LINK: NCBI-TAXONOMY 10090
SP$SAMPLE: liver
AC$INSTRUMENT: LC-10ADVPmicro HPLC, Shimadzu; LTQ Orbitrap, Thermo Scientific
AC$INSTRUMENT_TYPE: LC-ESI-ITFT
AC$MASS_SPECTROMETRY: MS_TYPE MS2
AC$MASS_SPECTROMETRY: ION_MODE NEGATIVE
AC$MASS_SPECTROMETRY: COLLISION_ENERGY 30%
AC$MASS_SPECTROMETRY: ION_SPRAY_VOLTAGE 3500 V
AC$MASS_SPECTROMETRY: IONIZATION ESI
AC$CHROMATOGRAPHY: COLUMN_NAME Develosil C30, Nomura Chemical
AC$CHROMATOGRAPHY: FLOW_GRADIENT  add 95/5 at 0 min, 70/30 at 40 min, 50/50 at 41 min, 50/50 at 90 min
AC$CHROMATOGRAPHY: FLOW_RATE  add 100 uL/min
AC$CHROMATOGRAPHY: RETENTION_TIME 37.44 min (in paper: 37.3 min)
AC$CHROMATOGRAPHY: SOLVENT A acetonitrile-methanol-water (19:19:2) with 0.1% acetic acid and 0.1% ammonium hydroxide (28%)
AC$CHROMATOGRAPHY: SOLVENT B 2-propanol with 0.1% acetic acid and 0.1% ammonium hydroxide (28%)
MS$FOCUSED_ION: PRECURSOR_M/Z 802.57
MS$FOCUSED_ION: PRECURSOR_TYPE [M-H]-
MS$DATA_PROCESSING: WHOLE Xcalibur ver-2.0
PK$SPLASH: splash10-004l-0048900000-4c144b4234fad62faf47
PK$ANNOTATION: m/z num type mass error(ppm) formula
  283.11 1 [fa(22:6)-H-CO2]- 283.2425759951 -467 C21H31-
  327.03 1 [fa(22:6)-H]- 327.2324052393 -618 C22H31O2-
  474.32 1 [lyso_PE(alkenyl-20:0,-)-H2O]- 474.3348351986 -30 C25H49NO5P-
  492.19 1 [lyso_PE(alkenyl-20:0,-)]- 492.3453998849 -315 C25H51NO6P-
PK$NUM_PEAK: 20
PK$PEAK: m/z int. rel.int.
  229.06 29.1 22
  249.08 17.3 13
  283.11 619.3 476
  284.16 60.4 46
  297.16 13.3 10
  311.24 17.2 13
  327.03 1298.9 999
  327.98 121.2 93
  430.98 6.4 5
  431.61 6.4 5
  447.14 7.5 6
  474.32 195.4 150
  492.19 1101.0 847
  493.11 170.3 131
  547.27 9.8 8
  624.42 7.5 6
  719.41 9.4 7
  728.24 6.0 5
  730.61 5.3 4
  744.10 5.3 4
//
