ACCESSION: MSBNK-Chubu_Univ-UT001865
RECORD_TITLE: Phosphatidylethanolamine 18:0-20:3; LC-ESI-ITFT; MS2; [M-H]-; RT: 30.31; Exp: 2
DATE: 2016.01.19 (Created 2010.05.07, modified 2011.08.03)
AUTHORS: Taguchi R, Graduate School of Medicine, The University of Tokyo
LICENSE: CC BY-NC-SA
PUBLICATION: Taguchi, R.; Ishikawa, M. Precise and Global Identification of Phospholipid Molecular Species by an Orbitrap Mass Spectrometer and Automated Search Engine Lipid Search. Journal of Chromatography A 2010, 1217 (25), 4229–39. DOI:10.1016/j.chroma.2010.04.034
CH$NAME: Phosphatidylethanolamine 18:0-20:3
CH$COMPOUND_CLASS: Natural Product; Glycerophospholipids; Glycerophosphoethanolamines; Diacylglycerophosphoethanolamines
CH$FORMULA: C43H80NO8P
CH$EXACT_MASS: 769.56216
CH$SMILES: C(CCCCCC)CCCCCCCCCCC(OCC(COP(O)(=O)OCCN)OC(=O)CCC=CCC=CCC=CCCCCCCCCC)=O
CH$IUPAC: InChI=1S/C43H80NO8P/c1-3-5-7-9-11-13-15-17-19-20-22-24-26-28-30-32-34-36-43(46)52-41(40-51-53(47,48)50-38-37-44)39-49-42(45)35-33-31-29-27-25-23-21-18-16-14-12-10-8-6-4-2/h19-20,24,26,30,32,41H,3-18,21-23,25,27-29,31,33-40,44H2,1-2H3,(H,47,48)/b20-19-,26-24-,32-30-
CH$LINK: INCHIKEY BDESLISUEJTDHD-JCXYTCFZSA-N
SP$SCIENTIFIC_NAME: Mus musculus
SP$LINEAGE: cellular organisms; Eukaryota; Fungi/Metazoa group; Metazoa; Eumetazoa; Bilateria; Coelomata; Deuterostomia; Chordata; Craniata; Vertebrata; Gnathostomata; Teleostomi; Euteleostomi; Sarcopterygii; Tetrapoda; Amniota; Mammalia; Theria; Eutheria; Euarchontoglires; Glires; Rodentia; Sciurognathi; Muroidea; Muridae; Murinae; Mus
SP$LINK: NCBI-TAXONOMY 10090
SP$SAMPLE: liver
AC$INSTRUMENT: LC-10ADVPmicro HPLC, Shimadzu; LTQ Orbitrap, Thermo Scientific
AC$INSTRUMENT_TYPE: LC-ESI-ITFT
AC$MASS_SPECTROMETRY: MS_TYPE MS2
AC$MASS_SPECTROMETRY: ION_MODE NEGATIVE
AC$MASS_SPECTROMETRY: COLLISION_ENERGY 30%
AC$MASS_SPECTROMETRY: ION_SPRAY_VOLTAGE 3500 V
AC$MASS_SPECTROMETRY: IONIZATION ESI
AC$CHROMATOGRAPHY: COLUMN_NAME Develosil C30, Nomura Chemical
AC$CHROMATOGRAPHY: FLOW_GRADIENT  add 95/5 at 0 min, 70/30 at 40 min, 50/50 at 41 min, 50/50 at 90 min
AC$CHROMATOGRAPHY: FLOW_RATE  add 100 uL/min
AC$CHROMATOGRAPHY: RETENTION_TIME 30.34 min (in paper: 30.3 min)
AC$CHROMATOGRAPHY: SOLVENT A acetonitrile-methanol-water (19:19:2) with 0.1% acetic acid and 0.1% ammonium hydroxide (28%)
AC$CHROMATOGRAPHY: SOLVENT B 2-propanol with 0.1% acetic acid and 0.1% ammonium hydroxide (28%)
MS$FOCUSED_ION: PRECURSOR_M/Z 768.55
MS$FOCUSED_ION: PRECURSOR_TYPE [M-H]-
MS$DATA_PROCESSING: WHOLE Xcalibur ver-2.0
PK$SPLASH: splash10-0a59-0039100000-6b7fc5a4916db9f2fd1d
PK$ANNOTATION: m/z num type mass error(ppm) formula
  261.08 1 [fa(20:3)-H-CO2]- 261.2582260593 -681 C19H33-
  283.09 1 [fa(18:0)-H]- 283.2637053677 -612 C18H35O2-
  305.05 1 [fa(20:3)-H]- 305.2480553035 -648 C20H33O2-
  462.09 1 [lyso_PE(18:0,-)-H2O]- 462.2984496923 -450 C23H45NO6P-
  480.05 1 [lyso_PE(18:0,-)]- 480.3090143786 -538 C23H47NO7P-
  502.09 1 [lyso_PE(-,20:3)]- 502.2933643144 -404 C25H45NO7P-
PK$NUM_PEAK: 21
PK$PEAK: m/z int. rel.int.
  261.08 102.3 4
  270.39 10.4 1
  283.09 8429.4 357
  284.13 633.5 27
  285.08 40.7 2
  287.24 36.8 2
  288.83 37.0 2
  302.90 130.9 6
  305.05 23581.9 999
  306.10 1902.5 81
  406.14 18.5 1
  462.09 325.1 14
  480.05 3864.2 164
  480.86 145.3 6
  483.96 120.8 5
  485.11 37.6 2
  502.09 318.5 13
  503.37 14.4 1
  587.55 21.0 1
  708.31 63.8 3
  753.47 14.4 1
//
