ACCESSION: MSBNK-Chubu_Univ-UT000271
RECORD_TITLE: 9-KODE; LC-ESI-QIT; MS2; CE:10 V; [M-H]-
DATE: 2016.01.19 (Created 2007.10.19, modified 2011.08.03)
AUTHORS: Nakanishi H, Taguchi R, Graduate School of Medicine, The University of Tokyo
LICENSE: CC BY-NC-SA
CH$NAME: 9-KODE
CH$NAME: 9-keto-octadeca-10E,12Z-dienoic acid/9-oxo-10E,12Z-octadecadienoic acid
CH$NAME: 9-OxoODE
CH$COMPOUND_CLASS: Natural Product; Lipid; Fatty acid
CH$FORMULA: C18H30O3
CH$EXACT_MASS: 294.21949
CH$SMILES: CCCCCC=CC=CC(=O)CCCCCCCC(O)=O
CH$IUPAC: InChI=1S/C18H30O3/c1-2-3-4-5-6-8-11-14-17(19)15-12-9-7-10-13-16-18(20)21/h6,8,11,14H,2-5,7,9-10,12-13,15-16H2,1H3,(H,20,21)/b8-6+,14-11+
CH$LINK: CAS 54232-59-6
CH$LINK: CAYMAN 38420
CH$LINK: LIPIDBANK DFA8046
CH$LINK: INCHIKEY LUZSWWYKKLTDHU-SIGMCMEVSA-N
AC$INSTRUMENT: 4000Q TRAP, Applied Biosystems
AC$INSTRUMENT_TYPE: LC-ESI-QIT
AC$MASS_SPECTROMETRY: MS_TYPE MS2
AC$MASS_SPECTROMETRY: ION_MODE NEGATIVE
AC$MASS_SPECTROMETRY: COLLISION_ENERGY 10 V
AC$MASS_SPECTROMETRY: IONIZATION ESI
MS$FOCUSED_ION: PRECURSOR_TYPE [M-H]-
MS$DATA_PROCESSING: IGNORE rel.val. < 0.5
MS$DATA_PROCESSING: WHOLE Analyst 1.4.2
PK$SPLASH: splash10-0006-0090000000-c6cbabdd03102ae37aaa
PK$NUM_PEAK: 11
PK$PEAK: m/z int. rel.int.
  221.205 322500.0 9
  222.418 30000.0 1
  236.160 892500.0 25
  237.200 72500.0 2
  237.800 42500.0 1
  292.400 22500.0 1
  293.157 35242500.0 999
  293.915 265000.0 8
  294.209 162500.0 5
  294.580 72500.0 2
  294.920 20000.0 1
//
