ACCESSION: MSBNK-Chubu_Univ-UT001851
RECORD_TITLE: Phosphatidylethanolamine 16:1-22:6; LC-ESI-ITFT; MS2; [M-H]-; RT: 11.45; Exp: 2
DATE: 2016.01.19 (Created 2010.05.07, modified 2011.08.03)
AUTHORS: Taguchi R, Graduate School of Medicine, The University of Tokyo
LICENSE: CC BY-NC-SA
PUBLICATION: Taguchi, R.; Ishikawa, M. Precise and Global Identification of Phospholipid Molecular Species by an Orbitrap Mass Spectrometer and Automated Search Engine Lipid Search. Journal of Chromatography A 2010, 1217 (25), 4229–39. DOI:10.1016/j.chroma.2010.04.034
CH$NAME: Phosphatidylethanolamine 16:1-22:6
CH$COMPOUND_CLASS: Natural Product; Glycerophospholipids; Glycerophosphoethanolamines; Diacylglycerophosphoethanolamines
CH$FORMULA: C43H72NO8P
CH$EXACT_MASS: 761.49955
CH$SMILES: O(CCN)P(O)(=O)OCC(OC(=O)CCC=CCC=CCC=CCC=CCC=CCC=CCC)COC(CCC=CCCCCCCCCCCC)=O
CH$IUPAC: InChI=1S/C43H72NO8P/c1-3-5-7-9-11-13-15-17-18-19-20-21-22-24-26-28-30-32-34-36-43(46)52-41(40-51-53(47,48)50-38-37-44)39-49-42(45)35-33-31-29-27-25-23-16-14-12-10-8-6-4-2/h5,7,11,13,17-18,20-21,24,26,29-32,41H,3-4,6,8-10,12,14-16,19,22-23,25,27-28,33-40,44H2,1-2H3,(H,47,48)/b7-5-,13-11-,18-17-,21-20-,26-24-,31-29-,32-30-
CH$LINK: INCHIKEY ZJBSZOUPRJVSRB-SIEWZCRLSA-N
SP$SCIENTIFIC_NAME: Mus musculus
SP$LINEAGE: cellular organisms; Eukaryota; Fungi/Metazoa group; Metazoa; Eumetazoa; Bilateria; Coelomata; Deuterostomia; Chordata; Craniata; Vertebrata; Gnathostomata; Teleostomi; Euteleostomi; Sarcopterygii; Tetrapoda; Amniota; Mammalia; Theria; Eutheria; Euarchontoglires; Glires; Rodentia; Sciurognathi; Muroidea; Muridae; Murinae; Mus
SP$LINK: NCBI-TAXONOMY 10090
SP$SAMPLE: liver
AC$INSTRUMENT: LC-10ADVPmicro HPLC, Shimadzu; LTQ Orbitrap, Thermo Scientific
AC$INSTRUMENT_TYPE: LC-ESI-ITFT
AC$MASS_SPECTROMETRY: MS_TYPE MS2
AC$MASS_SPECTROMETRY: ION_MODE NEGATIVE
AC$MASS_SPECTROMETRY: COLLISION_ENERGY 30%
AC$MASS_SPECTROMETRY: ION_SPRAY_VOLTAGE 3500 V
AC$MASS_SPECTROMETRY: IONIZATION ESI
AC$CHROMATOGRAPHY: COLUMN_NAME Develosil C30, Nomura Chemical
AC$CHROMATOGRAPHY: FLOW_GRADIENT  add 95/5 at 0 min, 70/30 at 40 min, 50/50 at 41 min, 50/50 at 90 min
AC$CHROMATOGRAPHY: FLOW_RATE  add 100 uL/min
AC$CHROMATOGRAPHY: RETENTION_TIME 11.30 min (in paper: 11.5 min)
AC$CHROMATOGRAPHY: SOLVENT A acetonitrile-methanol-water (19:19:2) with 0.1% acetic acid and 0.1% ammonium hydroxide (28%)
AC$CHROMATOGRAPHY: SOLVENT B 2-propanol with 0.1% acetic acid and 0.1% ammonium hydroxide (28%)
MS$FOCUSED_ION: PRECURSOR_M/Z 760.49
MS$FOCUSED_ION: PRECURSOR_TYPE [M-H]-
MS$DATA_PROCESSING: WHOLE Xcalibur ver-2.0
PK$SPLASH: splash10-0ugi-0096300000-b712a6944c9ebd04af63
PK$ANNOTATION: m/z num type mass error(ppm) formula
  253.07 1 [fa(16:1)-H]- 253.2167551751 -579 C16H29O2-
  283.14 1 [fa(22:6)-H-CO2]- 283.2425759951 -361 C21H31-
  327.06 1 [fa(22:6)-H]- 327.2324052393 -526 C22H31O2-
  432.14 1 [lyso_PE(16:1,-)-H2O]- 432.2514994997 -257 C21H39NO6P-
  450.05 1 [lyso_PE(16:1,-)]- 450.262064186 -470 C21H41NO7P-
  524.15 1 [lyso_PE(-,22:6)]- 524.2777142502 -243 C27H43NO7P-
  716.45 1 [PE(16:1,22:6)-H-CO2]- 716.5019005269 -71 C42H71NO6P-
PK$NUM_PEAK: 29
PK$PEAK: m/z int. rel.int.
  226.99 5.7 4
  229.20 57.3 40
  249.08 5.1 4
  253.07 965.7 668
  254.11 78.4 54
  259.07 9.7 7
  277.08 19.3 13
  279.20 62.8 43
  281.13 7.2 5
  283.14 1008.6 698
  284.16 85.3 59
  301.02 48.3 33
  303.20 14.4 10
  309.39 16.6 11
  327.06 1443.7 999
  328.11 258.3 179
  432.14 11.9 8
  433.10 5.1 4
  450.05 773.4 535
  451.05 54.6 38
  462.49 7.0 5
  476.07 19.7 14
  476.88 18.1 13
  504.21 20.6 14
  505.82 26.5 18
  524.15 41.4 29
  524.95 8.3 6
  707.88 9.6 7
  716.45 8.2 6
//
