ACCESSION: MSBNK-Chubu_Univ-UT002142
RECORD_TITLE: Phosphatidylethanolamine 22:6-24:6; LC-ESI-ITFT; MS2; [M-H]-; RT: 12.75; Exp: 2
DATE: 2016.01.19 (Created 2010.05.07, modified 2011.08.03)
AUTHORS: Taguchi R, Graduate School of Medicine, The University of Tokyo
LICENSE: CC BY-NC-SA
PUBLICATION: Taguchi, R.; Ishikawa, M. Precise and Global Identification of Phospholipid Molecular Species by an Orbitrap Mass Spectrometer and Automated Search Engine Lipid Search. Journal of Chromatography A 2010, 1217 (25), 4229–39. DOI:10.1016/j.chroma.2010.04.034
CH$NAME: Phosphatidylethanolamine 22:6-24:6
CH$COMPOUND_CLASS: Natural Product; Glycerophospholipids; Glycerophosphoethanolamines; Diacylglycerophosphoethanolamines
CH$FORMULA: C51H78NO8P
CH$EXACT_MASS: 863.54650
CH$SMILES: C(C(COC(=O)CCC=CCC=CCC=CCC=CCC=CCC=CCC)OC(CCC=CCC=CCC=CCC=CCC=CCC=CCCCC)=O)OP(O)(=O)OCCN
CH$IUPAC: InChI=1S/C51H78NO8P/c1-3-5-7-9-11-13-15-17-19-21-23-24-26-28-30-32-34-36-38-40-42-44-51(54)60-49(48-59-61(55,56)58-46-45-52)47-57-50(53)43-41-39-37-35-33-31-29-27-25-22-20-18-16-14-12-10-8-6-4-2/h6,8-9,11-12,14-15,17-18,20-21,23,25-28,31-34,37-40,49H,3-5,7,10,13,16,19,22,24,29-30,35-36,41-48,52H2,1-2H3,(H,55,56)/b8-6-,11-9-,14-12-,17-15-,20-18-,23-21-,27-25-,28-26-,33-31-,34-32-,39-37-,40-38-
CH$LINK: INCHIKEY RYRYLVYZMTURGB-RIJNFFOPSA-N
SP$SCIENTIFIC_NAME: Mus musculus
SP$LINEAGE: cellular organisms; Eukaryota; Fungi/Metazoa group; Metazoa; Eumetazoa; Bilateria; Coelomata; Deuterostomia; Chordata; Craniata; Vertebrata; Gnathostomata; Teleostomi; Euteleostomi; Sarcopterygii; Tetrapoda; Amniota; Mammalia; Theria; Eutheria; Euarchontoglires; Glires; Rodentia; Sciurognathi; Muroidea; Muridae; Murinae; Mus
SP$LINK: NCBI-TAXONOMY 10090
SP$SAMPLE: brain
AC$INSTRUMENT: LC-10ADVPmicro HPLC, Shimadzu; LTQ Orbitrap, Thermo Scientific
AC$INSTRUMENT_TYPE: LC-ESI-ITFT
AC$MASS_SPECTROMETRY: MS_TYPE MS2
AC$MASS_SPECTROMETRY: ION_MODE NEGATIVE
AC$MASS_SPECTROMETRY: COLLISION_ENERGY 30%
AC$MASS_SPECTROMETRY: ION_SPRAY_VOLTAGE 3500 V
AC$MASS_SPECTROMETRY: IONIZATION ESI
AC$CHROMATOGRAPHY: COLUMN_NAME Develosil C30, Nomura Chemical
AC$CHROMATOGRAPHY: FLOW_GRADIENT  add 95/5 at 0 min, 70/30 at 40 min, 50/50 at 41 min, 50/50 at 90 min
AC$CHROMATOGRAPHY: FLOW_RATE  add 100 uL/min
AC$CHROMATOGRAPHY: RETENTION_TIME 12.70 min (in paper: 12.8 min)
AC$CHROMATOGRAPHY: SOLVENT A acetonitrile-methanol-water (19:19:2) with 0.1% acetic acid and 0.1% ammonium hydroxide (28%)
AC$CHROMATOGRAPHY: SOLVENT B 2-propanol with 0.1% acetic acid and 0.1% ammonium hydroxide (28%)
MS$FOCUSED_ION: PRECURSOR_M/Z 862.54
MS$FOCUSED_ION: PRECURSOR_TYPE [M-H]-
MS$DATA_PROCESSING: WHOLE Xcalibur ver-2.0
PK$SPLASH: splash10-0ufr-0029040110-9e8f760ed048ddd0940f
PK$ANNOTATION: m/z num type mass error(ppm) formula
  283.24 1 [fa(22:6)-H-CO2]- 283.2425759951 -8 C21H31-
  311.02 1 [fa(24:6)-H-CO2]- 311.2738761235 -815 C23H35-
  327.13 1 [fa(22:6)-H]- 327.2324052393 -312 C22H31O2-
PK$NUM_PEAK: 19
PK$PEAK: m/z int. rel.int.
  249.21 9.2 60
  283.24 77.9 505
  311.02 17.2 111
  327.13 154.2 999
  327.98 9.9 64
  337.21 6.2 40
  340.87 11.6 75
  354.87 102.1 661
  355.58 14.9 97
  491.04 8.2 53
  537.33 8.4 54
  552.00 132.1 856
  620.94 8.1 52
  735.87 16.7 108
  775.39 4.8 31
  788.11 25.8 167
  801.86 12.8 83
  804.33 18.3 119
  845.18 7.0 45
//
