ACCESSION: MSBNK-Chubu_Univ-UT001817
RECORD_TITLE: Phosphatidylcholine lyso 15:0; LC-ESI-ITFT; MS2; [M+CH3COO]-; RT: 2.23; Exp: 2
DATE: 2016.01.19 (Created 2010.05.07, modified 2011.08.03)
AUTHORS: Taguchi R, Graduate School of Medicine, The University of Tokyo
LICENSE: CC BY-NC-SA
PUBLICATION: Taguchi, R.; Ishikawa, M. Precise and Global Identification of Phospholipid Molecular Species by an Orbitrap Mass Spectrometer and Automated Search Engine Lipid Search. Journal of Chromatography A 2010, 1217 (25), 4229–39. DOI:10.1016/j.chroma.2010.04.034
CH$NAME: Phosphatidylcholine lyso 15:0
CH$COMPOUND_CLASS: Natural Product; Glycerophospholipids; Glycerophosphocholines; Monoacylglycerophosphocholines
CH$FORMULA: C23H48NO7P
CH$EXACT_MASS: 481.31684
CH$SMILES: CCCCCCCCCCCCCCC(=O)OC(CO)COP([O-1])(=O)OCC[N+1](C)(C)C
CH$IUPAC: InChI=1S/C23H48NO7P/c1-5-6-7-8-9-10-11-12-13-14-15-16-17-23(26)31-22(20-25)21-30-32(27,28)29-19-18-24(2,3)4/h22,25H,5-21H2,1-4H3
CH$LINK: CAS 17364-10-2
CH$LINK: INCHIKEY AGHWJZIEMKQLQP-UHFFFAOYSA-N
CH$LINK: PUBCHEM CID:22472197
SP$SCIENTIFIC_NAME: Mus musculus
SP$LINEAGE: cellular organisms; Eukaryota; Fungi/Metazoa group; Metazoa; Eumetazoa; Bilateria; Coelomata; Deuterostomia; Chordata; Craniata; Vertebrata; Gnathostomata; Teleostomi; Euteleostomi; Sarcopterygii; Tetrapoda; Amniota; Mammalia; Theria; Eutheria; Euarchontoglires; Glires; Rodentia; Sciurognathi; Muroidea; Muridae; Murinae; Mus
SP$LINK: NCBI-TAXONOMY 10090
SP$SAMPLE: liver
AC$INSTRUMENT: LC-10ADVPmicro HPLC, Shimadzu; LTQ Orbitrap, Thermo Scientific
AC$INSTRUMENT_TYPE: LC-ESI-ITFT
AC$MASS_SPECTROMETRY: MS_TYPE MS2
AC$MASS_SPECTROMETRY: ION_MODE NEGATIVE
AC$MASS_SPECTROMETRY: COLLISION_ENERGY 30%
AC$MASS_SPECTROMETRY: ION_SPRAY_VOLTAGE 3500 V
AC$MASS_SPECTROMETRY: IONIZATION ESI
AC$CHROMATOGRAPHY: COLUMN_NAME Develosil C30, Nomura Chemical
AC$CHROMATOGRAPHY: FLOW_GRADIENT  add 95/5 at 0 min, 70/30 at 40 min, 50/50 at 41 min, 50/50 at 90 min
AC$CHROMATOGRAPHY: FLOW_RATE  add 100 uL/min
AC$CHROMATOGRAPHY: RETENTION_TIME 2.26 min (in paper: 2.2 min)
AC$CHROMATOGRAPHY: SOLVENT A acetonitrile-methanol-water (19:19:2) with 0.1% acetic acid and 0.1% ammonium hydroxide (28%)
AC$CHROMATOGRAPHY: SOLVENT B 2-propanol with 0.1% acetic acid and 0.1% ammonium hydroxide (28%)
MS$FOCUSED_ION: PRECURSOR_M/Z 540.33
MS$FOCUSED_ION: PRECURSOR_TYPE [M+CH3COO]-
MS$DATA_PROCESSING: WHOLE Xcalibur ver-2.0
PK$SPLASH: splash10-014i-0000900000-9d3217b229a89906290b
PK$ANNOTATION: m/z num type mass error(ppm) formula
  466.13 1 [PC(lyso,15:0)-CH3]- 466.2933643144 -349 C22H45NO7P-
PK$NUM_PEAK: 12
PK$PEAK: m/z int. rel.int.
  341.76 14.7 7
  342.91 5.6 3
  395.23 9.1 5
  439.98 9.4 5
  442.46 10.1 5
  466.13 1996.1 999
  478.13 14.6 7
  480.13 40.0 20
  481.29 6.2 3
  482.97 10.5 5
  508.96 6.2 3
  539.54 13.2 7
//
