ACCESSION: MSBNK-Chubu_Univ-UT002794
RECORD_TITLE: Phosphatidylcholine 20:0-18:1; LC-ESI-ITFT; MS2; [M+CH3COO]-; RT: 42.96; Exp: 3
DATE: 2016.01.19 (Created 2010.05.07, modified 2011.08.03)
AUTHORS: Taguchi R, Graduate School of Medicine, The University of Tokyo
LICENSE: CC BY-NC-SA
PUBLICATION: Taguchi, R.; Ishikawa, M. Precise and Global Identification of Phospholipid Molecular Species by an Orbitrap Mass Spectrometer and Automated Search Engine Lipid Search. Journal of Chromatography A 2010, 1217 (25), 4229–39. DOI:10.1016/j.chroma.2010.04.034
CH$NAME: Phosphatidylcholine 20:0-18:1
CH$COMPOUND_CLASS: Natural Product; Glycerophospholipids; Glycerophosphocholines; Diacylglycerophosphocholines
CH$FORMULA: C46H90NO8P
CH$EXACT_MASS: 815.64041
CH$SMILES: C(CCCCCCCCCCCC)C=CCCC(OC(COC(=O)CCCCCCCCCCCCCCCCCCC)COP(OCC[N+1](C)(C)C)([O-1])=O)=O
CH$IUPAC: InChI=1S/C46H90NO8P/c1-6-8-10-12-14-16-18-20-22-23-25-26-28-30-32-34-36-38-45(48)52-42-44(43-54-56(50,51)53-41-40-47(3,4)5)55-46(49)39-37-35-33-31-29-27-24-21-19-17-15-13-11-9-7-2/h33,35,44H,6-32,34,36-43H2,1-5H3/b35-33-
CH$LINK: INCHIKEY MIVBFINNAAGALQ-OAPYJULQSA-N
SP$SCIENTIFIC_NAME: Mus musculus
SP$LINEAGE: cellular organisms; Eukaryota; Fungi/Metazoa group; Metazoa; Eumetazoa; Bilateria; Coelomata; Deuterostomia; Chordata; Craniata; Vertebrata; Gnathostomata; Teleostomi; Euteleostomi; Sarcopterygii; Tetrapoda; Amniota; Mammalia; Theria; Eutheria; Euarchontoglires; Glires; Rodentia; Sciurognathi; Muroidea; Muridae; Murinae; Mus
SP$LINK: NCBI-TAXONOMY 10090
SP$SAMPLE: brain
AC$INSTRUMENT: LC-10ADVPmicro HPLC, Shimadzu; LTQ Orbitrap, Thermo Scientific
AC$INSTRUMENT_TYPE: LC-ESI-ITFT
AC$MASS_SPECTROMETRY: MS_TYPE MS2
AC$MASS_SPECTROMETRY: ION_MODE NEGATIVE
AC$MASS_SPECTROMETRY: COLLISION_ENERGY 30%
AC$MASS_SPECTROMETRY: ION_SPRAY_VOLTAGE 3500 V
AC$MASS_SPECTROMETRY: IONIZATION ESI
AC$CHROMATOGRAPHY: COLUMN_NAME Develosil C30, Nomura Chemical
AC$CHROMATOGRAPHY: FLOW_GRADIENT  add 95/5 at 0 min, 70/30 at 40 min, 50/50 at 41 min, 50/50 at 90 min
AC$CHROMATOGRAPHY: FLOW_RATE  add 100 uL/min
AC$CHROMATOGRAPHY: RETENTION_TIME 43.16 min (in paper: 43 min)
AC$CHROMATOGRAPHY: SOLVENT A acetonitrile-methanol-water (19:19:2) with 0.1% acetic acid and 0.1% ammonium hydroxide (28%)
AC$CHROMATOGRAPHY: SOLVENT B 2-propanol with 0.1% acetic acid and 0.1% ammonium hydroxide (28%)
MS$FOCUSED_ION: PRECURSOR_M/Z 874.65
MS$FOCUSED_ION: PRECURSOR_TYPE [M+CH3COO]-
MS$DATA_PROCESSING: WHOLE Xcalibur ver-2.0
PK$SPLASH: splash10-0udi-0000000090-8484ed0ef24c6af29dab
PK$ANNOTATION: m/z num type mass error(ppm) formula
  311.45 1 [fa(20:0)-H]- 311.2950054961 498 C20H39O2-
  800.77 1 [PC(20:0,18:1)-CH3]- 800.6169302847 191 C45H87NO8P-
PK$NUM_PEAK: 9
PK$PEAK: m/z int. rel.int.
  311.45 20.2 15
  784.89 32.7 24
  798.28 32.5 24
  800.11 1351.5 999
  800.77 19.0 14
  814.96 15.6 12
  832.73 14.0 10
  838.11 49.0 36
  856.01 19.9 15
//
