ACCESSION: MSBNK-Chubu_Univ-UT002078
RECORD_TITLE: Phosphatidylcholine alkyl 16:1-20:1; LC-ESI-ITFT; MS2; [M+CH3COO]-; RT: 36.60; Exp: 2
DATE: 2016.01.19 (Created 2010.05.07, modified 2011.08.03)
AUTHORS: Taguchi R, Graduate School of Medicine, The University of Tokyo
LICENSE: CC BY-NC-SA
PUBLICATION: Taguchi, R.; Ishikawa, M. Precise and Global Identification of Phospholipid Molecular Species by an Orbitrap Mass Spectrometer and Automated Search Engine Lipid Search. Journal of Chromatography A 2010, 1217 (25), 4229–39. DOI:10.1016/j.chroma.2010.04.034
CH$NAME: Phosphatidylcholine alkyl 16:1-20:1
CH$COMPOUND_CLASS: Natural Product; Glycerophospholipids; Glycerophosphocholines; 1-alkyl,2-acylglycerophosphocholines
CH$FORMULA: C44H86NO7P
CH$EXACT_MASS: 771.61419
CH$SMILES: O(CC[N+1](C)(C)C)P([O-1])(=O)OCC(OC(CCC=CCCCCCCCCCCCCCCC)=O)COCCCC=CCCCCCCCCCCC
CH$IUPAC: InChI=1S/C44H86NO7P/c1-6-8-10-12-14-16-18-20-22-23-24-25-27-29-31-33-35-37-44(46)52-43(42-51-53(47,48)50-40-38-45(3,4)5)41-49-39-36-34-32-30-28-26-21-19-17-15-13-11-9-7-2/h30-33,43H,6-29,34-42H2,1-5H3/b32-30-,33-31-
CH$LINK: INCHIKEY DFWVDDDXFIDKMC-UOALMSBLSA-N
SP$SCIENTIFIC_NAME: Mus musculus
SP$LINEAGE: cellular organisms; Eukaryota; Fungi/Metazoa group; Metazoa; Eumetazoa; Bilateria; Coelomata; Deuterostomia; Chordata; Craniata; Vertebrata; Gnathostomata; Teleostomi; Euteleostomi; Sarcopterygii; Tetrapoda; Amniota; Mammalia; Theria; Eutheria; Euarchontoglires; Glires; Rodentia; Sciurognathi; Muroidea; Muridae; Murinae; Mus
SP$LINK: NCBI-TAXONOMY 10090
SP$SAMPLE: brain
AC$INSTRUMENT: LC-10ADVPmicro HPLC, Shimadzu; LTQ Orbitrap, Thermo Scientific
AC$INSTRUMENT_TYPE: LC-ESI-ITFT
AC$MASS_SPECTROMETRY: MS_TYPE MS2
AC$MASS_SPECTROMETRY: ION_MODE NEGATIVE
AC$MASS_SPECTROMETRY: COLLISION_ENERGY 30%
AC$MASS_SPECTROMETRY: ION_SPRAY_VOLTAGE 3500 V
AC$MASS_SPECTROMETRY: IONIZATION ESI
AC$CHROMATOGRAPHY: COLUMN_NAME Develosil C30, Nomura Chemical
AC$CHROMATOGRAPHY: FLOW_GRADIENT  add 95/5 at 0 min, 70/30 at 40 min, 50/50 at 41 min, 50/50 at 90 min
AC$CHROMATOGRAPHY: FLOW_RATE  add 100 uL/min
AC$CHROMATOGRAPHY: RETENTION_TIME 36.66 min (in paper: 36.6 min)
AC$CHROMATOGRAPHY: SOLVENT A acetonitrile-methanol-water (19:19:2) with 0.1% acetic acid and 0.1% ammonium hydroxide (28%)
AC$CHROMATOGRAPHY: SOLVENT B 2-propanol with 0.1% acetic acid and 0.1% ammonium hydroxide (28%)
MS$FOCUSED_ION: PRECURSOR_M/Z 830.62
MS$FOCUSED_ION: PRECURSOR_TYPE [M+CH3COO]-
MS$DATA_PROCESSING: WHOLE Xcalibur ver-2.0
PK$SPLASH: splash10-0a4i-0000000900-db00d5203a8b7719ade1
PK$ANNOTATION: m/z num type mass error(ppm) formula
  830.80 1 [PC(alkyl-16:1,20:1)+CH3COO]- 830.627494971 208 C46H89NO9P-
PK$NUM_PEAK: 15
PK$PEAK: m/z int. rel.int.
  280.98 18.6 23
  309.90 12.7 16
  337.70 4.8 6
  570.25 5.9 7
  705.87 5.9 7
  745.64 7.0 9
  753.95 8.8 11
  756.20 800.0 999
  757.12 18.1 23
  771.29 30.2 38
  773.64 17.8 22
  793.93 8.1 10
  795.59 22.0 27
  810.84 8.1 10
  830.80 17.5 22
//
