ACCESSION: MSBNK-Chubu_Univ-UT000242
RECORD_TITLE: 9-HODE; LC-ESI-QIT; MS2; CE:45 V; [M-H]-
DATE: 2016.01.19 (Created 2007.10.19, modified 2011.08.03)
AUTHORS: Nakanishi H, Taguchi R, Graduate School of Medicine, The University of Tokyo
LICENSE: CC BY-NC-SA
CH$NAME: 9-HODE
CH$NAME: 9S-hydroxy-10E,12Z-octadecadienoic acid
CH$NAME: (10E,12Z)-9-Hydroxy-10,12-octadecadienoic acid
CH$NAME: 9(S)-HODE
CH$NAME: (10E,12Z)-(9S)-9-Hydroxyoctadeca-10,12-dienoic acid
CH$NAME: (9S)-Hydroxyoctadecadienoic acid
CH$COMPOUND_CLASS: Natural Product; Lipid; Fatty acid
CH$FORMULA: C18H32O3
CH$EXACT_MASS: 296.23514
CH$SMILES: CCCCCC=CC=CC(O)CCCCCCCC(O)=O
CH$IUPAC: InChI=1S/C18H32O3/c1-2-3-4-5-6-8-11-14-17(19)15-12-9-7-10-13-16-18(20)21/h6,8,11,14,17,19H,2-5,7,9-10,12-13,15-16H2,1H3,(H,20,21)/b8-6-,14-11+
CH$LINK: CAS 73543-67-6
CH$LINK: CAYMAN 38410
CH$LINK: CHEBI CHEBI:34496
CH$LINK: KEGG C14767
CH$LINK: LIPIDBANK DFA0376
CH$LINK: NIKKAJI J365.920H
CH$LINK: INCHIKEY NPDSHTNEKLQQIJ-ZJHFMPGASA-N
AC$INSTRUMENT: 4000Q TRAP, Applied Biosystems
AC$INSTRUMENT_TYPE: LC-ESI-QIT
AC$MASS_SPECTROMETRY: MS_TYPE MS2
AC$MASS_SPECTROMETRY: ION_MODE NEGATIVE
AC$MASS_SPECTROMETRY: COLLISION_ENERGY 45 V
AC$MASS_SPECTROMETRY: IONIZATION ESI
MS$FOCUSED_ION: PRECURSOR_TYPE [M-H]-
MS$DATA_PROCESSING: IGNORE rel.val. < 0.5
MS$DATA_PROCESSING: WHOLE Analyst 1.4.2
PK$SPLASH: splash10-00di-0930000000-45c4e7df43061fa9f0db
PK$NUM_PEAK: 4
PK$PEAK: m/z int. rel.int.
  151.120 10000.0 23
  171.078 430000.0 999
  222.160 10000.0 23
  277.164 157500.0 366
//
