ACCESSION: MSBNK-Chubu_Univ-UT002748
RECORD_TITLE: Sphingomyelin d18:2-C23:0; LC-ESI-ITFT; MS2; [M+CH3COO]-; RT: 42.93; Exp: 3
DATE: 2016.01.19 (Created 2010.05.07, modified 2011.08.03)
AUTHORS: Taguchi R, Graduate School of Medicine, The University of Tokyo
LICENSE: CC BY-NC-SA
PUBLICATION: Taguchi, R.; Ishikawa, M. Precise and Global Identification of Phospholipid Molecular Species by an Orbitrap Mass Spectrometer and Automated Search Engine Lipid Search. Journal of Chromatography A 2010, 1217 (25), 4229–39. DOI:10.1016/j.chroma.2010.04.034
CH$NAME: Sphingomyelin d18:2-C23:0
CH$COMPOUND_CLASS: Natural Product; Sphingolipids; Phosphosphingolipids; Ceramide phosphocholines (sphingomyelins)
CH$FORMULA: C46H91N2O6P
CH$EXACT_MASS: 798.66148
CH$SMILES: C(CCCCCCCCCCCCCCC)CCCCCCC(NC(C(C=CCCC=CCCCCCCCCC)O)COP([O-1])(=O)OCC[N+1](C)(C)C)=O
CH$IUPAC: InChI=1S/C46H91N2O6P/c1-6-8-10-12-14-16-18-20-21-22-23-24-25-26-28-30-32-34-36-38-40-46(50)47-44(43-54-55(51,52)53-42-41-48(3,4)5)45(49)39-37-35-33-31-29-27-19-17-15-13-11-9-7-2/h29,31,37,39,44-45,49H,6-28,30,32-36,38,40-43H2,1-5H3,(H-,47,50,51,52)/b31-29+,39-37+/t44-,45+/m1/s1
CH$LINK: INCHIKEY PENYJGUXTJATDH-FKOSZORSSA-N
SP$SCIENTIFIC_NAME: Mus musculus
SP$LINEAGE: cellular organisms; Eukaryota; Fungi/Metazoa group; Metazoa; Eumetazoa; Bilateria; Coelomata; Deuterostomia; Chordata; Craniata; Vertebrata; Gnathostomata; Teleostomi; Euteleostomi; Sarcopterygii; Tetrapoda; Amniota; Mammalia; Theria; Eutheria; Euarchontoglires; Glires; Rodentia; Sciurognathi; Muroidea; Muridae; Murinae; Mus
SP$LINK: NCBI-TAXONOMY 10090
SP$SAMPLE: liver
AC$INSTRUMENT: LC-10ADVPmicro HPLC, Shimadzu; LTQ Orbitrap, Thermo Scientific
AC$INSTRUMENT_TYPE: LC-ESI-ITFT
AC$MASS_SPECTROMETRY: MS_TYPE MS2
AC$MASS_SPECTROMETRY: ION_MODE NEGATIVE
AC$MASS_SPECTROMETRY: COLLISION_ENERGY 30%
AC$MASS_SPECTROMETRY: ION_SPRAY_VOLTAGE 3500 V
AC$MASS_SPECTROMETRY: IONIZATION ESI
AC$CHROMATOGRAPHY: COLUMN_NAME Develosil C30, Nomura Chemical
AC$CHROMATOGRAPHY: FLOW_GRADIENT  add 95/5 at 0 min, 70/30 at 40 min, 50/50 at 41 min, 50/50 at 90 min
AC$CHROMATOGRAPHY: FLOW_RATE  add 100 uL/min
AC$CHROMATOGRAPHY: RETENTION_TIME 43.29 min (in paper: 42.9 min)
AC$CHROMATOGRAPHY: SOLVENT A acetonitrile-methanol-water (19:19:2) with 0.1% acetic acid and 0.1% ammonium hydroxide (28%)
AC$CHROMATOGRAPHY: SOLVENT B 2-propanol with 0.1% acetic acid and 0.1% ammonium hydroxide (28%)
MS$FOCUSED_ION: PRECURSOR_M/Z 857.67
MS$FOCUSED_ION: PRECURSOR_TYPE [M+CH3COO]-
MS$DATA_PROCESSING: WHOLE Xcalibur ver-2.0
PK$SPLASH: splash10-001i-0000000900-cd59dafc55c0b07df7fe
PK$ANNOTATION: m/z num type mass error(ppm) formula
  783.41 1 [SM(18:2,23:0)-CH3]- 783.6380000778 -290 C45H88N2O6P-
PK$NUM_PEAK: 18
PK$PEAK: m/z int. rel.int.
  283.18 27.7 58
  284.08 37.3 78
  327.21 18.7 39
  419.21 17.6 37
  531.31 5.1 11
  547.13 21.0 44
  568.47 5.4 11
  590.94 13.0 27
  710.22 13.0 27
  772.28 13.7 29
  775.18 35.9 75
  783.41 476.0 999
  796.95 36.0 76
  797.66 44.6 94
  798.44 11.9 25
  800.23 11.9 25
  813.17 6.5 14
  858.99 7.0 15
//
