ACCESSION: MSBNK-Chubu_Univ-UT002049
RECORD_TITLE: Phosphatidylcholine 18:0-18:2; LC-ESI-ITFT; MS2; [M+CH3COO]-; RT: 27.72; Exp: 2
DATE: 2016.01.19 (Created 2010.05.07, modified 2011.08.03)
AUTHORS: Taguchi R, Graduate School of Medicine, The University of Tokyo
LICENSE: CC BY-NC-SA
PUBLICATION: Taguchi, R.; Ishikawa, M. Precise and Global Identification of Phospholipid Molecular Species by an Orbitrap Mass Spectrometer and Automated Search Engine Lipid Search. Journal of Chromatography A 2010, 1217 (25), 4229–39. DOI:10.1016/j.chroma.2010.04.034
CH$NAME: Phosphatidylcholine 18:0-18:2
CH$COMPOUND_CLASS: Natural Product; Glycerophospholipids; Glycerophosphocholines; Diacylglycerophosphocholines
CH$FORMULA: C44H84NO8P
CH$EXACT_MASS: 785.59346
CH$SMILES: C(CCCCCC=CCC=CCCC(=O)OC(COP(OCC[N+1](C)(C)C)([O-1])=O)COC(CCCCCCCCCCCCCCCCC)=O)CCCC
CH$IUPAC: InChI=1S/C44H84NO8P/c1-6-8-10-12-14-16-18-20-22-24-26-28-30-32-34-36-43(46)50-40-42(41-52-54(48,49)51-39-38-45(3,4)5)53-44(47)37-35-33-31-29-27-25-23-21-19-17-15-13-11-9-7-2/h25,27,31,33,42H,6-24,26,28-30,32,34-41H2,1-5H3/b27-25-,33-31-
CH$LINK: INCHIKEY BHAATSGDDOXMJD-FOXSRGEXSA-N
SP$SCIENTIFIC_NAME: Mus musculus
SP$LINEAGE: cellular organisms; Eukaryota; Fungi/Metazoa group; Metazoa; Eumetazoa; Bilateria; Coelomata; Deuterostomia; Chordata; Craniata; Vertebrata; Gnathostomata; Teleostomi; Euteleostomi; Sarcopterygii; Tetrapoda; Amniota; Mammalia; Theria; Eutheria; Euarchontoglires; Glires; Rodentia; Sciurognathi; Muroidea; Muridae; Murinae; Mus
SP$LINK: NCBI-TAXONOMY 10090
SP$SAMPLE: brain
AC$INSTRUMENT: LC-10ADVPmicro HPLC, Shimadzu; LTQ Orbitrap, Thermo Scientific
AC$INSTRUMENT_TYPE: LC-ESI-ITFT
AC$MASS_SPECTROMETRY: MS_TYPE MS2
AC$MASS_SPECTROMETRY: ION_MODE NEGATIVE
AC$MASS_SPECTROMETRY: COLLISION_ENERGY 30%
AC$MASS_SPECTROMETRY: ION_SPRAY_VOLTAGE 3500 V
AC$MASS_SPECTROMETRY: IONIZATION ESI
AC$CHROMATOGRAPHY: COLUMN_NAME Develosil C30, Nomura Chemical
AC$CHROMATOGRAPHY: FLOW_GRADIENT  add 95/5 at 0 min, 70/30 at 40 min, 50/50 at 41 min, 50/50 at 90 min
AC$CHROMATOGRAPHY: FLOW_RATE  add 100 uL/min
AC$CHROMATOGRAPHY: RETENTION_TIME 27.99 min (in paper: 27.5 min)
AC$CHROMATOGRAPHY: SOLVENT A acetonitrile-methanol-water (19:19:2) with 0.1% acetic acid and 0.1% ammonium hydroxide (28%)
AC$CHROMATOGRAPHY: SOLVENT B 2-propanol with 0.1% acetic acid and 0.1% ammonium hydroxide (28%)
MS$FOCUSED_ION: PRECURSOR_M/Z 844.61
MS$FOCUSED_ION: PRECURSOR_TYPE [M+CH3COO]-
MS$DATA_PROCESSING: WHOLE Xcalibur ver-2.0
PK$SPLASH: splash10-00di-0000000900-222c6c383d9cb575c8e7
PK$ANNOTATION: m/z num type mass error(ppm) formula
  278.99 1 [fa(18:2)-H]- 279.2324052393 -867 C18H31O2-
  283.04 1 [fa(18:0)-H]- 283.2637053677 -789 C18H35O2-
  770.78 1 [PC(18:0,18:2)-CH3]- 770.5699800921 273 C43H81NO8P-
PK$NUM_PEAK: 19
PK$PEAK: m/z int. rel.int.
  278.99 77.7 5
  283.04 49.4 3
  309.39 7.8 1
  432.01 11.7 1
  507.97 31.4 2
  645.51 22.6 1
  670.44 43.3 3
  671.53 16.6 1
  699.29 8.9 1
  716.12 15.3 1
  730.60 17.7 1
  762.23 9.8 1
  770.16 16901.7 999
  770.78 198.3 12
  781.13 35.3 2
  785.13 59.6 4
  794.45 11.5 1
  808.24 16.7 1
  830.68 27.7 2
//
