ACCESSION: MSBNK-Chubu_Univ-UT000251
RECORD_TITLE: 9-HOTrE; LC-ESI-QIT; MS2; CE:45 V; [M-H]-
DATE: 2016.01.19 (Created 2007.10.19, modified 2011.08.03)
AUTHORS: Nakanishi H, Taguchi R, Graduate School of Medicine, The University of Tokyo
LICENSE: CC BY-NC-SA
CH$NAME: 9-HOTrE
CH$NAME: 9S-hydroxy-10E,12Z,15Z-octadecatrienoic acid
CH$NAME: 9(S)-HOTrE
CH$COMPOUND_CLASS: Natural Product; Lipid; Fatty acid
CH$FORMULA: C18H30O3
CH$EXACT_MASS: 294.21949
CH$SMILES: CCC=CCC=CC=CC(O)CCCCCCCC(O)=O
CH$IUPAC: InChI=1S/C18H30O3/c1-2-3-4-5-6-8-11-14-17(19)15-12-9-7-10-13-16-18(20)21/h3-4,6,8,11,14,17,19H,2,5,7,9-10,12-13,15-16H2,1H3,(H,20,21)/b4-3-,8-6-,14-11+/t17-/m1/s1
CH$LINK: CAS 89886-42-0
CH$LINK: CAYMAN 39420
CH$LINK: INCHIKEY RIGGEAZDTKMXSI-MEBVTJQTSA-N
AC$INSTRUMENT: 4000Q TRAP, Applied Biosystems
AC$INSTRUMENT_TYPE: LC-ESI-QIT
AC$MASS_SPECTROMETRY: MS_TYPE MS2
AC$MASS_SPECTROMETRY: ION_MODE NEGATIVE
AC$MASS_SPECTROMETRY: COLLISION_ENERGY 45 V
AC$MASS_SPECTROMETRY: IONIZATION ESI
MS$FOCUSED_ION: PRECURSOR_TYPE [M-H]-
MS$DATA_PROCESSING: IGNORE rel.val. < 0.5
MS$DATA_PROCESSING: WHOLE Analyst 1.4.2
PK$SPLASH: splash10-00di-0290000000-d7fa93d69989f1e1fe68
PK$NUM_PEAK: 14
PK$PEAK: m/z int. rel.int.
  97.040 15625.0 18
  120.960 6250.0 7
  125.120 15625.0 18
  164.000 6250.0 7
  171.062 228125.0 265
  177.080 109375.0 127
  191.120 6250.0 7
  192.155 109375.0 127
  193.120 6250.0 7
  205.087 237500.0 276
  220.121 768750.0 894
  220.720 12500.0 15
  221.109 859375.0 999
  221.600 6250.0 7
//
