ACCESSION: MSBNK-Chubu_Univ-UT002400
RECORD_TITLE: Phosphatidylcholine 16:0-20:3; LC-ESI-ITFT; MS3; [M+CH3COO]-/[M-CH3]-; RT: 21.32; Exp: 2
DATE: 2016.01.19 (Created 2010.05.07, modified 2011.08.03)
AUTHORS: Taguchi R, Graduate School of Medicine, The University of Tokyo
LICENSE: CC BY-NC-SA
PUBLICATION: Taguchi, R.; Ishikawa, M. Precise and Global Identification of Phospholipid Molecular Species by an Orbitrap Mass Spectrometer and Automated Search Engine Lipid Search. Journal of Chromatography A 2010, 1217 (25), 4229–39. DOI:10.1016/j.chroma.2010.04.034
CH$NAME: Phosphatidylcholine 16:0-20:3
CH$COMPOUND_CLASS: Natural Product; Glycerophospholipids; Glycerophosphocholines; Diacylglycerophosphocholines
CH$FORMULA: C44H82NO8P
CH$EXACT_MASS: 783.57781
CH$SMILES: C(CCCCC)CCCC=CCC=CCC=CCCC(=O)OC(COP(OCC[N+1](C)(C)C)([O-1])=O)COC(CCCCCCCCCCCCCCC)=O
CH$IUPAC: InChI=1S/C44H82NO8P/c1-6-8-10-12-14-16-18-20-21-22-23-25-27-29-31-33-35-37-44(47)53-42(41-52-54(48,49)51-39-38-45(3,4)5)40-50-43(46)36-34-32-30-28-26-24-19-17-15-13-11-9-7-2/h21-22,25,27,31,33,42H,6-20,23-24,26,28-30,32,34-41H2,1-5H3/b22-21-,27-25-,33-31-
CH$LINK: INCHIKEY XWDUIGPTBYOBBP-BQYMPCJESA-N
SP$SCIENTIFIC_NAME: Mus musculus
SP$LINEAGE: cellular organisms; Eukaryota; Fungi/Metazoa group; Metazoa; Eumetazoa; Bilateria; Coelomata; Deuterostomia; Chordata; Craniata; Vertebrata; Gnathostomata; Teleostomi; Euteleostomi; Sarcopterygii; Tetrapoda; Amniota; Mammalia; Theria; Eutheria; Euarchontoglires; Glires; Rodentia; Sciurognathi; Muroidea; Muridae; Murinae; Mus
SP$LINK: NCBI-TAXONOMY 10090
SP$SAMPLE: brain
AC$INSTRUMENT: LC-10ADVPmicro HPLC, Shimadzu; LTQ Orbitrap, Thermo Scientific
AC$INSTRUMENT_TYPE: LC-ESI-ITFT
AC$MASS_SPECTROMETRY: MS_TYPE MS3
AC$MASS_SPECTROMETRY: ION_MODE NEGATIVE
AC$MASS_SPECTROMETRY: COLLISION_ENERGY 30%
AC$MASS_SPECTROMETRY: ION_SPRAY_VOLTAGE 3500 V
AC$MASS_SPECTROMETRY: IONIZATION ESI
AC$CHROMATOGRAPHY: COLUMN_NAME Develosil C30, Nomura Chemical
AC$CHROMATOGRAPHY: FLOW_GRADIENT  add 95/5 at 0 min, 70/30 at 40 min, 50/50 at 41 min, 50/50 at 90 min
AC$CHROMATOGRAPHY: FLOW_RATE  add 100 uL/min
AC$CHROMATOGRAPHY: RETENTION_TIME 21.17 min (in paper: 21.2 min)
AC$CHROMATOGRAPHY: SOLVENT A acetonitrile-methanol-water (19:19:2) with 0.1% acetic acid and 0.1% ammonium hydroxide (28%)
AC$CHROMATOGRAPHY: SOLVENT B 2-propanol with 0.1% acetic acid and 0.1% ammonium hydroxide (28%)
MS$FOCUSED_ION: PRECURSOR_M/Z 842.59/768.17
MS$FOCUSED_ION: PRECURSOR_TYPE [M+CH3COO]-/[M-CH3]-
MS$DATA_PROCESSING: WHOLE Xcalibur ver-2.0
PK$SPLASH: splash10-0a4i-0089110000-8273a9ee02f20f4d00f4
PK$ANNOTATION: m/z num type mass error(ppm) formula
  255.15 1 [fa(16:0)-H]- 255.2324052393 -322 C16H31O2-
  261.06 1 [fa(20:3)-H-CO2]- 261.2582260593 -758 C19H33-
  305.09 1 [fa(20:3)-H]- 305.2480553035 -517 C20H33O2-
  462.21 1 [lyso_PC(16:0,-)-H2O]- 462.2984496923 -190 C23H45NO6P-
  480.18 1 [lyso_PC(16:0,-)]- 480.3090143786 -268 C23H47NO7P-
  512.25 1 [lyso_PC(-,20:3)-H2O]- 512.3140997565 -124 C27H47NO6P-
  530.60 1 [lyso_PC(-,20:3)]- 530.3246644428 519 C27H49NO7P-
PK$NUM_PEAK: 13
PK$PEAK: m/z int. rel.int.
  255.15 1747.2 950
  261.06 6.2 3
  277.35 6.2 3
  279.06 33.7 18
  281.24 13.5 7
  305.09 1837.1 999
  462.21 30.4 17
  480.18 263.2 143
  481.41 4.6 3
  485.87 11.5 6
  512.25 28.1 15
  529.96 321.1 175
  530.60 15.8 9
//
