ACCESSION: MSBNK-Chubu_Univ-UT002235
RECORD_TITLE: Phosphatidylserine 18:0-20:3; LC-ESI-ITFT; MS2; [M-H]-; RT: 28.53; Exp: 2
DATE: 2016.01.19 (Created 2010.05.07, modified 2013.05.16)
AUTHORS: Taguchi R, Graduate School of Medicine, The University of Tokyo
LICENSE: CC BY-NC-SA
PUBLICATION: Taguchi, R.; Ishikawa, M. Precise and Global Identification of Phospholipid Molecular Species by an Orbitrap Mass Spectrometer and Automated Search Engine Lipid Search. Journal of Chromatography A 2010, 1217 (25), 4229–39. DOI:10.1016/j.chroma.2010.04.034
CH$NAME: Phosphatidylserine 18:0-20:3
CH$COMPOUND_CLASS: Natural Product; Glycerophospholipids; Glycerophosphoserines; Diacylglycerophosphoserines
CH$FORMULA: C44H80NO10P
CH$EXACT_MASS: 813.55198
CH$SMILES: C(CCCCC)CCCC=CCC=CCC=CCCC(OC(COC(CCCCCCCCCCCCCCCCC)=O)COP(OCC(C(O)=O)N)(O)=O)=O
CH$IUPAC: InChI=1S/C44H80NO10P/c1-3-5-7-9-11-13-15-17-19-20-22-24-26-28-30-32-34-36-43(47)55-40(38-53-56(50,51)54-39-41(45)44(48)49)37-52-42(46)35-33-31-29-27-25-23-21-18-16-14-12-10-8-6-4-2/h19-20,24,26,30,32,40-41H,3-18,21-23,25,27-29,31,33-39,45H2,1-2H3,(H,48,49)(H,50,51)/b20-19-,26-24-,32-30-
CH$LINK: INCHIKEY JRRYKGRILWVSHS-JCXYTCFZSA-N
SP$SCIENTIFIC_NAME: Mus musculus
SP$LINEAGE: cellular organisms; Eukaryota; Fungi/Metazoa group; Metazoa; Eumetazoa; Bilateria; Coelomata; Deuterostomia; Chordata; Craniata; Vertebrata; Gnathostomata; Teleostomi; Euteleostomi; Sarcopterygii; Tetrapoda; Amniota; Mammalia; Theria; Eutheria; Euarchontoglires; Glires; Rodentia; Sciurognathi; Muroidea; Muridae; Murinae; Mus
SP$LINK: NCBI-TAXONOMY 10090
SP$SAMPLE: brain
AC$INSTRUMENT: LC-10ADVPmicro HPLC, Shimadzu; LTQ Orbitrap, Thermo Scientific
AC$INSTRUMENT_TYPE: LC-ESI-ITFT
AC$MASS_SPECTROMETRY: MS_TYPE MS2
AC$MASS_SPECTROMETRY: ION_MODE NEGATIVE
AC$MASS_SPECTROMETRY: COLLISION_ENERGY 30%
AC$MASS_SPECTROMETRY: ION_SPRAY_VOLTAGE 3500 V
AC$MASS_SPECTROMETRY: IONIZATION ESI
AC$CHROMATOGRAPHY: COLUMN_NAME Develosil C30, Nomura Chemical
AC$CHROMATOGRAPHY: FLOW_GRADIENT add 95/5 at 0 min, 70/30 at 40 min, 50/50 at 41 min, 50/50 at 90 min
AC$CHROMATOGRAPHY: FLOW_RATE add 100 uL/min
AC$CHROMATOGRAPHY: RETENTION_TIME 28.65 min (in paper: 34.1 min)
AC$CHROMATOGRAPHY: SOLVENT A acetonitrile-methanol-water (19:19:2) with 0.1% acetic acid and 0.1% ammonium hydroxide (28%)
AC$CHROMATOGRAPHY: SOLVENT B 2-propanol with 0.1% acetic acid and 0.1% ammonium hydroxide (28%)
MS$FOCUSED_ION: PRECURSOR_M/Z 812.54
MS$FOCUSED_ION: PRECURSOR_TYPE [M-H]-
MS$DATA_PROCESSING: WHOLE Xcalibur ver-2.0
PK$SPLASH: splash10-004i-0000100900-3f28693c091c6087ba72
PK$ANNOTATION: m/z num type mass error(ppm) formula
  283.11 1 [fa(18:0)-H]- 283.2637053677 -542 C18H35O2-
  305.15 1 [fa(20:3)-H]- 305.2480553035 -320 C20H33O2-
  419.10 1 [lyso_PS(18:0,-)-H2O]- 419.2562505266 -372 C21H40O6P-
  441.08 1 [lyso_PS(-,20:3)-H2O]- 441.2406004624 -363 C23H38O6P-
PK$NUM_PEAK: 16
PK$PEAK: m/z int. rel.int.
  283.11 146.2 63
  284.25 59.3 25
  302.99 16.5 7
  305.15 42.1 18
  419.10 280.6 120
  420.13 40.2 17
  421.25 25.1 11
  436.91 33.0 14
  438.16 16.9 7
  440.15 22.7 10
  441.08 76.1 33
  442.28 24.6 11
  723.38 65.7 28
  724.15 319.8 137
  725.12 2328.4 999
  726.15 878.6 377
//
