ACCESSION: MSBNK-Chubu_Univ-UT002212
RECORD_TITLE: Phosphatidylglyceride 22:6-22:4; LC-ESI-ITFT; MS2; [M-H]-; RT: 8.02; Exp: 2
DATE: 2016.01.19 (Created 2010.05.07, modified 2013.05.16)
AUTHORS: Taguchi R, Graduate School of Medicine, The University of Tokyo
LICENSE: CC BY-NC-SA
PUBLICATION: Taguchi, R.; Ishikawa, M. Precise and Global Identification of Phospholipid Molecular Species by an Orbitrap Mass Spectrometer and Automated Search Engine Lipid Search. Journal of Chromatography A 2010, 1217 (25), 4229–39. DOI:10.1016/j.chroma.2010.04.034
CH$NAME: Phosphatidylglyceride 22:6-22:4
CH$COMPOUND_CLASS: Natural Product; Glycerophospholipids; Glycerophosphoglycerols; Diacylglycerophosphoglycerols
CH$FORMULA: C50H79O10P
CH$EXACT_MASS: 870.54109
CH$SMILES: O=C(CCC=CCC=CCC=CCC=CCCCCCCCC)OC(COP(O)(=O)OCC(O)CO)COC(CCC=CCC=CCC=CCC=CCC=CCC=CCC)=O
CH$IUPAC: InChI=1S/C50H79O10P/c1-3-5-7-9-11-13-15-17-19-21-23-25-27-29-31-33-35-37-39-41-49(53)57-45-48(46-59-61(55,56)58-44-47(52)43-51)60-50(54)42-40-38-36-34-32-30-28-26-24-22-20-18-16-14-12-10-8-6-4-2/h5,7,11,13,17-20,23-26,29-32,35-38,47-48,51-52H,3-4,6,8-10,12,14-16,21-22,27-28,33-34,39-46H2,1-2H3,(H,55,56)/b7-5-,13-11-,19-17-,20-18-,25-23-,26-24-,31-29-,32-30-,37-35-,38-36-
CH$LINK: INCHIKEY NKQMVGLKBUHTCY-JKIJTENUSA-N
SP$SCIENTIFIC_NAME: Mus musculus
SP$LINEAGE: cellular organisms; Eukaryota; Fungi/Metazoa group; Metazoa; Eumetazoa; Bilateria; Coelomata; Deuterostomia; Chordata; Craniata; Vertebrata; Gnathostomata; Teleostomi; Euteleostomi; Sarcopterygii; Tetrapoda; Amniota; Mammalia; Theria; Eutheria; Euarchontoglires; Glires; Rodentia; Sciurognathi; Muroidea; Muridae; Murinae; Mus
SP$LINK: NCBI-TAXONOMY 10090
SP$SAMPLE: brain
AC$INSTRUMENT: LC-10ADVPmicro HPLC, Shimadzu; LTQ Orbitrap, Thermo Scientific
AC$INSTRUMENT_TYPE: LC-ESI-ITFT
AC$MASS_SPECTROMETRY: MS_TYPE MS2
AC$MASS_SPECTROMETRY: ION_MODE NEGATIVE
AC$MASS_SPECTROMETRY: COLLISION_ENERGY 30%
AC$MASS_SPECTROMETRY: ION_SPRAY_VOLTAGE 3500 V
AC$MASS_SPECTROMETRY: IONIZATION ESI
AC$CHROMATOGRAPHY: COLUMN_NAME Develosil C30, Nomura Chemical
AC$CHROMATOGRAPHY: FLOW_GRADIENT add 95/5 at 0 min, 70/30 at 40 min, 50/50 at 41 min, 50/50 at 90 min
AC$CHROMATOGRAPHY: FLOW_RATE add 100 uL/min
AC$CHROMATOGRAPHY: RETENTION_TIME 8.11 min (in paper: 8 min)
AC$CHROMATOGRAPHY: SOLVENT A acetonitrile-methanol-water (19:19:2) with 0.1% acetic acid and 0.1% ammonium hydroxide (28%)
AC$CHROMATOGRAPHY: SOLVENT B 2-propanol with 0.1% acetic acid and 0.1% ammonium hydroxide (28%)
MS$FOCUSED_ION: PRECURSOR_M/Z 869.54
MS$FOCUSED_ION: PRECURSOR_TYPE [M-H]-
MS$DATA_PROCESSING: WHOLE Xcalibur ver-2.0
PK$SPLASH: splash10-004i-0007030090-3dcfb17a53bb347cdbb4
PK$ANNOTATION: m/z num type mass error(ppm) formula
  327.34 1 [fa(22:6)-H]- 327.2324052393 329 C22H31O2-
  331.33 1 [fa(22:4)-H]- 331.2637053677 200 C22H35O2-
  541.38 1 [lyso_PG(-,22:4)-H2O]- 541.2930299634 161 C28H46O8P-
  869.43 1 [PG(22:6,22:4)-H]- 869.5332602348 -118 C50H78O10P-
PK$NUM_PEAK: 6
PK$PEAK: m/z int. rel.int.
  327.34 35.8 999
  331.33 17.2 480
  541.38 28.3 790
  809.14 16.8 469
  829.55 28.3 790
  869.43 21.2 592
//
