ACCESSION: MSBNK-Chubu_Univ-UT002157
RECORD_TITLE: Phosphatidylethanolamine alkenyl 18:0-18:2; LC-ESI-ITFT; MS2; [M-H]-; RT: 32.89; Exp: 2
DATE: 2016.01.19 (Created 2010.05.07, modified 2011.08.03)
AUTHORS: Taguchi R, Graduate School of Medicine, The University of Tokyo
LICENSE: CC BY-NC-SA
PUBLICATION: Taguchi, R.; Ishikawa, M. Precise and Global Identification of Phospholipid Molecular Species by an Orbitrap Mass Spectrometer and Automated Search Engine Lipid Search. Journal of Chromatography A 2010, 1217 (25), 4229–39. DOI:10.1016/j.chroma.2010.04.034
CH$NAME: Phosphatidylethanolamine alkenyl 18:0-18:2
CH$COMPOUND_CLASS: Natural Product; Glycerophospholipids; Glycerophosphoethanolamines; 1Z-alkenyl,2-acylglycerophosphoethanolamines
CH$FORMULA: C41H78NO7P
CH$EXACT_MASS: 727.55159
CH$SMILES: C(CCC=COCC(OC(CCC=CCC=CCCCCCCCCCC)=O)COP(O)(=O)OCCN)CCCCCCCCCCCCC
CH$IUPAC: InChI=1S/C41H78NO7P/c1-3-5-7-9-11-13-15-17-19-21-23-25-27-29-31-33-36-46-38-40(39-48-50(44,45)47-37-35-42)49-41(43)34-32-30-28-26-24-22-20-18-16-14-12-10-8-6-4-2/h22,24,28,30,33,36,40H,3-21,23,25-27,29,31-32,34-35,37-39,42H2,1-2H3,(H,44,45)/b24-22-,30-28-,36-33+
CH$LINK: INCHIKEY QBAQUPWJTLVJBD-CZAAGYDRSA-N
SP$SCIENTIFIC_NAME: Mus musculus
SP$LINEAGE: cellular organisms; Eukaryota; Fungi/Metazoa group; Metazoa; Eumetazoa; Bilateria; Coelomata; Deuterostomia; Chordata; Craniata; Vertebrata; Gnathostomata; Teleostomi; Euteleostomi; Sarcopterygii; Tetrapoda; Amniota; Mammalia; Theria; Eutheria; Euarchontoglires; Glires; Rodentia; Sciurognathi; Muroidea; Muridae; Murinae; Mus
SP$LINK: NCBI-TAXONOMY 10090
SP$SAMPLE: brain
AC$INSTRUMENT: LC-10ADVPmicro HPLC, Shimadzu; LTQ Orbitrap, Thermo Scientific
AC$INSTRUMENT_TYPE: LC-ESI-ITFT
AC$MASS_SPECTROMETRY: MS_TYPE MS2
AC$MASS_SPECTROMETRY: ION_MODE NEGATIVE
AC$MASS_SPECTROMETRY: COLLISION_ENERGY 30%
AC$MASS_SPECTROMETRY: ION_SPRAY_VOLTAGE 3500 V
AC$MASS_SPECTROMETRY: IONIZATION ESI
AC$CHROMATOGRAPHY: COLUMN_NAME Develosil C30, Nomura Chemical
AC$CHROMATOGRAPHY: FLOW_GRADIENT  add 95/5 at 0 min, 70/30 at 40 min, 50/50 at 41 min, 50/50 at 90 min
AC$CHROMATOGRAPHY: FLOW_RATE  add 100 uL/min
AC$CHROMATOGRAPHY: RETENTION_TIME 33.04 min (in paper: 41.7 min)
AC$CHROMATOGRAPHY: SOLVENT A acetonitrile-methanol-water (19:19:2) with 0.1% acetic acid and 0.1% ammonium hydroxide (28%)
AC$CHROMATOGRAPHY: SOLVENT B 2-propanol with 0.1% acetic acid and 0.1% ammonium hydroxide (28%)
MS$FOCUSED_ION: PRECURSOR_M/Z 726.54
MS$FOCUSED_ION: PRECURSOR_TYPE [M-H]-
MS$DATA_PROCESSING: WHOLE Xcalibur ver-2.0
PK$SPLASH: splash10-004i-0091300000-1546137198f8a6bc2f8c
PK$ANNOTATION: m/z num type mass error(ppm) formula
  279.00 1 [fa(18:2)-H]- 279.2324052393 -831 C18H31O2-
  446.21 1 [lyso_PE(alkenyl-18:0,-)-H2O]- 446.3035350702 -209 C23H45NO5P-
  464.11 1 [lyso_PE(alkenyl-18:0,-)]- 464.3140997565 -439 C23H47NO6P-
PK$NUM_PEAK: 23
PK$PEAK: m/z int. rel.int.
  279.00 2746.4 999
  280.16 223.6 81
  281.17 222.1 81
  282.07 30.5 11
  307.16 313.4 114
  308.05 62.4 23
  309.46 10.5 4
  362.65 6.6 2
  389.79 6.6 2
  418.34 24.3 9
  436.24 49.8 18
  444.08 9.0 3
  446.21 200.7 73
  447.49 15.7 6
  462.19 98.8 36
  462.89 13.8 5
  464.11 568.4 207
  465.26 104.6 38
  601.83 9.7 4
  621.62 6.9 3
  642.80 4.4 2
  666.41 21.7 8
  682.92 5.4 2
//
