ACCESSION: MSBNK-Chubu_Univ-UT002391
RECORD_TITLE: Phosphatidylcholine 14:0-22:0; LC-ESI-ITFT; MS3; [M+CH3COO]-/[M-CH3]-; RT: 44.75; Exp: 2
DATE: 2016.01.19 (Created 2010.05.07, modified 2011.08.03)
AUTHORS: Taguchi R, Graduate School of Medicine, The University of Tokyo
LICENSE: CC BY-NC-SA
PUBLICATION: Taguchi, R.; Ishikawa, M. Precise and Global Identification of Phospholipid Molecular Species by an Orbitrap Mass Spectrometer and Automated Search Engine Lipid Search. Journal of Chromatography A 2010, 1217 (25), 4229–39. DOI:10.1016/j.chroma.2010.04.034
CH$NAME: Phosphatidylcholine 14:0-22:0
CH$COMPOUND_CLASS: Natural Product; Glycerophospholipids; Glycerophosphocholines; Diacylglycerophosphocholines
CH$FORMULA: C44H88NO8P
CH$EXACT_MASS: 789.62476
CH$SMILES: CCCCCCCCCCCCCC(=O)OCC(OC(=O)CCCCCCCCCCCCCCCCCCCCC)COP([O-1])(=O)OCC[N+1](C)(C)C
CH$IUPAC: InChI=1S/C44H88NO8P/c1-6-8-10-12-14-16-18-19-20-21-22-23-24-25-27-29-31-33-35-37-44(47)53-42(41-52-54(48,49)51-39-38-45(3,4)5)40-50-43(46)36-34-32-30-28-26-17-15-13-11-9-7-2/h42H,6-41H2,1-5H3
CH$LINK: INCHIKEY KNQNJCODLDRFSM-UHFFFAOYSA-N
CH$LINK: PUBCHEM CID:132993535
SP$SCIENTIFIC_NAME: Mus musculus
SP$LINEAGE: cellular organisms; Eukaryota; Fungi/Metazoa group; Metazoa; Eumetazoa; Bilateria; Coelomata; Deuterostomia; Chordata; Craniata; Vertebrata; Gnathostomata; Teleostomi; Euteleostomi; Sarcopterygii; Tetrapoda; Amniota; Mammalia; Theria; Eutheria; Euarchontoglires; Glires; Rodentia; Sciurognathi; Muroidea; Muridae; Murinae; Mus
SP$LINK: NCBI-TAXONOMY 10090
SP$SAMPLE: brain
AC$INSTRUMENT: LC-10ADVPmicro HPLC, Shimadzu; LTQ Orbitrap, Thermo Scientific
AC$INSTRUMENT_TYPE: LC-ESI-ITFT
AC$MASS_SPECTROMETRY: MS_TYPE MS3
AC$MASS_SPECTROMETRY: ION_MODE NEGATIVE
AC$MASS_SPECTROMETRY: COLLISION_ENERGY 30%
AC$MASS_SPECTROMETRY: ION_SPRAY_VOLTAGE 3500 V
AC$MASS_SPECTROMETRY: IONIZATION ESI
AC$CHROMATOGRAPHY: COLUMN_NAME Develosil C30, Nomura Chemical
AC$CHROMATOGRAPHY: FLOW_GRADIENT  add 95/5 at 0 min, 70/30 at 40 min, 50/50 at 41 min, 50/50 at 90 min
AC$CHROMATOGRAPHY: FLOW_RATE  add 100 uL/min
AC$CHROMATOGRAPHY: RETENTION_TIME 44.75 min (in paper: 44.8 min)
AC$CHROMATOGRAPHY: SOLVENT A acetonitrile-methanol-water (19:19:2) with 0.1% acetic acid and 0.1% ammonium hydroxide (28%)
AC$CHROMATOGRAPHY: SOLVENT B 2-propanol with 0.1% acetic acid and 0.1% ammonium hydroxide (28%)
MS$FOCUSED_ION: PRECURSOR_M/Z 848.64/774.28
MS$FOCUSED_ION: PRECURSOR_TYPE [M+CH3COO]-/[M-CH3]-
MS$DATA_PROCESSING: WHOLE Xcalibur ver-2.0
PK$SPLASH: splash10-03di-0069100000-ac6ea6254fbed7c50c7b
PK$ANNOTATION: m/z num type mass error(ppm) formula
  339.35 1 [fa(22:0)-H]- 339.3263056245 70 C22H43O2-
  434.38 1 [lyso_PC(14:0,-)-H2O]- 434.2671495639 260 C21H41NO6P-
  452.20 1 [lyso_PC(14:0,-)]- 452.2777142502 -171 C21H43NO7P-
PK$NUM_PEAK: 9
PK$PEAK: m/z int. rel.int.
  227.52 11.4 103
  255.02 29.5 267
  283.25 21.5 195
  293.03 19.8 179
  311.23 110.3 999
  339.35 5.1 46
  434.38 11.9 108
  452.20 5.1 46
  479.66 7.9 72
//
