ACCESSION: MSBNK-Chubu_Univ-UT002671
RECORD_TITLE: Phosphatidylethanolamine lyso 20:3; LC-ESI-ITFT; MS2; [M-H]-; RT: 2.14; Exp: 3
DATE: 2016.01.19 (Created 2010.05.07, modified 2011.08.03)
AUTHORS: Taguchi R, Graduate School of Medicine, The University of Tokyo
LICENSE: CC BY-NC-SA
PUBLICATION: Taguchi, R.; Ishikawa, M. Precise and Global Identification of Phospholipid Molecular Species by an Orbitrap Mass Spectrometer and Automated Search Engine Lipid Search. Journal of Chromatography A 2010, 1217 (25), 4229–39. DOI:10.1016/j.chroma.2010.04.034
CH$NAME: Phosphatidylethanolamine lyso 20:3
CH$COMPOUND_CLASS: Natural Product; Glycerophospholipids; Glycerophosphoethanolamines; Monoacylglycerophosphoethanolamines
CH$FORMULA: C25H46NO7P
CH$EXACT_MASS: 503.30119
CH$SMILES: CCCCCCCCCC=CCC=CCC=CCCC(=O)OC(CO)COP(O)(=O)OCCN
CH$IUPAC: InChI=1S/C25H46NO7P/c1-2-3-4-5-6-7-8-9-10-11-12-13-14-15-16-17-18-19-25(28)33-24(22-27)23-32-34(29,30)31-21-20-26/h10-11,13-14,16-17,24,27H,2-9,12,15,18-23,26H2,1H3,(H,29,30)/b11-10-,14-13-,17-16-
CH$LINK: INCHIKEY BGJVXSMYONPLDN-NWFXIAEYSA-N
SP$SCIENTIFIC_NAME: Mus musculus
SP$LINEAGE: cellular organisms; Eukaryota; Fungi/Metazoa group; Metazoa; Eumetazoa; Bilateria; Coelomata; Deuterostomia; Chordata; Craniata; Vertebrata; Gnathostomata; Teleostomi; Euteleostomi; Sarcopterygii; Tetrapoda; Amniota; Mammalia; Theria; Eutheria; Euarchontoglires; Glires; Rodentia; Sciurognathi; Muroidea; Muridae; Murinae; Mus
SP$LINK: NCBI-TAXONOMY 10090
SP$SAMPLE: liver
AC$INSTRUMENT: LC-10ADVPmicro HPLC, Shimadzu; LTQ Orbitrap, Thermo Scientific
AC$INSTRUMENT_TYPE: LC-ESI-ITFT
AC$MASS_SPECTROMETRY: MS_TYPE MS2
AC$MASS_SPECTROMETRY: ION_MODE NEGATIVE
AC$MASS_SPECTROMETRY: COLLISION_ENERGY 30%
AC$MASS_SPECTROMETRY: ION_SPRAY_VOLTAGE 3500 V
AC$MASS_SPECTROMETRY: IONIZATION ESI
AC$CHROMATOGRAPHY: COLUMN_NAME Develosil C30, Nomura Chemical
AC$CHROMATOGRAPHY: FLOW_GRADIENT  add 95/5 at 0 min, 70/30 at 40 min, 50/50 at 41 min, 50/50 at 90 min
AC$CHROMATOGRAPHY: FLOW_RATE  add 100 uL/min
AC$CHROMATOGRAPHY: RETENTION_TIME 2.14 min (in paper: 2.1 min)
AC$CHROMATOGRAPHY: SOLVENT A acetonitrile-methanol-water (19:19:2) with 0.1% acetic acid and 0.1% ammonium hydroxide (28%)
AC$CHROMATOGRAPHY: SOLVENT B 2-propanol with 0.1% acetic acid and 0.1% ammonium hydroxide (28%)
MS$FOCUSED_ION: PRECURSOR_M/Z 502.29
MS$FOCUSED_ION: PRECURSOR_TYPE [M-H]-
MS$DATA_PROCESSING: WHOLE Xcalibur ver-2.0
PK$SPLASH: splash10-0a4i-0009000000-f6c7926de6e5094bc5d3
PK$ANNOTATION: m/z num type mass error(ppm) formula
  213.81 1 [lyso_PE(lyso,-)]- 214.0480486651 -1111 C5H13NO6P-
  305.06 1 [fa(20:3)-H]- 305.2480553035 -615 C20H33O2-
PK$NUM_PEAK: 13
PK$PEAK: m/z int. rel.int.
  211.77 14.3 10
  213.81 12.6 9
  259.06 26.3 18
  279.03 15.2 10
  303.05 16.1 11
  305.06 1463.7 999
  306.04 45.6 31
  325.09 11.8 8
  359.66 6.4 4
  411.32 8.9 6
  421.00 11.1 8
  427.58 15.3 10
  444.83 13.6 9
//
