ACCESSION: MSBNK-Chubu_Univ-UT002378
RECORD_TITLE: Sphingomyelin d18:1-C20:0; LC-ESI-ITFT; MS3; [M+CH3COO]-/[M-CH3]-; RT: 37.14; Exp: 2
DATE: 2016.01.19 (Created 2010.05.07, modified 2011.08.03)
AUTHORS: Taguchi R, Graduate School of Medicine, The University of Tokyo
LICENSE: CC BY-NC-SA
PUBLICATION: Taguchi, R.; Ishikawa, M. Precise and Global Identification of Phospholipid Molecular Species by an Orbitrap Mass Spectrometer and Automated Search Engine Lipid Search. Journal of Chromatography A 2010, 1217 (25), 4229–39. DOI:10.1016/j.chroma.2010.04.034
CH$NAME: Sphingomyelin d18:1-C20:0
CH$COMPOUND_CLASS: Natural Product; Sphingolipids; Phosphosphingolipids; Ceramide phosphocholines (sphingomyelins)
CH$FORMULA: C43H87N2O6P
CH$EXACT_MASS: 758.63018
CH$SMILES: C(CCC)CCCCCCCCCC=CC(C(NC(=O)CCCCCCCCCCCCCCCCCCC)COP(OCC[N+1](C)(C)C)([O-1])=O)O
CH$IUPAC: InChI=1S/C43H87N2O6P/c1-6-8-10-12-14-16-18-20-21-22-23-25-27-29-31-33-35-37-43(47)44-41(40-51-52(48,49)50-39-38-45(3,4)5)42(46)36-34-32-30-28-26-24-19-17-15-13-11-9-7-2/h34,36,41-42,46H,6-33,35,37-40H2,1-5H3,(H-,44,47,48,49)/b36-34+/t41-,42+/m1/s1
CH$LINK: INCHIKEY AADLTHQNYQJHQV-XACAWUTQSA-N
SP$SCIENTIFIC_NAME: Mus musculus
SP$LINEAGE: cellular organisms; Eukaryota; Fungi/Metazoa group; Metazoa; Eumetazoa; Bilateria; Coelomata; Deuterostomia; Chordata; Craniata; Vertebrata; Gnathostomata; Teleostomi; Euteleostomi; Sarcopterygii; Tetrapoda; Amniota; Mammalia; Theria; Eutheria; Euarchontoglires; Glires; Rodentia; Sciurognathi; Muroidea; Muridae; Murinae; Mus
SP$LINK: NCBI-TAXONOMY 10090
SP$SAMPLE: liver
AC$INSTRUMENT: LC-10ADVPmicro HPLC, Shimadzu; LTQ Orbitrap, Thermo Scientific
AC$INSTRUMENT_TYPE: LC-ESI-ITFT
AC$MASS_SPECTROMETRY: MS_TYPE MS3
AC$MASS_SPECTROMETRY: ION_MODE NEGATIVE
AC$MASS_SPECTROMETRY: COLLISION_ENERGY 30%
AC$MASS_SPECTROMETRY: ION_SPRAY_VOLTAGE 3500 V
AC$MASS_SPECTROMETRY: IONIZATION ESI
AC$CHROMATOGRAPHY: COLUMN_NAME Develosil C30, Nomura Chemical
AC$CHROMATOGRAPHY: FLOW_GRADIENT  add 95/5 at 0 min, 70/30 at 40 min, 50/50 at 41 min, 50/50 at 90 min
AC$CHROMATOGRAPHY: FLOW_RATE  add 100 uL/min
AC$CHROMATOGRAPHY: RETENTION_TIME 37.18 min (in paper: 37.1 min)
AC$CHROMATOGRAPHY: SOLVENT A acetonitrile-methanol-water (19:19:2) with 0.1% acetic acid and 0.1% ammonium hydroxide (28%)
AC$CHROMATOGRAPHY: SOLVENT B 2-propanol with 0.1% acetic acid and 0.1% ammonium hydroxide (28%)
MS$FOCUSED_ION: PRECURSOR_M/Z 817.64/743.30
MS$FOCUSED_ION: PRECURSOR_TYPE [M+CH3COO]-/[M-CH3]-
MS$DATA_PROCESSING: WHOLE Xcalibur ver-2.0
PK$SPLASH: splash10-0002-0000904000-1ecfa93d33069e666702
PK$ANNOTATION: m/z num type mass error(ppm) formula
  449.17 1 [lyso_SM(18:1,-)]- 449.3144341075 -320 C22H46N2O5P-
PK$NUM_PEAK: 8
PK$PEAK: m/z int. rel.int.
  255.16 9.0 24
  279.11 4.6 12
  280.15 11.7 31
  359.77 5.8 16
  431.00 27.5 74
  449.17 371.7 999
  654.17 62.6 168
  672.51 134.6 362
//
