ACCESSION: MSBNK-Chubu_Univ-UT002166
RECORD_TITLE: Phosphatidylethanolamine alkenyl 18:0-22:6; LC-ESI-ITFT; MS2; [M-H]-; RT: 28.66; Exp: 2
DATE: 2016.01.19 (Created 2010.05.07, modified 2011.08.03)
AUTHORS: Taguchi R, Graduate School of Medicine, The University of Tokyo
LICENSE: CC BY-NC-SA
PUBLICATION: Taguchi, R.; Ishikawa, M. Precise and Global Identification of Phospholipid Molecular Species by an Orbitrap Mass Spectrometer and Automated Search Engine Lipid Search. Journal of Chromatography A 2010, 1217 (25), 4229–39. DOI:10.1016/j.chroma.2010.04.034
CH$NAME: Phosphatidylethanolamine alkenyl 18:0-22:6
CH$COMPOUND_CLASS: Natural Product; Glycerophospholipids; Glycerophosphoethanolamines; 1Z-alkenyl,2-acylglycerophosphoethanolamines
CH$FORMULA: C45H78NO7P
CH$EXACT_MASS: 775.55159
CH$SMILES: C(CCCCCCCCCCC)CCCCC=COCC(COP(OCCN)(O)=O)OC(CCC=CCC=CCC=CCC=CCC=CCC=CCC)=O
CH$IUPAC: InChI=1S/C45H78NO7P/c1-3-5-7-9-11-13-15-17-19-21-22-23-24-26-28-30-32-34-36-38-45(47)53-44(43-52-54(48,49)51-41-39-46)42-50-40-37-35-33-31-29-27-25-20-18-16-14-12-10-8-6-4-2/h5,7,11,13,17,19,22-23,26,28,32,34,37,40,44H,3-4,6,8-10,12,14-16,18,20-21,24-25,27,29-31,33,35-36,38-39,41-43,46H2,1-2H3,(H,48,49)/b7-5-,13-11-,19-17-,23-22-,28-26-,34-32-,40-37+
CH$LINK: CAS 139367-62-7
CH$LINK: INCHIKEY FIJFPUAJUDAZEY-NUANVQICSA-N
SP$SCIENTIFIC_NAME: Mus musculus
SP$LINEAGE: cellular organisms; Eukaryota; Fungi/Metazoa group; Metazoa; Eumetazoa; Bilateria; Coelomata; Deuterostomia; Chordata; Craniata; Vertebrata; Gnathostomata; Teleostomi; Euteleostomi; Sarcopterygii; Tetrapoda; Amniota; Mammalia; Theria; Eutheria; Euarchontoglires; Glires; Rodentia; Sciurognathi; Muroidea; Muridae; Murinae; Mus
SP$LINK: NCBI-TAXONOMY 10090
SP$SAMPLE: brain
AC$INSTRUMENT: LC-10ADVPmicro HPLC, Shimadzu; LTQ Orbitrap, Thermo Scientific
AC$INSTRUMENT_TYPE: LC-ESI-ITFT
AC$MASS_SPECTROMETRY: MS_TYPE MS2
AC$MASS_SPECTROMETRY: ION_MODE NEGATIVE
AC$MASS_SPECTROMETRY: COLLISION_ENERGY 30%
AC$MASS_SPECTROMETRY: ION_SPRAY_VOLTAGE 3500 V
AC$MASS_SPECTROMETRY: IONIZATION ESI
AC$CHROMATOGRAPHY: COLUMN_NAME Develosil C30, Nomura Chemical
AC$CHROMATOGRAPHY: FLOW_GRADIENT  add 95/5 at 0 min, 70/30 at 40 min, 50/50 at 41 min, 50/50 at 90 min
AC$CHROMATOGRAPHY: FLOW_RATE  add 100 uL/min
AC$CHROMATOGRAPHY: RETENTION_TIME 28.88 min (in paper: 28.5 min)
AC$CHROMATOGRAPHY: SOLVENT A acetonitrile-methanol-water (19:19:2) with 0.1% acetic acid and 0.1% ammonium hydroxide (28%)
AC$CHROMATOGRAPHY: SOLVENT B 2-propanol with 0.1% acetic acid and 0.1% ammonium hydroxide (28%)
MS$FOCUSED_ION: PRECURSOR_M/Z 774.54
MS$FOCUSED_ION: PRECURSOR_TYPE [M-H]-
MS$DATA_PROCESSING: WHOLE Xcalibur ver-2.0
PK$SPLASH: splash10-01u0-0058900000-49e9878fa1aa4f86339c
PK$ANNOTATION: m/z num type mass error(ppm) formula
  267.12 1 [fa(alkenyl-18:0)-H]- 267.2687907456 -556 C18H35O-
  283.06 1 [fa(22:6)-H-CO2]- 283.2425759951 -644 C21H31-
  327.06 1 [fa(22:6)-H]- 327.2324052393 -526 C22H31O2-
  446.19 1 [lyso_PE(alkenyl-18:0,-)-H2O]- 446.3035350702 -253 C23H45NO5P-
  464.14 1 [lyso_PE(alkenyl-18:0,-)]- 464.3140997565 -374 C23H47NO6P-
  506.18 1 [lyso_PE(-,22:6)-H2O]- 506.2671495639 -171 C27H41NO6P-
PK$NUM_PEAK: 23
PK$PEAK: m/z int. rel.int.
  226.95 159.1 2
  229.09 3431.8 36
  240.98 387.5 4
  249.08 2203.8 23
  250.39 163.1 2
  257.11 72.6 1
  267.12 834.3 9
  268.97 286.2 3
  281.25 603.4 6
  283.06 52347.0 553
  284.20 4684.9 49
  309.17 367.5 4
  310.19 111.0 1
  327.06 94603.1 999
  328.09 6763.5 71
  403.07 1143.1 12
  418.77 91.8 1
  446.19 12481.0 132
  447.12 1333.0 14
  464.14 82964.5 876
  465.26 8550.3 90
  493.39 82.0 1
  506.18 149.7 2
//
