ACCESSION: MSBNK-Chubu_Univ-UT001395
RECORD_TITLE: Phosphatidylethanolamine 20:3-22:6; LC-ESI-ITFT; MS2; [M-H]-; RT: 13.40; Exp: 1
DATE: 2016.01.19 (Created 2010.05.07, modified 2011.08.03)
AUTHORS: Taguchi R, Graduate School of Medicine, The University of Tokyo
LICENSE: CC BY-NC-SA
PUBLICATION: Taguchi, R.; Ishikawa, M. Precise and Global Identification of Phospholipid Molecular Species by an Orbitrap Mass Spectrometer and Automated Search Engine Lipid Search. Journal of Chromatography A 2010, 1217 (25), 4229–39. DOI:10.1016/j.chroma.2010.04.034
CH$NAME: Phosphatidylethanolamine 20:3-22:6
CH$COMPOUND_CLASS: Natural Product; Glycerophospholipids; Glycerophosphoethanolamines; Diacylglycerophosphoethanolamines
CH$FORMULA: C47H76NO8P
CH$EXACT_MASS: 813.53085
CH$SMILES: C(C(OC(COC(=O)CCC=CCC=CCC=CCCCCCCCCC)COP(O)(=O)OCCN)=O)CC=CCC=CCC=CCC=CCC=CCC=CCC
CH$IUPAC: InChI=1S/C47H76NO8P/c1-3-5-7-9-11-13-15-17-19-21-22-24-26-28-30-32-34-36-38-40-47(50)56-45(44-55-57(51,52)54-42-41-48)43-53-46(49)39-37-35-33-31-29-27-25-23-20-18-16-14-12-10-8-6-4-2/h5,7,11,13,17,19-20,22-24,27-30,33-36,45H,3-4,6,8-10,12,14-16,18,21,25-26,31-32,37-44,48H2,1-2H3,(H,51,52)/b7-5-,13-11-,19-17-,23-20-,24-22-,29-27-,30-28-,35-33-,36-34-
CH$LINK: INCHIKEY LMXHYIDPXWFEQI-GKYWKYGOSA-N
SP$SCIENTIFIC_NAME: Mus musculus
SP$LINEAGE: cellular organisms; Eukaryota; Fungi/Metazoa group; Metazoa; Eumetazoa; Bilateria; Coelomata; Deuterostomia; Chordata; Craniata; Vertebrata; Gnathostomata; Teleostomi; Euteleostomi; Sarcopterygii; Tetrapoda; Amniota; Mammalia; Theria; Eutheria; Euarchontoglires; Glires; Rodentia; Sciurognathi; Muroidea; Muridae; Murinae; Mus
SP$LINK: NCBI-TAXONOMY 10090
SP$SAMPLE: brain
AC$INSTRUMENT: LC-10ADVPmicro HPLC, Shimadzu; LTQ Orbitrap, Thermo Scientific
AC$INSTRUMENT_TYPE: LC-ESI-ITFT
AC$MASS_SPECTROMETRY: MS_TYPE MS2
AC$MASS_SPECTROMETRY: ION_MODE NEGATIVE
AC$MASS_SPECTROMETRY: COLLISION_ENERGY 30%
AC$MASS_SPECTROMETRY: ION_SPRAY_VOLTAGE 3500 V
AC$MASS_SPECTROMETRY: IONIZATION ESI
AC$CHROMATOGRAPHY: COLUMN_NAME Develosil C30, Nomura Chemical
AC$CHROMATOGRAPHY: FLOW_GRADIENT  add 95/5 at 0 min, 70/30 at 40 min, 50/50 at 41 min, 50/50 at 90 min
AC$CHROMATOGRAPHY: FLOW_RATE  add 100 uL/min
AC$CHROMATOGRAPHY: RETENTION_TIME 13.64 min (in paper: 13.4 min)
AC$CHROMATOGRAPHY: SOLVENT A acetonitrile-methanol-water (19:19:2) with 0.1% acetic acid and 0.1% ammonium hydroxide (28%)
AC$CHROMATOGRAPHY: SOLVENT B 2-propanol with 0.1% acetic acid and 0.1% ammonium hydroxide (28%)
MS$FOCUSED_ION: PRECURSOR_M/Z 812.52
MS$FOCUSED_ION: PRECURSOR_TYPE [M-H]-
MS$DATA_PROCESSING: WHOLE Xcalibur ver-2.0
PK$SPLASH: splash10-0fb9-0039040300-2429684f776d43960df1
PK$ANNOTATION: m/z num type mass error(ppm) formula
  283.25 1 [fa(22:6)-H-CO2]- 283.2425759951 26 C21H31-
  305.08 1 [fa(20:3)-H]- 305.2480553035 -550 C20H33O2-
  327.13 1 [fa(22:6)-H]- 327.2324052393 -312 C22H31O2-
  502.00 1 [lyso_PE(20:3,-)]- 502.2933643144 -583 C25H45NO7P-
PK$NUM_PEAK: 14
PK$PEAK: m/z int. rel.int.
  283.25 87.1 509
  283.98 11.7 68
  305.08 73.3 428
  306.09 5.1 30
  327.13 171.0 999
  502.00 96.2 562
  502.99 19.1 112
  635.47 5.6 33
  681.84 9.0 53
  724.18 30.6 179
  728.36 33.3 195
  729.64 13.9 81
  738.26 19.2 112
  752.84 8.5 50
//
