ACCESSION: MSBNK-Chubu_Univ-UT001184
RECORD_TITLE: Phosphatidylethanolamine alkyl 18:0-18:2; LC-ESI-ITFT; MS2; [M-H]-; RT: 34.99; Exp: 1
DATE: 2016.01.19 (Created 2010.05.07, modified 2011.08.03)
AUTHORS: Taguchi R, Graduate School of Medicine, The University of Tokyo
LICENSE: CC BY-NC-SA
PUBLICATION: Taguchi, R.; Ishikawa, M. Precise and Global Identification of Phospholipid Molecular Species by an Orbitrap Mass Spectrometer and Automated Search Engine Lipid Search. Journal of Chromatography A 2010, 1217 (25), 4229–39. DOI:10.1016/j.chroma.2010.04.034
CH$NAME: Phosphatidylethanolamine alkyl 18:0-18:2
CH$COMPOUND_CLASS: Natural Product; Glycerophospholipids; Glycerophosphoethanolamines; 1-alkyl,2-acylglycerophosphoethanolamines
CH$FORMULA: C41H80NO7P
CH$EXACT_MASS: 729.56724
CH$SMILES: C(OP(O)(=O)OCCN)C(COCCCCCCCCCCCCCCCCCC)OC(CCC=CCC=CCCCCCCCCCC)=O
CH$IUPAC: InChI=1S/C41H80NO7P/c1-3-5-7-9-11-13-15-17-19-21-23-25-27-29-31-33-36-46-38-40(39-48-50(44,45)47-37-35-42)49-41(43)34-32-30-28-26-24-22-20-18-16-14-12-10-8-6-4-2/h22,24,28,30,40H,3-21,23,25-27,29,31-39,42H2,1-2H3,(H,44,45)/b24-22-,30-28-
CH$LINK: INCHIKEY RFXWTAVLHHOPPS-JSCMVKKRSA-N
SP$SCIENTIFIC_NAME: Mus musculus
SP$LINEAGE: cellular organisms; Eukaryota; Fungi/Metazoa group; Metazoa; Eumetazoa; Bilateria; Coelomata; Deuterostomia; Chordata; Craniata; Vertebrata; Gnathostomata; Teleostomi; Euteleostomi; Sarcopterygii; Tetrapoda; Amniota; Mammalia; Theria; Eutheria; Euarchontoglires; Glires; Rodentia; Sciurognathi; Muroidea; Muridae; Murinae; Mus
SP$LINK: NCBI-TAXONOMY 10090
SP$SAMPLE: liver
AC$INSTRUMENT: LC-10ADVPmicro HPLC, Shimadzu; LTQ Orbitrap, Thermo Scientific
AC$INSTRUMENT_TYPE: LC-ESI-ITFT
AC$MASS_SPECTROMETRY: MS_TYPE MS2
AC$MASS_SPECTROMETRY: ION_MODE NEGATIVE
AC$MASS_SPECTROMETRY: COLLISION_ENERGY 30%
AC$MASS_SPECTROMETRY: ION_SPRAY_VOLTAGE 3500 V
AC$MASS_SPECTROMETRY: IONIZATION ESI
AC$CHROMATOGRAPHY: COLUMN_NAME Develosil C30, Nomura Chemical
AC$CHROMATOGRAPHY: FLOW_GRADIENT  add 95/5 at 0 min, 70/30 at 40 min, 50/50 at 41 min, 50/50 at 90 min
AC$CHROMATOGRAPHY: FLOW_RATE  add 100 uL/min
AC$CHROMATOGRAPHY: RETENTION_TIME 34.73 min (in paper: 43.6 min)
AC$CHROMATOGRAPHY: SOLVENT A acetonitrile-methanol-water (19:19:2) with 0.1% acetic acid and 0.1% ammonium hydroxide (28%)
AC$CHROMATOGRAPHY: SOLVENT B 2-propanol with 0.1% acetic acid and 0.1% ammonium hydroxide (28%)
MS$FOCUSED_ION: PRECURSOR_M/Z 728.56
MS$FOCUSED_ION: PRECURSOR_TYPE [M-H]-
MS$DATA_PROCESSING: WHOLE Xcalibur ver-2.0
PK$SPLASH: splash10-004i-0090200000-f10ddce20bd0d69f4d1b
PK$ANNOTATION: m/z num type mass error(ppm) formula
  279.14 1 [fa(18:2)-H]- 279.2324052393 -330 C18H31O2-
  448.25 1 [lyso_PE(alkyl-18:0,-)-H2O]- 448.3191851344 -153 C23H47NO5P-
  466.25 1 [lyso_PE(alkyl-18:0,-)]- 466.3297498207 -170 C23H49NO6P-
PK$NUM_PEAK: 8
PK$PEAK: m/z int. rel.int.
  279.14 440.8 999
  280.08 75.6 171
  283.29 3.8 9
  405.35 12.3 28
  448.25 6.7 15
  466.25 126.5 287
  467.62 8.0 18
  696.28 14.6 33
//
