ACCESSION: MSBNK-Chubu_Univ-UT000011
RECORD_TITLE: 12,13-EODE; LC-ESI-QIT; MS2; CE:15 V; [M-H]-
DATE: 2016.01.19 (Created 2007.10.19, modified 2011.08.03)
AUTHORS: Nakanishi H, Taguchi R, Graduate School of Medicine, The University of Tokyo
LICENSE: CC BY-NC-SA
CH$NAME: 12,13-EODE
CH$NAME: 12,13-epoxy-9Z-octadecenoic acid
CH$NAME: (+-)12(13)-EpOME
CH$NAME: 12,14-EODE
CH$COMPOUND_CLASS: Natural Product; Lipid; Fatty acid
CH$FORMULA: C18H32O3
CH$EXACT_MASS: 296.23514
CH$SMILES: CCCCCC(O1)C(CC=CCCCCCCCC(O)=O)1
CH$IUPAC: InChI=1S/C18H32O3/c1-2-3-10-13-16-17(21-16)14-11-8-6-4-5-7-9-12-15-18(19)20/h8,11,16-17H,2-7,9-10,12-15H2,1H3,(H,19,20)/b11-8+
CH$LINK: CAYMAN 52450
CH$LINK: LIPIDBANK DFA8008
CH$LINK: INCHIKEY CCPPLLJZDQAOHD-DHZHZOJOSA-N
AC$INSTRUMENT: 4000Q TRAP, Applied Biosystems
AC$INSTRUMENT_TYPE: LC-ESI-QIT
AC$MASS_SPECTROMETRY: MS_TYPE MS2
AC$MASS_SPECTROMETRY: ION_MODE NEGATIVE
AC$MASS_SPECTROMETRY: COLLISION_ENERGY 15 V
AC$MASS_SPECTROMETRY: IONIZATION ESI
MS$FOCUSED_ION: PRECURSOR_TYPE [M-H]-
MS$DATA_PROCESSING: IGNORE rel.val. < 0.5
MS$DATA_PROCESSING: WHOLE Analyst 1.4.2
PK$SPLASH: splash10-0002-0090000000-baa01b17ab9bf63622b6
PK$NUM_PEAK: 17
PK$PEAK: m/z int. rel.int.
  183.280 95000.0 2
  195.260 1515000.0 37
  196.007 40000.0 1
  196.337 155000.0 4
  197.030 50000.0 1
  233.343 175000.0 4
  277.364 3162500.0 77
  278.106 205000.0 5
  278.320 30000.0 1
  278.503 45000.0 1
  278.782 95000.0 2
  293.680 32500.0 1
  295.157 41130000.0 999
  295.932 652500.0 16
  296.320 320000.0 8
  296.560 122500.0 3
  296.960 30000.0 1
//
