ACCESSION: MSBNK-Chubu_Univ-UT002606
RECORD_TITLE: Phosphatidylethanolamine 18:1-20:2; LC-ESI-ITFT; MS2; [M-H]-; RT: 27.05; Exp: 3
DATE: 2016.01.19 (Created 2010.05.07, modified 2011.08.03)
AUTHORS: Taguchi R, Graduate School of Medicine, The University of Tokyo
LICENSE: CC BY-NC-SA
PUBLICATION: Taguchi, R.; Ishikawa, M. Precise and Global Identification of Phospholipid Molecular Species by an Orbitrap Mass Spectrometer and Automated Search Engine Lipid Search. Journal of Chromatography A 2010, 1217 (25), 4229–39. DOI:10.1016/j.chroma.2010.04.034
CH$NAME: Phosphatidylethanolamine 18:1-20:2
CH$COMPOUND_CLASS: Natural Product; Glycerophospholipids; Glycerophosphoethanolamines; Diacylglycerophosphoethanolamines
CH$FORMULA: C43H80NO8P
CH$EXACT_MASS: 769.56216
CH$SMILES: O(CCN)P(O)(=O)OCC(OC(=O)CCC=CCC=CCCCCCCCCCCCC)COC(CCC=CCCCCCCCCCCCCC)=O
CH$IUPAC: InChI=1S/C43H80NO8P/c1-3-5-7-9-11-13-15-17-19-20-22-24-26-28-30-32-34-36-43(46)52-41(40-51-53(47,48)50-38-37-44)39-49-42(45)35-33-31-29-27-25-23-21-18-16-14-12-10-8-6-4-2/h24,26,29-32,41H,3-23,25,27-28,33-40,44H2,1-2H3,(H,47,48)/b26-24-,31-29-,32-30-
CH$LINK: INCHIKEY IJPGDTSEDOEETE-QGRKPBPISA-N
SP$SCIENTIFIC_NAME: Mus musculus
SP$LINEAGE: cellular organisms; Eukaryota; Fungi/Metazoa group; Metazoa; Eumetazoa; Bilateria; Coelomata; Deuterostomia; Chordata; Craniata; Vertebrata; Gnathostomata; Teleostomi; Euteleostomi; Sarcopterygii; Tetrapoda; Amniota; Mammalia; Theria; Eutheria; Euarchontoglires; Glires; Rodentia; Sciurognathi; Muroidea; Muridae; Murinae; Mus
SP$LINK: NCBI-TAXONOMY 10090
SP$SAMPLE: liver
AC$INSTRUMENT: LC-10ADVPmicro HPLC, Shimadzu; LTQ Orbitrap, Thermo Scientific
AC$INSTRUMENT_TYPE: LC-ESI-ITFT
AC$MASS_SPECTROMETRY: MS_TYPE MS2
AC$MASS_SPECTROMETRY: ION_MODE NEGATIVE
AC$MASS_SPECTROMETRY: COLLISION_ENERGY 30%
AC$MASS_SPECTROMETRY: ION_SPRAY_VOLTAGE 3500 V
AC$MASS_SPECTROMETRY: IONIZATION ESI
AC$CHROMATOGRAPHY: COLUMN_NAME Develosil C30, Nomura Chemical
AC$CHROMATOGRAPHY: FLOW_GRADIENT  add 95/5 at 0 min, 70/30 at 40 min, 50/50 at 41 min, 50/50 at 90 min
AC$CHROMATOGRAPHY: FLOW_RATE  add 100 uL/min
AC$CHROMATOGRAPHY: RETENTION_TIME 26.14 min (in paper: 27.1 min)
AC$CHROMATOGRAPHY: SOLVENT A acetonitrile-methanol-water (19:19:2) with 0.1% acetic acid and 0.1% ammonium hydroxide (28%)
AC$CHROMATOGRAPHY: SOLVENT B 2-propanol with 0.1% acetic acid and 0.1% ammonium hydroxide (28%)
MS$FOCUSED_ION: PRECURSOR_M/Z 768.55
MS$FOCUSED_ION: PRECURSOR_TYPE [M-H]-
MS$DATA_PROCESSING: WHOLE Xcalibur ver-2.0
PK$SPLASH: splash10-0a4i-0029000000-6c763c363b934f6a660d
PK$ANNOTATION: m/z num type mass error(ppm) formula
  281.22 1 [fa(18:1)-H]- 281.2480553035 -99 C18H33O2-
  307.18 1 [fa(20:2)-H]- 307.2637053677 -271 C20H35O2-
  460.09 2 [lyso_PE(-,20:2)-CO2]- 460.3191851344 -497 C24H47NO5P-
  460.09 2 [lyso_PE(18:1,-)-H2O]- 460.2827996281 -418 C23H43NO6P-
  478.17 1 [lyso_PE(18:1,-)]- 478.2933643144 -257 C23H45NO7P-
PK$NUM_PEAK: 19
PK$PEAK: m/z int. rel.int.
  279.11 26.5 55
  280.55 19.0 39
  281.22 79.8 164
  282.38 13.6 28
  284.15 17.0 35
  291.09 7.4 15
  303.88 18.7 39
  305.47 7.9 16
  307.18 484.8 999
  308.18 61.2 126
  309.26 58.3 120
  335.11 28.0 58
  460.09 21.8 45
  467.36 6.8 14
  478.17 22.1 46
  507.43 5.1 11
  632.76 15.3 32
  686.20 32.0 66
  748.82 16.6 34
//
