ACCESSION: MSBNK-Chubu_Univ-UT001212
RECORD_TITLE: Phosphatidylglyceride 18:1-22:5; LC-ESI-ITFT; MS2; [M-H]-; RT: 10.35; Exp: 1
DATE: 2016.01.19 (Created 2010.05.07, modified 2013.05.16)
AUTHORS: Taguchi R, Graduate School of Medicine, The University of Tokyo
LICENSE: CC BY-NC-SA
PUBLICATION: Taguchi, R.; Ishikawa, M. Precise and Global Identification of Phospholipid Molecular Species by an Orbitrap Mass Spectrometer and Automated Search Engine Lipid Search. Journal of Chromatography A 2010, 1217 (25), 4229–39. DOI:10.1016/j.chroma.2010.04.034
CH$NAME: Phosphatidylglyceride 18:1-22:5
CH$COMPOUND_CLASS: Natural Product; Glycerophospholipids; Glycerophosphoglycerols; Diacylglycerophosphoglycerols
CH$FORMULA: C46H79O10P
CH$EXACT_MASS: 822.54109
CH$SMILES: C(CC=CCC=CCCC(OC(COP(OCC(CO)O)(O)=O)COC(=O)CCC=CCCCCCCCCCCCCC)=O)=CCC=CCC=CCCCCC
CH$IUPAC: InChI=1S/C46H79O10P/c1-3-5-7-9-11-13-15-17-19-20-21-22-24-26-28-30-32-34-36-38-46(50)56-44(42-55-57(51,52)54-40-43(48)39-47)41-53-45(49)37-35-33-31-29-27-25-23-18-16-14-12-10-8-6-4-2/h11,13,17,19,21-22,26,28,31-34,43-44,47-48H,3-10,12,14-16,18,20,23-25,27,29-30,35-42H2,1-2H3,(H,51,52)/b13-11-,19-17-,22-21-,28-26-,33-31-,34-32-
CH$LINK: INCHIKEY SDJOKCPHTLSGSK-RRIMUHHXSA-N
SP$SCIENTIFIC_NAME: Mus musculus
SP$LINEAGE: cellular organisms; Eukaryota; Fungi/Metazoa group; Metazoa; Eumetazoa; Bilateria; Coelomata; Deuterostomia; Chordata; Craniata; Vertebrata; Gnathostomata; Teleostomi; Euteleostomi; Sarcopterygii; Tetrapoda; Amniota; Mammalia; Theria; Eutheria; Euarchontoglires; Glires; Rodentia; Sciurognathi; Muroidea; Muridae; Murinae; Mus
SP$LINK: NCBI-TAXONOMY 10090
SP$SAMPLE: liver
AC$INSTRUMENT: LC-10ADVPmicro HPLC, Shimadzu; LTQ Orbitrap, Thermo Scientific
AC$INSTRUMENT_TYPE: LC-ESI-ITFT
AC$MASS_SPECTROMETRY: MS_TYPE MS2
AC$MASS_SPECTROMETRY: ION_MODE NEGATIVE
AC$MASS_SPECTROMETRY: COLLISION_ENERGY 30%
AC$MASS_SPECTROMETRY: ION_SPRAY_VOLTAGE 3500 V
AC$MASS_SPECTROMETRY: IONIZATION ESI
AC$CHROMATOGRAPHY: COLUMN_NAME Develosil C30, Nomura Chemical
AC$CHROMATOGRAPHY: FLOW_GRADIENT add 95/5 at 0 min, 70/30 at 40 min, 50/50 at 41 min, 50/50 at 90 min
AC$CHROMATOGRAPHY: FLOW_RATE add 100 uL/min
AC$CHROMATOGRAPHY: RETENTION_TIME 10.31 min (in paper: 10.4 min)
AC$CHROMATOGRAPHY: SOLVENT A acetonitrile-methanol-water (19:19:2) with 0.1% acetic acid and 0.1% ammonium hydroxide (28%)
AC$CHROMATOGRAPHY: SOLVENT B 2-propanol with 0.1% acetic acid and 0.1% ammonium hydroxide (28%)
MS$FOCUSED_ION: PRECURSOR_M/Z 821.53
MS$FOCUSED_ION: PRECURSOR_TYPE [M-H]-
MS$DATA_PROCESSING: WHOLE Xcalibur ver-2.0
PK$SPLASH: splash10-0059-0089100300-feedb48b7c73865b3e3c
PK$ANNOTATION: m/z num type mass error(ppm) formula
  281.08 1 [fa(18:1)-H]- 281.2480553035 -597 C18H33O2-
  285.08 1 [fa(22:5)-H-CO2]- 285.2582260593 -624 C21H33-
  329.14 1 [fa(22:5)-H]- 329.2480553035 -327 C22H33O2-
  465.27 1 [lyso_PG(18:1,-)-CO2]- 465.2981153413 -59 C23H46O7P-
  509.20 1 [lyso_PG(18:1,-)]- 509.2879445855 -172 C24H46O9P-
PK$NUM_PEAK: 16
PK$PEAK: m/z int. rel.int.
  234.90 6.4 32
  280.20 5.3 26
  281.08 132.0 659
  281.86 20.9 104
  282.89 24.8 124
  285.08 7.6 38
  329.14 200.2 999
  330.07 8.1 40
  464.03 10.8 54
  465.27 17.0 85
  509.20 12.5 62
  648.33 7.0 35
  738.99 9.2 46
  760.12 19.6 98
  760.92 18.3 91
  762.24 27.6 138
//
