ACCESSION: MSBNK-Chubu_Univ-UT001526
RECORD_TITLE: Phosphatidylcholine 15:0-20:5; LC-ESI-ITFT; MS3; [M+CH3COO]-/[M-CH3]-; RT: 11.83; Exp: 1
DATE: 2016.01.19 (Created 2010.05.07, modified 2011.08.03)
AUTHORS: Taguchi R, Graduate School of Medicine, The University of Tokyo
LICENSE: CC BY-NC-SA
PUBLICATION: Taguchi, R.; Ishikawa, M. Precise and Global Identification of Phospholipid Molecular Species by an Orbitrap Mass Spectrometer and Automated Search Engine Lipid Search. Journal of Chromatography A 2010, 1217 (25), 4229–39. DOI:10.1016/j.chroma.2010.04.034
CH$NAME: Phosphatidylcholine 15:0-20:5
CH$COMPOUND_CLASS: Natural Product; Glycerophospholipids; Glycerophosphocholines; Diacylglycerophosphocholines
CH$FORMULA: C43H76NO8P
CH$EXACT_MASS: 765.53085
CH$SMILES: C(COP([O-1])(=O)OCC(OC(=O)CCC=CCC=CCC=CCC=CCC=CCCC)COC(=O)CCCCCCCCCCCCCC)[N+1](C)(C)C
CH$IUPAC: InChI=1S/C43H76NO8P/c1-6-8-10-12-14-16-18-20-21-22-23-24-26-28-30-32-34-36-43(46)52-41(40-51-53(47,48)50-38-37-44(3,4)5)39-49-42(45)35-33-31-29-27-25-19-17-15-13-11-9-7-2/h10,12,16,18,21-22,24,26,30,32,41H,6-9,11,13-15,17,19-20,23,25,27-29,31,33-40H2,1-5H3/b12-10-,18-16-,22-21-,26-24-,32-30-
CH$LINK: INCHIKEY MFZQMCRGTGNKQM-KTWSQXGJSA-N
SP$SCIENTIFIC_NAME: Mus musculus
SP$LINEAGE: cellular organisms; Eukaryota; Fungi/Metazoa group; Metazoa; Eumetazoa; Bilateria; Coelomata; Deuterostomia; Chordata; Craniata; Vertebrata; Gnathostomata; Teleostomi; Euteleostomi; Sarcopterygii; Tetrapoda; Amniota; Mammalia; Theria; Eutheria; Euarchontoglires; Glires; Rodentia; Sciurognathi; Muroidea; Muridae; Murinae; Mus
SP$LINK: NCBI-TAXONOMY 10090
SP$SAMPLE: liver
AC$INSTRUMENT: LC-10ADVPmicro HPLC, Shimadzu; LTQ Orbitrap, Thermo Scientific
AC$INSTRUMENT_TYPE: LC-ESI-ITFT
AC$MASS_SPECTROMETRY: MS_TYPE MS3
AC$MASS_SPECTROMETRY: ION_MODE NEGATIVE
AC$MASS_SPECTROMETRY: COLLISION_ENERGY 30%
AC$MASS_SPECTROMETRY: ION_SPRAY_VOLTAGE 3500 V
AC$MASS_SPECTROMETRY: IONIZATION ESI
AC$CHROMATOGRAPHY: COLUMN_NAME Develosil C30, Nomura Chemical
AC$CHROMATOGRAPHY: FLOW_GRADIENT  add 95/5 at 0 min, 70/30 at 40 min, 50/50 at 41 min, 50/50 at 90 min
AC$CHROMATOGRAPHY: FLOW_RATE  add 100 uL/min
AC$CHROMATOGRAPHY: RETENTION_TIME 11.85 min (in paper: 11.8 min)
AC$CHROMATOGRAPHY: SOLVENT A acetonitrile-methanol-water (19:19:2) with 0.1% acetic acid and 0.1% ammonium hydroxide (28%)
AC$CHROMATOGRAPHY: SOLVENT B 2-propanol with 0.1% acetic acid and 0.1% ammonium hydroxide (28%)
MS$FOCUSED_ION: PRECURSOR_M/Z 824.54/750.06
MS$FOCUSED_ION: PRECURSOR_TYPE [M+CH3COO]-/[M-CH3]-
MS$DATA_PROCESSING: WHOLE Xcalibur ver-2.0
PK$SPLASH: splash10-0zfu-0097130000-7032c5bfc0530835aed6
PK$ANNOTATION: m/z num type mass error(ppm) formula
  241.10 1 [fa(15:0)-H]- 241.2167551751 -483 C15H29O2-
  257.06 1 [fa(20:5)-H-CO2]- 257.2269259309 -648 C19H29-
  301.07 1 [fa(20:5)-H]- 301.2167551751 -486 C20H29O2-
  466.24 1 [lyso_PC(15:0,-)]- 466.2933643144 -113 C22H45NO7P-
PK$NUM_PEAK: 5
PK$PEAK: m/z int. rel.int.
  241.10 94.7 948
  257.06 21.6 216
  301.07 99.8 999
  466.24 16.2 162
  507.88 42.9 429
//
