ACCESSION: MSBNK-Chubu_Univ-UT003107
RECORD_TITLE: Phosphatidylcholine 14:0-16:0; LC-ESI-ITFT; MS3; [M+CH3COO]-/[M-CH3]-; RT: 19.51; Exp: 3
DATE: 2016.01.19 (Created 2010.05.07, modified 2011.08.03)
AUTHORS: Taguchi R, Graduate School of Medicine, The University of Tokyo
LICENSE: CC BY-NC-SA
PUBLICATION: Taguchi, R.; Ishikawa, M. Precise and Global Identification of Phospholipid Molecular Species by an Orbitrap Mass Spectrometer and Automated Search Engine Lipid Search. Journal of Chromatography A 2010, 1217 (25), 4229–39. DOI:10.1016/j.chroma.2010.04.034
CH$NAME: Phosphatidylcholine 14:0-16:0
CH$COMPOUND_CLASS: Natural Product; Glycerophospholipids; Glycerophosphocholines; Diacylglycerophosphocholines
CH$FORMULA: C38H76NO8P
CH$EXACT_MASS: 705.53085
CH$SMILES: [O-1]P(=O)(OCC(OC(CCCCCCCCCCCCCCC)=O)COC(=O)CCCCCCCCCCCCC)OCC[N+1](C)(C)C
CH$IUPAC: InChI=1S/C38H76NO8P/c1-6-8-10-12-14-16-18-19-21-23-25-27-29-31-38(41)47-36(35-46-48(42,43)45-33-32-39(3,4)5)34-44-37(40)30-28-26-24-22-20-17-15-13-11-9-7-2/h36H,6-35H2,1-5H3
CH$LINK: INCHIKEY RFVFQQWKPSOBED-UHFFFAOYSA-N
CH$LINK: PUBCHEM CID:10169024
SP$SCIENTIFIC_NAME: Mus musculus
SP$LINEAGE: cellular organisms; Eukaryota; Fungi/Metazoa group; Metazoa; Eumetazoa; Bilateria; Coelomata; Deuterostomia; Chordata; Craniata; Vertebrata; Gnathostomata; Teleostomi; Euteleostomi; Sarcopterygii; Tetrapoda; Amniota; Mammalia; Theria; Eutheria; Euarchontoglires; Glires; Rodentia; Sciurognathi; Muroidea; Muridae; Murinae; Mus
SP$LINK: NCBI-TAXONOMY 10090
SP$SAMPLE: brain
AC$INSTRUMENT: LC-10ADVPmicro HPLC, Shimadzu; LTQ Orbitrap, Thermo Scientific
AC$INSTRUMENT_TYPE: LC-ESI-ITFT
AC$MASS_SPECTROMETRY: MS_TYPE MS3
AC$MASS_SPECTROMETRY: ION_MODE NEGATIVE
AC$MASS_SPECTROMETRY: COLLISION_ENERGY 30%
AC$MASS_SPECTROMETRY: ION_SPRAY_VOLTAGE 3500 V
AC$MASS_SPECTROMETRY: IONIZATION ESI
AC$CHROMATOGRAPHY: COLUMN_NAME Develosil C30, Nomura Chemical
AC$CHROMATOGRAPHY: FLOW_GRADIENT  add 95/5 at 0 min, 70/30 at 40 min, 50/50 at 41 min, 50/50 at 90 min
AC$CHROMATOGRAPHY: FLOW_RATE  add 100 uL/min
AC$CHROMATOGRAPHY: RETENTION_TIME 19.17 min (in paper: 19.5 min)
AC$CHROMATOGRAPHY: SOLVENT A acetonitrile-methanol-water (19:19:2) with 0.1% acetic acid and 0.1% ammonium hydroxide (28%)
AC$CHROMATOGRAPHY: SOLVENT B 2-propanol with 0.1% acetic acid and 0.1% ammonium hydroxide (28%)
MS$FOCUSED_ION: PRECURSOR_M/Z 764.55/690.14
MS$FOCUSED_ION: PRECURSOR_TYPE [M+CH3COO]-/[M-CH3]-
MS$DATA_PROCESSING: WHOLE Xcalibur ver-2.0
PK$SPLASH: splash10-0a6r-0090100000-8fd81b7b6856f69a27e3
PK$ANNOTATION: m/z num type mass error(ppm) formula
  227.05 1 [fa(14:0)-H]- 227.2011051109 -664 C14H27O2-
  255.09 1 [fa(16:0)-H]- 255.2324052393 -557 C16H31O2-
  434.13 1 [lyso_PC(14:0,-)-H2O]- 434.2671495639 -315 C21H41NO6P-
  452.03 1 [lyso_PC(14:0,-)]- 452.2777142502 -547 C21H43NO7P-
  462.45 1 [lyso_PC(-,16:0)-H2O]- 462.2984496923 328 C23H45NO6P-
  480.16 1 [lyso_PC(-,16:0)]- 480.3090143786 -309 C23H47NO7P-
PK$NUM_PEAK: 12
PK$PEAK: m/z int. rel.int.
  223.98 14.4 4
  227.05 2255.4 593
  227.68 8.6 2
  240.97 10.8 3
  255.09 3797.9 999
  255.71 37.1 10
  377.95 12.0 3
  434.13 44.9 12
  452.03 321.0 84
  461.83 25.5 7
  462.45 10.7 3
  480.16 377.2 99
//
