ACCESSION: MSBNK-Chubu_Univ-UT000214
RECORD_TITLE: 8-HEPE; LC-ESI-QIT; MS2; CE:40 V; [M-H]-
DATE: 2016.01.19 (Created 2007.10.19, modified 2011.08.03)
AUTHORS: Nakanishi H, Taguchi R, Graduate School of Medicine, The University of Tokyo
LICENSE: CC BY-NC-SA
CH$NAME: 8-HEPE
CH$NAME: 8-hydroxy-5Z,9E,11Z,14Z,17Z-eicosapentaenoic acid
CH$NAME: (+-)8-HEPE
CH$COMPOUND_CLASS: Natural Product; Lipid; Fatty acid
CH$FORMULA: C20H30O3
CH$EXACT_MASS: 318.21949
CH$SMILES: CCC=CCC=CCC=CC=CC(O)CC=CCCCC(O)=O
CH$IUPAC: InChI=1S/C20H30O3/c1-2-3-4-5-6-7-8-9-10-13-16-19(21)17-14-11-12-15-18-20(22)23/h3-4,6-7,9-11,13-14,16,19,21H,2,5,8,12,15,17-18H2,1H3,(H,22,23)/b4-3-,7-6-,10-9-,14-11-,16-13+/t19-/m1/s1
CH$LINK: CAYMAN 32340
CH$LINK: LIPIDBANK DFA8120
CH$LINK: INCHIKEY WLOUCHKFBGGNEB-CHGUASJCSA-N
AC$INSTRUMENT: 4000Q TRAP, Applied Biosystems
AC$INSTRUMENT_TYPE: LC-ESI-QIT
AC$MASS_SPECTROMETRY: MS_TYPE MS2
AC$MASS_SPECTROMETRY: ION_MODE NEGATIVE
AC$MASS_SPECTROMETRY: COLLISION_ENERGY 40 V
AC$MASS_SPECTROMETRY: IONIZATION ESI
MS$FOCUSED_ION: PRECURSOR_TYPE [M-H]-
MS$DATA_PROCESSING: IGNORE rel.val. < 0.5
MS$DATA_PROCESSING: WHOLE Analyst 1.4.2
PK$SPLASH: splash10-02t9-0906000000-3132ab1059e1e38c269b
PK$NUM_PEAK: 12
PK$PEAK: m/z int. rel.int.
  109.040 21875.0 171
  111.040 21875.0 171
  111.280 6250.0 49
  118.960 9375.0 73
  121.040 6250.0 49
  127.060 18750.0 146
  136.960 12500.0 97
  155.120 21875.0 171
  161.095 56250.0 439
  171.120 12500.0 97
  245.120 9375.0 73
  317.215 128125.0 999
//
