ACCESSION: MSBNK-Chubu_Univ-UT002883
RECORD_TITLE: Phosphatidylethanolamine alkenyl 18:0-16:0; LC-ESI-ITFT; MS2; [M-H]-; RT: 41.81; Exp: 3
DATE: 2016.01.19 (Created 2010.05.07, modified 2011.08.03)
AUTHORS: Taguchi R, Graduate School of Medicine, The University of Tokyo
LICENSE: CC BY-NC-SA
PUBLICATION: Taguchi, R.; Ishikawa, M. Precise and Global Identification of Phospholipid Molecular Species by an Orbitrap Mass Spectrometer and Automated Search Engine Lipid Search. Journal of Chromatography A 2010, 1217 (25), 4229–39. DOI:10.1016/j.chroma.2010.04.034
CH$NAME: Phosphatidylethanolamine alkenyl 18:0-16:0
CH$COMPOUND_CLASS: Natural Product; Glycerophospholipids; Glycerophosphoethanolamines; 1Z-alkenyl,2-acylglycerophosphoethanolamines
CH$FORMULA: C39H78NO7P
CH$EXACT_MASS: 703.55159
CH$SMILES: NCCOP(OCC(OC(CCCCCCCCCCCCCCC)=O)COC=CCCCCCCCCCCCCCCCC)(O)=O
CH$IUPAC: InChI=1S/C39H78NO7P/c1-3-5-7-9-11-13-15-17-18-19-21-23-25-27-29-31-34-44-36-38(37-46-48(42,43)45-35-33-40)47-39(41)32-30-28-26-24-22-20-16-14-12-10-8-6-4-2/h31,34,38H,3-30,32-33,35-37,40H2,1-2H3,(H,42,43)/b34-31+
CH$LINK: CAS 134331-98-9
CH$LINK: INCHIKEY HEASGCOZOMIKFU-WUVHBKSUSA-N
SP$SCIENTIFIC_NAME: Mus musculus
SP$LINEAGE: cellular organisms; Eukaryota; Fungi/Metazoa group; Metazoa; Eumetazoa; Bilateria; Coelomata; Deuterostomia; Chordata; Craniata; Vertebrata; Gnathostomata; Teleostomi; Euteleostomi; Sarcopterygii; Tetrapoda; Amniota; Mammalia; Theria; Eutheria; Euarchontoglires; Glires; Rodentia; Sciurognathi; Muroidea; Muridae; Murinae; Mus
SP$LINK: NCBI-TAXONOMY 10090
SP$SAMPLE: brain
AC$INSTRUMENT: LC-10ADVPmicro HPLC, Shimadzu; LTQ Orbitrap, Thermo Scientific
AC$INSTRUMENT_TYPE: LC-ESI-ITFT
AC$MASS_SPECTROMETRY: MS_TYPE MS2
AC$MASS_SPECTROMETRY: ION_MODE NEGATIVE
AC$MASS_SPECTROMETRY: COLLISION_ENERGY 30%
AC$MASS_SPECTROMETRY: ION_SPRAY_VOLTAGE 3500 V
AC$MASS_SPECTROMETRY: IONIZATION ESI
AC$CHROMATOGRAPHY: COLUMN_NAME Develosil C30, Nomura Chemical
AC$CHROMATOGRAPHY: FLOW_GRADIENT  add 95/5 at 0 min, 70/30 at 40 min, 50/50 at 41 min, 50/50 at 90 min
AC$CHROMATOGRAPHY: FLOW_RATE  add 100 uL/min
AC$CHROMATOGRAPHY: RETENTION_TIME 41.84 min (in paper: 41.8 min)
AC$CHROMATOGRAPHY: SOLVENT A acetonitrile-methanol-water (19:19:2) with 0.1% acetic acid and 0.1% ammonium hydroxide (28%)
AC$CHROMATOGRAPHY: SOLVENT B 2-propanol with 0.1% acetic acid and 0.1% ammonium hydroxide (28%)
MS$FOCUSED_ION: PRECURSOR_M/Z 702.54
MS$FOCUSED_ION: PRECURSOR_TYPE [M-H]-
MS$DATA_PROCESSING: WHOLE Xcalibur ver-2.0
PK$SPLASH: splash10-0a4i-0090200000-7c5fb17dd2004212cb1e
PK$ANNOTATION: m/z num type mass error(ppm) formula
  255.08 1 [fa(16:0)-H]- 255.2324052393 -596 C16H31O2-
  267.13 1 [fa(alkenyl-18:0)-H]- 267.2687907456 -518 C18H35O-
  420.26 1 [lyso_PE(alkenyl-18:0,-)-CO2]- 420.3242705123 -152 C22H47NO4P-
  446.24 1 [lyso_PE(alkenyl-18:0,-)-H2O]- 446.3035350702 -141 C23H45NO5P-
  464.12 1 [lyso_PE(alkenyl-18:0,-)]- 464.3140997565 -417 C23H47NO6P-
PK$NUM_PEAK: 23
PK$PEAK: m/z int. rel.int.
  235.30 14.7 2
  255.08 9232.9 999
  256.03 349.2 38
  267.13 16.0 2
  274.45 9.8 1
  281.11 16.5 2
  283.12 144.4 16
  284.22 22.7 2
  314.18 8.2 1
  392.26 5.4 1
  403.39 11.0 1
  404.52 13.9 2
  418.25 9.1 1
  418.88 12.2 1
  419.49 7.8 1
  420.26 39.6 4
  436.33 9.3 1
  437.33 16.4 2
  446.24 496.8 54
  464.12 2136.4 231
  465.25 174.5 19
  620.71 9.9 1
  642.15 10.1 1
//
