ACCESSION: MSBNK-Chubu_Univ-UT002001
RECORD_TITLE: Sphingomyelin d18:0-C20:0; LC-ESI-ITFT; MS2; [M+CH3COO]-; RT: 41.07; Exp: 2
DATE: 2016.01.19 (Created 2010.05.07, modified 2011.08.03)
AUTHORS: Taguchi R, Graduate School of Medicine, The University of Tokyo
LICENSE: CC BY-NC-SA
PUBLICATION: Taguchi, R.; Ishikawa, M. Precise and Global Identification of Phospholipid Molecular Species by an Orbitrap Mass Spectrometer and Automated Search Engine Lipid Search. Journal of Chromatography A 2010, 1217 (25), 4229–39. DOI:10.1016/j.chroma.2010.04.034
CH$NAME: Sphingomyelin d18:0-C20:0
CH$COMPOUND_CLASS: Natural Product; Sphingolipids; Phosphosphingolipids; Ceramide phosphocholines (sphingomyelins)
CH$FORMULA: C43H89N2O6P
CH$EXACT_MASS: 760.64583
CH$SMILES: C(CCC)CCCCCCCCCCCC(O)C(COP([O-1])(=O)OCC[N+1](C)(C)C)NC(CCCCCCCCCCCCCCCCCCC)=O
CH$IUPAC: InChI=1S/C43H89N2O6P/c1-6-8-10-12-14-16-18-20-21-22-23-25-27-29-31-33-35-37-43(47)44-41(40-51-52(48,49)50-39-38-45(3,4)5)42(46)36-34-32-30-28-26-24-19-17-15-13-11-9-7-2/h41-42,46H,6-40H2,1-5H3,(H-,44,47,48,49)/t41-,42+/m1/s1
CH$LINK: CAS 106140-16-3
CH$LINK: INCHIKEY UGRZESKDAPEULH-HLFYWILQSA-N
SP$SCIENTIFIC_NAME: Mus musculus
SP$LINEAGE: cellular organisms; Eukaryota; Fungi/Metazoa group; Metazoa; Eumetazoa; Bilateria; Coelomata; Deuterostomia; Chordata; Craniata; Vertebrata; Gnathostomata; Teleostomi; Euteleostomi; Sarcopterygii; Tetrapoda; Amniota; Mammalia; Theria; Eutheria; Euarchontoglires; Glires; Rodentia; Sciurognathi; Muroidea; Muridae; Murinae; Mus
SP$LINK: NCBI-TAXONOMY 10090
SP$SAMPLE: liver
AC$INSTRUMENT: LC-10ADVPmicro HPLC, Shimadzu; LTQ Orbitrap, Thermo Scientific
AC$INSTRUMENT_TYPE: LC-ESI-ITFT
AC$MASS_SPECTROMETRY: MS_TYPE MS2
AC$MASS_SPECTROMETRY: ION_MODE NEGATIVE
AC$MASS_SPECTROMETRY: COLLISION_ENERGY 30%
AC$MASS_SPECTROMETRY: ION_SPRAY_VOLTAGE 3500 V
AC$MASS_SPECTROMETRY: IONIZATION ESI
AC$CHROMATOGRAPHY: COLUMN_NAME Develosil C30, Nomura Chemical
AC$CHROMATOGRAPHY: FLOW_GRADIENT  add 95/5 at 0 min, 70/30 at 40 min, 50/50 at 41 min, 50/50 at 90 min
AC$CHROMATOGRAPHY: FLOW_RATE  add 100 uL/min
AC$CHROMATOGRAPHY: RETENTION_TIME 41.19 min (in paper: 41.1 min)
AC$CHROMATOGRAPHY: SOLVENT A acetonitrile-methanol-water (19:19:2) with 0.1% acetic acid and 0.1% ammonium hydroxide (28%)
AC$CHROMATOGRAPHY: SOLVENT B 2-propanol with 0.1% acetic acid and 0.1% ammonium hydroxide (28%)
MS$FOCUSED_ION: PRECURSOR_M/Z 819.66
MS$FOCUSED_ION: PRECURSOR_TYPE [M+CH3COO]-
MS$DATA_PROCESSING: WHOLE Xcalibur ver-2.0
PK$SPLASH: splash10-0002-0000000900-e502f3ba77c5fde57e28
PK$ANNOTATION: m/z num type mass error(ppm) formula
  745.44 1 [SM(18:0,20:0)-CH3]- 745.6223500136 -244 C42H86N2O6P-
PK$NUM_PEAK: 10
PK$PEAK: m/z int. rel.int.
  450.76 8.1 23
  493.77 5.5 16
  645.10 5.5 16
  654.57 10.9 31
  673.85 13.0 38
  733.31 15.1 44
  736.70 8.5 25
  738.44 15.3 44
  745.44 346.0 999
  746.15 15.7 45
//
