ACCESSION: MSBNK-Chubu_Univ-UT002851
RECORD_TITLE: Phosphatidylethanolamine 18:0-22:6; LC-ESI-ITFT; MS2; [M-H]-; RT: 25.21; Exp: 3
DATE: 2016.01.19 (Created 2010.05.07, modified 2011.08.03)
AUTHORS: Taguchi R, Graduate School of Medicine, The University of Tokyo
LICENSE: CC BY-NC-SA
PUBLICATION: Taguchi, R.; Ishikawa, M. Precise and Global Identification of Phospholipid Molecular Species by an Orbitrap Mass Spectrometer and Automated Search Engine Lipid Search. Journal of Chromatography A 2010, 1217 (25), 4229–39. DOI:10.1016/j.chroma.2010.04.034
CH$NAME: Phosphatidylethanolamine 18:0-22:6
CH$COMPOUND_CLASS: Natural Product; Glycerophospholipids; Glycerophosphoethanolamines; Diacylglycerophosphoethanolamines
CH$FORMULA: C45H78NO8P
CH$EXACT_MASS: 791.54650
CH$SMILES: C(CC)=CCC=CCC=CCC=CCC=CCC=CCCC(=O)OC(COP(OCCN)(O)=O)COC(CCCCCCCCCCCCCCCCC)=O
CH$IUPAC: InChI=1S/C45H78NO8P/c1-3-5-7-9-11-13-15-17-19-20-21-22-24-26-28-30-32-34-36-38-45(48)54-43(42-53-55(49,50)52-40-39-46)41-51-44(47)37-35-33-31-29-27-25-23-18-16-14-12-10-8-6-4-2/h5,7,11,13,17,19,21-22,26,28,32,34,43H,3-4,6,8-10,12,14-16,18,20,23-25,27,29-31,33,35-42,46H2,1-2H3,(H,49,50)/b7-5-,13-11-,19-17-,22-21-,28-26-,34-32-
CH$LINK: CAS 202647-82-3
CH$LINK: INCHIKEY XYYHNDVKALDFHQ-HSBBONCLSA-N
SP$SCIENTIFIC_NAME: Mus musculus
SP$LINEAGE: cellular organisms; Eukaryota; Fungi/Metazoa group; Metazoa; Eumetazoa; Bilateria; Coelomata; Deuterostomia; Chordata; Craniata; Vertebrata; Gnathostomata; Teleostomi; Euteleostomi; Sarcopterygii; Tetrapoda; Amniota; Mammalia; Theria; Eutheria; Euarchontoglires; Glires; Rodentia; Sciurognathi; Muroidea; Muridae; Murinae; Mus
SP$LINK: NCBI-TAXONOMY 10090
SP$SAMPLE: brain
AC$INSTRUMENT: LC-10ADVPmicro HPLC, Shimadzu; LTQ Orbitrap, Thermo Scientific
AC$INSTRUMENT_TYPE: LC-ESI-ITFT
AC$MASS_SPECTROMETRY: MS_TYPE MS2
AC$MASS_SPECTROMETRY: ION_MODE NEGATIVE
AC$MASS_SPECTROMETRY: COLLISION_ENERGY 30%
AC$MASS_SPECTROMETRY: ION_SPRAY_VOLTAGE 3500 V
AC$MASS_SPECTROMETRY: IONIZATION ESI
AC$CHROMATOGRAPHY: COLUMN_NAME Develosil C30, Nomura Chemical
AC$CHROMATOGRAPHY: FLOW_GRADIENT  add 95/5 at 0 min, 70/30 at 40 min, 50/50 at 41 min, 50/50 at 90 min
AC$CHROMATOGRAPHY: FLOW_RATE  add 100 uL/min
AC$CHROMATOGRAPHY: RETENTION_TIME 25.13 min (in paper: 25 min)
AC$CHROMATOGRAPHY: SOLVENT A acetonitrile-methanol-water (19:19:2) with 0.1% acetic acid and 0.1% ammonium hydroxide (28%)
AC$CHROMATOGRAPHY: SOLVENT B 2-propanol with 0.1% acetic acid and 0.1% ammonium hydroxide (28%)
MS$FOCUSED_ION: PRECURSOR_M/Z 790.54
MS$FOCUSED_ION: PRECURSOR_TYPE [M-H]-
MS$DATA_PROCESSING: WHOLE Xcalibur ver-2.0
PK$SPLASH: splash10-003r-0096300000-5016f5b3fb5affecfeef
PK$ANNOTATION: m/z num type mass error(ppm) formula
  283.11 2 [fa(18:0)-H]- 283.2637053677 -542 C18H35O2-
  283.11 2 [fa(22:6)-H-CO2]- 283.2425759951 -467 C21H31-
  327.03 1 [fa(22:6)-H]- 327.2324052393 -618 C22H31O2-
  462.13 1 [lyso_PE(18:0,-)-H2O]- 462.2984496923 -363 C23H45NO6P-
  480.09 2 [lyso_PE(-,22:6)-CO2]- 480.287885006 -411 C26H43NO5P-
  480.09 2 [lyso_PE(18:0,-)]- 480.3090143786 -455 C23H47NO7P-
  524.02 1 [lyso_PE(-,22:6)]- 524.2777142502 -491 C27H43NO7P-
PK$NUM_PEAK: 20
PK$PEAK: m/z int. rel.int.
  229.02 1252.7 10
  248.80 585.0 5
  249.43 243.0 2
  250.23 185.0 1
  281.41 131.4 1
  283.11 124039.1 999
  284.19 9722.9 78
  309.19 210.3 2
  327.03 83888.1 676
  328.14 7798.1 63
  419.06 420.0 3
  420.15 141.5 1
  462.13 2727.8 22
  462.93 904.6 7
  480.09 43545.5 351
  481.23 5254.7 42
  505.91 1255.0 10
  523.13 253.6 2
  524.02 2901.9 23
  524.77 288.7 2
//
