ACCESSION: MSBNK-Chubu_Univ-UT002921
RECORD_TITLE: Phosphatidylethanolamine alkyl 18:1-20:1; LC-ESI-ITFT; MS2; [M-H]-; RT: 38.11; Exp: 3
DATE: 2016.01.19 (Created 2010.05.07, modified 2011.08.03)
AUTHORS: Taguchi R, Graduate School of Medicine, The University of Tokyo
LICENSE: CC BY-NC-SA
PUBLICATION: Taguchi, R.; Ishikawa, M. Precise and Global Identification of Phospholipid Molecular Species by an Orbitrap Mass Spectrometer and Automated Search Engine Lipid Search. Journal of Chromatography A 2010, 1217 (25), 4229–39. DOI:10.1016/j.chroma.2010.04.034
CH$NAME: Phosphatidylethanolamine alkyl 18:1-20:1
CH$COMPOUND_CLASS: Natural Product; Glycerophospholipids; Glycerophosphoethanolamines; 1-alkyl,2-acylglycerophosphoethanolamines
CH$FORMULA: C43H84NO7P
CH$EXACT_MASS: 757.59854
CH$SMILES: C(CCCCCCCCCCCCCCC)=CCCC(=O)OC(COP(OCCN)(O)=O)COCCCC=CCCCCCCCCCCCCC
CH$IUPAC: InChI=1S/C43H84NO7P/c1-3-5-7-9-11-13-15-17-19-21-22-24-26-28-30-32-34-36-43(45)51-42(41-50-52(46,47)49-39-37-44)40-48-38-35-33-31-29-27-25-23-20-18-16-14-12-10-8-6-4-2/h29-32,42H,3-28,33-41,44H2,1-2H3,(H,46,47)/b31-29-,32-30-
CH$LINK: INCHIKEY MECYDABSYWGKLH-SZDCHMHBSA-N
SP$SCIENTIFIC_NAME: Mus musculus
SP$LINEAGE: cellular organisms; Eukaryota; Fungi/Metazoa group; Metazoa; Eumetazoa; Bilateria; Coelomata; Deuterostomia; Chordata; Craniata; Vertebrata; Gnathostomata; Teleostomi; Euteleostomi; Sarcopterygii; Tetrapoda; Amniota; Mammalia; Theria; Eutheria; Euarchontoglires; Glires; Rodentia; Sciurognathi; Muroidea; Muridae; Murinae; Mus
SP$LINK: NCBI-TAXONOMY 10090
SP$SAMPLE: brain
AC$INSTRUMENT: LC-10ADVPmicro HPLC, Shimadzu; LTQ Orbitrap, Thermo Scientific
AC$INSTRUMENT_TYPE: LC-ESI-ITFT
AC$MASS_SPECTROMETRY: MS_TYPE MS2
AC$MASS_SPECTROMETRY: ION_MODE NEGATIVE
AC$MASS_SPECTROMETRY: COLLISION_ENERGY 30%
AC$MASS_SPECTROMETRY: ION_SPRAY_VOLTAGE 3500 V
AC$MASS_SPECTROMETRY: IONIZATION ESI
AC$CHROMATOGRAPHY: COLUMN_NAME Develosil C30, Nomura Chemical
AC$CHROMATOGRAPHY: FLOW_GRADIENT  add 95/5 at 0 min, 70/30 at 40 min, 50/50 at 41 min, 50/50 at 90 min
AC$CHROMATOGRAPHY: FLOW_RATE  add 100 uL/min
AC$CHROMATOGRAPHY: RETENTION_TIME 37.96 min (in paper: 38.1 min)
AC$CHROMATOGRAPHY: SOLVENT A acetonitrile-methanol-water (19:19:2) with 0.1% acetic acid and 0.1% ammonium hydroxide (28%)
AC$CHROMATOGRAPHY: SOLVENT B 2-propanol with 0.1% acetic acid and 0.1% ammonium hydroxide (28%)
MS$FOCUSED_ION: PRECURSOR_M/Z 756.59
MS$FOCUSED_ION: PRECURSOR_TYPE [M-H]-
MS$DATA_PROCESSING: WHOLE Xcalibur ver-2.0
PK$SPLASH: splash10-0a4i-0009200000-ce3062a20c4057e6cf41
PK$ANNOTATION: m/z num type mass error(ppm) formula
  309.07 1 [fa(20:1)-H]- 309.2793554319 -676 C20H37O2-
  446.05 1 [lyso_PE(alkyl-18:1,-)-H2O]- 446.3035350702 -567 C23H45NO5P-
  464.22 1 [lyso_PE(alkyl-18:1,-)]- 464.3140997565 -202 C23H47NO6P-
PK$NUM_PEAK: 16
PK$PEAK: m/z int. rel.int.
  281.20 39.2 17
  282.39 29.4 13
  291.02 10.7 5
  306.95 15.5 7
  309.07 2327.1 999
  310.05 437.0 188
  311.05 57.9 25
  336.07 5.4 2
  446.05 66.5 29
  447.21 13.0 6
  464.22 520.4 223
  465.08 57.0 24
  493.21 7.6 3
  548.92 8.9 4
  674.05 29.1 12
  695.95 9.9 4
//
