ACCESSION: MSBNK-Chubu_Univ-UT000253
RECORD_TITLE: 9-HPODE; LC-ESI-QIT; MS2; CE:10 V; [M-H]-
DATE: 2016.01.19 (Created 2007.10.19, modified 2011.08.03)
AUTHORS: Nakanishi H, Taguchi R, Graduate School of Medicine, The University of Tokyo
LICENSE: CC BY-NC-SA
CH$NAME: 9-HPODE
CH$NAME: 9-hydroperoxy-10E,12Z-octadecadienoic acid
CH$NAME: (10E,12Z)-9-(Hydroperoxy)-10,12-octadecadienoic acid
CH$NAME: 9(S)-HpODE
CH$NAME: (10E,12Z)-(9S)-9-Hydroperoxyoctadeca-10,12-dienoic acid
CH$NAME: 9(S)-HPOD
CH$NAME: 9(S)-HPODE
CH$COMPOUND_CLASS: Natural Product; Lipid; Fatty acid
CH$FORMULA: C18H32O4
CH$EXACT_MASS: 312.23006
CH$SMILES: CCCCCC=CC=CC(OO)CCCCCCCC(O)=O
CH$IUPAC: InChI=1S/C18H32O4/c1-2-3-4-5-6-8-11-14-17(22-21)15-12-9-7-10-13-16-18(19)20/h6,8,11,14,17,21H,2-5,7,9-10,12-13,15-16H2,1H3,(H,19,20)/b8-6?,14-11+
CH$LINK: CAS 29774-12-7
CH$LINK: CAYMAN 48410
CH$LINK: CHEBI CHEBI:34498
CH$LINK: KEGG C14827
CH$LINK: LIPIDBANK DFA8001
CH$LINK: NIKKAJI J711.800G
CH$LINK: INCHIKEY JGUNZIWGNMQSBM-KPWHUNMNSA-N
AC$INSTRUMENT: 4000Q TRAP, Applied Biosystems
AC$INSTRUMENT_TYPE: LC-ESI-QIT
AC$MASS_SPECTROMETRY: MS_TYPE MS2
AC$MASS_SPECTROMETRY: ION_MODE NEGATIVE
AC$MASS_SPECTROMETRY: COLLISION_ENERGY 10 V
AC$MASS_SPECTROMETRY: IONIZATION ESI
MS$FOCUSED_ION: PRECURSOR_TYPE [M-H]-
MS$DATA_PROCESSING: IGNORE rel.val. < 0.5
MS$DATA_PROCESSING: WHOLE Analyst 1.4.2
PK$SPLASH: splash10-0006-0091000000-7774e09df60ef9c523ff
PK$NUM_PEAK: 15
PK$PEAK: m/z int. rel.int.
  149.120 12500.0 1
  167.040 12500.0 1
  185.094 295000.0 27
  197.120 22500.0 2
  209.200 12500.0 1
  211.053 20000.0 2
  211.360 15000.0 1
  249.153 37500.0 3
  251.140 7500.0 1
  274.960 22500.0 2
  275.160 85000.0 8
  293.169 10915000.0 999
  294.080 27500.0 3
  294.613 30000.0 3
  311.141 1752500.0 160
//
