ACCESSION: MSBNK-Chubu_Univ-UT003163
RECORD_TITLE: Phosphatidylcholine lyso 20:0; LC-ESI-ITFT; MS3; [M+CH3COO]-/[M-CH3]-; RT: 6.14; Exp: 3
DATE: 2016.01.19 (Created 2010.05.07, modified 2011.08.03)
AUTHORS: Taguchi R, Graduate School of Medicine, The University of Tokyo
LICENSE: CC BY-NC-SA
PUBLICATION: Taguchi, R.; Ishikawa, M. Precise and Global Identification of Phospholipid Molecular Species by an Orbitrap Mass Spectrometer and Automated Search Engine Lipid Search. Journal of Chromatography A 2010, 1217 (25), 4229–39. DOI:10.1016/j.chroma.2010.04.034
CH$NAME: Phosphatidylcholine lyso 20:0
CH$COMPOUND_CLASS: Natural Product; Glycerophospholipids; Glycerophosphocholines; Monoacylglycerophosphocholines
CH$FORMULA: C28H58NO7P
CH$EXACT_MASS: 551.39509
CH$SMILES: C(C(OC(CO)COP([O-1])(=O)OCC[N+1](C)(C)C)=O)CCCCCCCCCCCCCCCCCC
CH$IUPAC: InChI=1S/C28H58NO7P/c1-5-6-7-8-9-10-11-12-13-14-15-16-17-18-19-20-21-22-28(31)36-27(25-30)26-35-37(32,33)34-24-23-29(2,3)4/h27,30H,5-26H2,1-4H3
CH$LINK: CAS 84020-08-6
CH$LINK: INCHIKEY WQBSSUPHAAAVSW-UHFFFAOYSA-N
CH$LINK: PUBCHEM CID:22472190
SP$SCIENTIFIC_NAME: Mus musculus
SP$LINEAGE: cellular organisms; Eukaryota; Fungi/Metazoa group; Metazoa; Eumetazoa; Bilateria; Coelomata; Deuterostomia; Chordata; Craniata; Vertebrata; Gnathostomata; Teleostomi; Euteleostomi; Sarcopterygii; Tetrapoda; Amniota; Mammalia; Theria; Eutheria; Euarchontoglires; Glires; Rodentia; Sciurognathi; Muroidea; Muridae; Murinae; Mus
SP$LINK: NCBI-TAXONOMY 10090
SP$SAMPLE: brain
AC$INSTRUMENT: LC-10ADVPmicro HPLC, Shimadzu; LTQ Orbitrap, Thermo Scientific
AC$INSTRUMENT_TYPE: LC-ESI-ITFT
AC$MASS_SPECTROMETRY: MS_TYPE MS3
AC$MASS_SPECTROMETRY: ION_MODE NEGATIVE
AC$MASS_SPECTROMETRY: COLLISION_ENERGY 30%
AC$MASS_SPECTROMETRY: ION_SPRAY_VOLTAGE 3500 V
AC$MASS_SPECTROMETRY: IONIZATION ESI
AC$CHROMATOGRAPHY: COLUMN_NAME Develosil C30, Nomura Chemical
AC$CHROMATOGRAPHY: FLOW_GRADIENT  add 95/5 at 0 min, 70/30 at 40 min, 50/50 at 41 min, 50/50 at 90 min
AC$CHROMATOGRAPHY: FLOW_RATE  add 100 uL/min
AC$CHROMATOGRAPHY: RETENTION_TIME 6.18 min (in paper: 6.2 min)
AC$CHROMATOGRAPHY: SOLVENT A acetonitrile-methanol-water (19:19:2) with 0.1% acetic acid and 0.1% ammonium hydroxide (28%)
AC$CHROMATOGRAPHY: SOLVENT B 2-propanol with 0.1% acetic acid and 0.1% ammonium hydroxide (28%)
MS$FOCUSED_ION: PRECURSOR_M/Z 610.41/536.02
MS$FOCUSED_ION: PRECURSOR_TYPE [M+CH3COO]-/[M-CH3]-
MS$DATA_PROCESSING: WHOLE Xcalibur ver-2.0
PK$SPLASH: splash10-03di-0009000000-e9b848a8a55875de067a
PK$ANNOTATION: m/z num type mass error(ppm) formula
  223.98 1 [lyso_PC(lyso,-)-H2O]- 224.0687841072 -395 C7H15NO5P-
  311.18 1 [fa(20:0)-H]- 311.2950054961 -368 C20H39O2-
PK$NUM_PEAK: 2
PK$PEAK: m/z int. rel.int.
  223.98 6.7 19
  311.18 361.7 999
//
