ACCESSION: MSBNK-Chubu_Univ-UT001830
RECORD_TITLE: Phosphatidylcholine lyso 20:3; LC-ESI-ITFT; MS2; [M+CH3COO]-; RT: 2.07; Exp: 2
DATE: 2016.01.19 (Created 2010.05.07, modified 2011.08.03)
AUTHORS: Taguchi R, Graduate School of Medicine, The University of Tokyo
LICENSE: CC BY-NC-SA
PUBLICATION: Taguchi, R.; Ishikawa, M. Precise and Global Identification of Phospholipid Molecular Species by an Orbitrap Mass Spectrometer and Automated Search Engine Lipid Search. Journal of Chromatography A 2010, 1217 (25), 4229–39. DOI:10.1016/j.chroma.2010.04.034
CH$NAME: Phosphatidylcholine lyso 20:3
CH$COMPOUND_CLASS: Natural Product; Glycerophospholipids; Glycerophosphocholines; Monoacylglycerophosphocholines
CH$FORMULA: C28H52NO7P
CH$EXACT_MASS: 545.34814
CH$SMILES: C(C(OC(CO)COP([O-1])(=O)OCC[N+1](C)(C)C)=O)CC=CCC=CCC=CCCCCCCCCC
CH$IUPAC: InChI=1S/C28H52NO7P/c1-5-6-7-8-9-10-11-12-13-14-15-16-17-18-19-20-21-22-28(31)36-27(25-30)26-35-37(32,33)34-24-23-29(2,3)4/h13-14,16-17,19-20,27,30H,5-12,15,18,21-26H2,1-4H3/b14-13-,17-16-,20-19-
CH$LINK: INCHIKEY BLWVEPQPFFTFIJ-BYBPBHJYSA-N
SP$SCIENTIFIC_NAME: Mus musculus
SP$LINEAGE: cellular organisms; Eukaryota; Fungi/Metazoa group; Metazoa; Eumetazoa; Bilateria; Coelomata; Deuterostomia; Chordata; Craniata; Vertebrata; Gnathostomata; Teleostomi; Euteleostomi; Sarcopterygii; Tetrapoda; Amniota; Mammalia; Theria; Eutheria; Euarchontoglires; Glires; Rodentia; Sciurognathi; Muroidea; Muridae; Murinae; Mus
SP$LINK: NCBI-TAXONOMY 10090
SP$SAMPLE: liver
AC$INSTRUMENT: LC-10ADVPmicro HPLC, Shimadzu; LTQ Orbitrap, Thermo Scientific
AC$INSTRUMENT_TYPE: LC-ESI-ITFT
AC$MASS_SPECTROMETRY: MS_TYPE MS2
AC$MASS_SPECTROMETRY: ION_MODE NEGATIVE
AC$MASS_SPECTROMETRY: COLLISION_ENERGY 30%
AC$MASS_SPECTROMETRY: ION_SPRAY_VOLTAGE 3500 V
AC$MASS_SPECTROMETRY: IONIZATION ESI
AC$CHROMATOGRAPHY: COLUMN_NAME Develosil C30, Nomura Chemical
AC$CHROMATOGRAPHY: FLOW_GRADIENT  add 95/5 at 0 min, 70/30 at 40 min, 50/50 at 41 min, 50/50 at 90 min
AC$CHROMATOGRAPHY: FLOW_RATE  add 100 uL/min
AC$CHROMATOGRAPHY: RETENTION_TIME 2.12 min (in paper: 2.1 min)
AC$CHROMATOGRAPHY: SOLVENT A acetonitrile-methanol-water (19:19:2) with 0.1% acetic acid and 0.1% ammonium hydroxide (28%)
AC$CHROMATOGRAPHY: SOLVENT B 2-propanol with 0.1% acetic acid and 0.1% ammonium hydroxide (28%)
MS$FOCUSED_ION: PRECURSOR_M/Z 604.36
MS$FOCUSED_ION: PRECURSOR_TYPE [M+CH3COO]-
MS$DATA_PROCESSING: WHOLE Xcalibur ver-2.0
PK$SPLASH: splash10-001i-0000090000-ca6b96dce845f31095d5
PK$ANNOTATION: m/z num type mass error(ppm) formula
  305.33 1 [fa(20:3)-H]- 305.2480553035 268 C20H33O2-
  530.06 1 [PC(lyso,20:3)-CH3]- 530.3246644428 -498 C27H49NO7P-
PK$NUM_PEAK: 9
PK$PEAK: m/z int. rel.int.
  305.33 6.2 1
  319.98 14.0 3
  442.93 20.1 4
  521.41 11.6 2
  530.06 4741.9 999
  530.70 22.3 5
  543.67 27.1 6
  544.81 34.1 7
  551.93 9.0 2
//
