ACCESSION: MSBNK-Chubu_Univ-UT001928
RECORD_TITLE: Phosphatidylethanolamine alkyl 20:0-18:2; LC-ESI-ITFT; MS2; [M-H]-; RT: 43.62; Exp: 2
DATE: 2016.01.19 (Created 2010.05.07, modified 2013.05.16)
AUTHORS: Taguchi R, Graduate School of Medicine, The University of Tokyo
LICENSE: CC BY-NC-SA
PUBLICATION: Taguchi, R.; Ishikawa, M. Precise and Global Identification of Phospholipid Molecular Species by an Orbitrap Mass Spectrometer and Automated Search Engine Lipid Search. Journal of Chromatography A 2010, 1217 (25), 4229–39. DOI:10.1016/j.chroma.2010.04.034
CH$NAME: Phosphatidylethanolamine alkyl 20:0-18:2
CH$COMPOUND_CLASS: Natural Product; Glycerophospholipids; Glycerophosphoethanolamines; 1-alkyl,2-acylglycerophosphoethanolamines
CH$FORMULA: C43H84NO7P
CH$EXACT_MASS: 757.59854
CH$SMILES: C(CCCCCCCCCCCCCCOCC(COP(OCCN)(O)=O)OC(CCC=CCC=CCCCCCCCCCC)=O)CCCCC
CH$IUPAC: InChI=1S/C43H84NO7P/c1-3-5-7-9-11-13-15-17-19-20-21-23-25-27-29-31-33-35-38-48-40-42(41-50-52(46,47)49-39-37-44)51-43(45)36-34-32-30-28-26-24-22-18-16-14-12-10-8-6-4-2/h24,26,30,32,42H,3-23,25,27-29,31,33-41,44H2,1-2H3,(H,46,47)/b26-24-,32-30-
CH$LINK: INCHIKEY LJTFYNCGYVJVFV-QIPJBBGZSA-N
SP$SCIENTIFIC_NAME: Mus musculus
SP$LINEAGE: cellular organisms; Eukaryota; Fungi/Metazoa group; Metazoa; Eumetazoa; Bilateria; Coelomata; Deuterostomia; Chordata; Craniata; Vertebrata; Gnathostomata; Teleostomi; Euteleostomi; Sarcopterygii; Tetrapoda; Amniota; Mammalia; Theria; Eutheria; Euarchontoglires; Glires; Rodentia; Sciurognathi; Muroidea; Muridae; Murinae; Mus
SP$LINK: NCBI-TAXONOMY 10090
SP$SAMPLE: liver
AC$INSTRUMENT: LC-10ADVPmicro HPLC, Shimadzu; LTQ Orbitrap, Thermo Scientific
AC$INSTRUMENT_TYPE: LC-ESI-ITFT
AC$MASS_SPECTROMETRY: MS_TYPE MS2
AC$MASS_SPECTROMETRY: ION_MODE NEGATIVE
AC$MASS_SPECTROMETRY: COLLISION_ENERGY 30%
AC$MASS_SPECTROMETRY: ION_SPRAY_VOLTAGE 3500 V
AC$MASS_SPECTROMETRY: IONIZATION ESI
AC$CHROMATOGRAPHY: COLUMN_NAME Develosil C30, Nomura Chemical
AC$CHROMATOGRAPHY: FLOW_GRADIENT add 95/5 at 0 min, 70/30 at 40 min, 50/50 at 41 min, 50/50 at 90 min
AC$CHROMATOGRAPHY: FLOW_RATE add 100 uL/min
AC$CHROMATOGRAPHY: RETENTION_TIME 43.71 min (in paper: 43.6 min)
AC$CHROMATOGRAPHY: SOLVENT A acetonitrile-methanol-water (19:19:2) with 0.1% acetic acid and 0.1% ammonium hydroxide (28%)
AC$CHROMATOGRAPHY: SOLVENT B 2-propanol with 0.1% acetic acid and 0.1% ammonium hydroxide (28%)
MS$FOCUSED_ION: PRECURSOR_M/Z 756.59
MS$FOCUSED_ION: PRECURSOR_TYPE [M-H]-
MS$DATA_PROCESSING: WHOLE Xcalibur ver-2.0
PK$SPLASH: splash10-004i-0090300000-2ffee331d3e31f3bc820
PK$ANNOTATION: m/z num type mass error(ppm) formula
  279.14 1 [fa(18:2)-H]- 279.2324052393 -330 C18H31O2-
  476.52 1 [lyso_PE(-,18:2)]- 476.2777142502 509 C23H43NO7P-
PK$NUM_PEAK: 17
PK$PEAK: m/z int. rel.int.
  279.14 1738.6 999
  280.09 191.3 110
  309.20 9.8 6
  311.51 5.6 3
  328.03 4.5 3
  336.24 5.6 3
  396.98 23.7 14
  433.23 28.3 16
  476.52 42.4 24
  477.40 31.2 18
  494.26 495.3 285
  495.31 82.7 48
  671.43 16.6 10
  674.20 17.5 10
  674.86 5.7 3
  712.49 10.7 6
  723.97 19.4 11
//
