ACCESSION: MSBNK-Chubu_Univ-UT002274
RECORD_TITLE: Phosphatidylcholine 16:0-18:3; LC-ESI-ITFT; MS3; [M+CH3COO]-/[M-CH3]-; RT: 16.24; Exp: 2
DATE: 2016.01.19 (Created 2010.05.07, modified 2011.08.03)
AUTHORS: Taguchi R, Graduate School of Medicine, The University of Tokyo
LICENSE: CC BY-NC-SA
PUBLICATION: Taguchi, R.; Ishikawa, M. Precise and Global Identification of Phospholipid Molecular Species by an Orbitrap Mass Spectrometer and Automated Search Engine Lipid Search. Journal of Chromatography A 2010, 1217 (25), 4229–39. DOI:10.1016/j.chroma.2010.04.034
CH$NAME: Phosphatidylcholine 16:0-18:3
CH$COMPOUND_CLASS: Natural Product; Glycerophospholipids; Glycerophosphocholines; Diacylglycerophosphocholines
CH$FORMULA: C42H78NO8P
CH$EXACT_MASS: 755.54650
CH$SMILES: C(COP([O-1])(=O)OCC(OC(=O)CCC=CCC=CCC=CCCCCCCC)COC(=O)CCCCCCCCCCCCCCC)[N+1](C)(C)C
CH$IUPAC: InChI=1S/C42H78NO8P/c1-6-8-10-12-14-16-18-20-21-23-25-27-29-31-33-35-42(45)51-40(39-50-52(46,47)49-37-36-43(3,4)5)38-48-41(44)34-32-30-28-26-24-22-19-17-15-13-11-9-7-2/h18,20,23,25,29,31,40H,6-17,19,21-22,24,26-28,30,32-39H2,1-5H3/b20-18-,25-23-,31-29-
CH$LINK: INCHIKEY LTFQLMSVQQIRBG-YOKRUPNWSA-N
SP$SCIENTIFIC_NAME: Mus musculus
SP$LINEAGE: cellular organisms; Eukaryota; Fungi/Metazoa group; Metazoa; Eumetazoa; Bilateria; Coelomata; Deuterostomia; Chordata; Craniata; Vertebrata; Gnathostomata; Teleostomi; Euteleostomi; Sarcopterygii; Tetrapoda; Amniota; Mammalia; Theria; Eutheria; Euarchontoglires; Glires; Rodentia; Sciurognathi; Muroidea; Muridae; Murinae; Mus
SP$LINK: NCBI-TAXONOMY 10090
SP$SAMPLE: liver
AC$INSTRUMENT: LC-10ADVPmicro HPLC, Shimadzu; LTQ Orbitrap, Thermo Scientific
AC$INSTRUMENT_TYPE: LC-ESI-ITFT
AC$MASS_SPECTROMETRY: MS_TYPE MS3
AC$MASS_SPECTROMETRY: ION_MODE NEGATIVE
AC$MASS_SPECTROMETRY: COLLISION_ENERGY 30%
AC$MASS_SPECTROMETRY: ION_SPRAY_VOLTAGE 3500 V
AC$MASS_SPECTROMETRY: IONIZATION ESI
AC$CHROMATOGRAPHY: COLUMN_NAME Develosil C30, Nomura Chemical
AC$CHROMATOGRAPHY: FLOW_GRADIENT  add 95/5 at 0 min, 70/30 at 40 min, 50/50 at 41 min, 50/50 at 90 min
AC$CHROMATOGRAPHY: FLOW_RATE  add 100 uL/min
AC$CHROMATOGRAPHY: RETENTION_TIME 16.33 min (in paper: 16.2 min)
AC$CHROMATOGRAPHY: SOLVENT A acetonitrile-methanol-water (19:19:2) with 0.1% acetic acid and 0.1% ammonium hydroxide (28%)
AC$CHROMATOGRAPHY: SOLVENT B 2-propanol with 0.1% acetic acid and 0.1% ammonium hydroxide (28%)
MS$FOCUSED_ION: PRECURSOR_M/Z 814.56/740.10
MS$FOCUSED_ION: PRECURSOR_TYPE [M+CH3COO]-/[M-CH3]-
MS$DATA_PROCESSING: WHOLE Xcalibur ver-2.0
PK$SPLASH: splash10-004i-0090100000-18214e8eccb7751a9bfa
PK$ANNOTATION: m/z num type mass error(ppm) formula
  233.01 1 [fa(18:3)-H-CO2]- 233.2269259309 -929 C17H29-
  255.13 1 [fa(16:0)-H]- 255.2324052393 -400 C16H31O2-
  277.05 1 [fa(18:3)-H]- 277.2167551751 -601 C18H29O2-
  462.25 1 [lyso_PC(16:0,-)-H2O]- 462.2984496923 -104 C23H45NO6P-
  480.07 1 [lyso_PC(16:0,-)]- 480.3090143786 -497 C23H47NO7P-
  484.35 1 [lyso_PC(-,18:3)-H2O]- 484.2827996281 139 C25H43NO6P-
  502.06 1 [lyso_PC(-,18:3)]- 502.2933643144 -464 C25H45NO7P-
PK$NUM_PEAK: 19
PK$PEAK: m/z int. rel.int.
  223.89 7.3 1
  230.81 8.6 1
  233.01 33.9 3
  237.27 17.3 1
  241.41 6.5 1
  255.13 4023.6 326
  258.85 15.1 1
  275.19 19.0 2
  277.05 12337.1 999
  277.67 28.4 2
  279.07 25.4 2
  281.05 18.5 1
  462.25 239.1 19
  480.07 2727.3 221
  483.70 118.1 10
  484.35 36.4 3
  502.06 148.6 12
  515.31 22.7 2
  669.00 28.1 2
//
