ACCESSION: MSBNK-Chubu_Univ-UT001132
RECORD_TITLE: Phosphatidylethanolamine 18:1-18:2; LC-ESI-ITFT; MS2; [M-H]-; RT: 19.98; Exp: 1
DATE: 2016.01.19 (Created 2010.05.07, modified 2011.08.03)
AUTHORS: Taguchi R, Graduate School of Medicine, The University of Tokyo
LICENSE: CC BY-NC-SA
PUBLICATION: Taguchi, R.; Ishikawa, M. Precise and Global Identification of Phospholipid Molecular Species by an Orbitrap Mass Spectrometer and Automated Search Engine Lipid Search. Journal of Chromatography A 2010, 1217 (25), 4229–39. DOI:10.1016/j.chroma.2010.04.034
CH$NAME: Phosphatidylethanolamine 18:1-18:2
CH$COMPOUND_CLASS: Natural Product; Glycerophospholipids; Glycerophosphoethanolamines; Diacylglycerophosphoethanolamines
CH$FORMULA: C41H76NO8P
CH$EXACT_MASS: 741.53085
CH$SMILES: C(CC(=O)OCC(OC(CCC=CCC=CCCCCCCCCCC)=O)COP(O)(=O)OCCN)C=CCCCCCCCCCCCCC
CH$IUPAC: InChI=1S/C41H76NO8P/c1-3-5-7-9-11-13-15-17-19-21-23-25-27-29-31-33-40(43)47-37-39(38-49-51(45,46)48-36-35-42)50-41(44)34-32-30-28-26-24-22-20-18-16-14-12-10-8-6-4-2/h22,24,27-30,39H,3-21,23,25-26,31-38,42H2,1-2H3,(H,45,46)/b24-22-,29-27-,30-28-
CH$LINK: INCHIKEY SDQYMWWODQDLBO-XBCPOCNBSA-N
SP$SCIENTIFIC_NAME: Mus musculus
SP$LINEAGE: cellular organisms; Eukaryota; Fungi/Metazoa group; Metazoa; Eumetazoa; Bilateria; Coelomata; Deuterostomia; Chordata; Craniata; Vertebrata; Gnathostomata; Teleostomi; Euteleostomi; Sarcopterygii; Tetrapoda; Amniota; Mammalia; Theria; Eutheria; Euarchontoglires; Glires; Rodentia; Sciurognathi; Muroidea; Muridae; Murinae; Mus
SP$LINK: NCBI-TAXONOMY 10090
SP$SAMPLE: liver
AC$INSTRUMENT: LC-10ADVPmicro HPLC, Shimadzu; LTQ Orbitrap, Thermo Scientific
AC$INSTRUMENT_TYPE: LC-ESI-ITFT
AC$MASS_SPECTROMETRY: MS_TYPE MS2
AC$MASS_SPECTROMETRY: ION_MODE NEGATIVE
AC$MASS_SPECTROMETRY: COLLISION_ENERGY 30%
AC$MASS_SPECTROMETRY: ION_SPRAY_VOLTAGE 3500 V
AC$MASS_SPECTROMETRY: IONIZATION ESI
AC$CHROMATOGRAPHY: COLUMN_NAME Develosil C30, Nomura Chemical
AC$CHROMATOGRAPHY: FLOW_GRADIENT  add 95/5 at 0 min, 70/30 at 40 min, 50/50 at 41 min, 50/50 at 90 min
AC$CHROMATOGRAPHY: FLOW_RATE  add 100 uL/min
AC$CHROMATOGRAPHY: RETENTION_TIME 20.13 min (in paper: 20 min)
AC$CHROMATOGRAPHY: SOLVENT A acetonitrile-methanol-water (19:19:2) with 0.1% acetic acid and 0.1% ammonium hydroxide (28%)
AC$CHROMATOGRAPHY: SOLVENT B 2-propanol with 0.1% acetic acid and 0.1% ammonium hydroxide (28%)
MS$FOCUSED_ION: PRECURSOR_M/Z 740.52
MS$FOCUSED_ION: PRECURSOR_TYPE [M-H]-
MS$DATA_PROCESSING: WHOLE Xcalibur ver-2.0
PK$SPLASH: splash10-004i-0090100000-ac0d1bf09e9ef7706d1f
PK$ANNOTATION: m/z num type mass error(ppm) formula
  279.09 1 [fa(18:2)-H]- 279.2324052393 -509 C18H31O2-
  281.11 1 [fa(18:1)-H]- 281.2480553035 -490 C18H33O2-
  457.98 1 [lyso_PE(-,18:2)-H2O]- 458.2671495639 -626 C23H41NO6P-
  460.13 1 [lyso_PE(18:1,-)-H2O]- 460.2827996281 -331 C23H43NO6P-
  475.99 1 [lyso_PE(-,18:2)]- 476.2777142502 -603 C23H43NO7P-
  478.05 1 [lyso_PE(18:1,-)]- 478.2933643144 -508 C23H45NO7P-
PK$NUM_PEAK: 21
PK$PEAK: m/z int. rel.int.
  243.38 64.3 2
  256.24 53.5 2
  256.98 58.4 2
  260.29 23.5 1
  261.09 21.0 1
  279.09 32052.9 999
  280.39 2593.0 81
  281.11 10350.5 323
  282.02 705.2 22
  302.33 25.5 1
  303.15 23.7 1
  304.35 19.2 1
  404.00 19.5 1
  417.21 26.5 1
  452.13 84.8 3
  453.12 50.7 2
  457.98 77.5 2
  460.13 158.3 5
  475.99 682.3 21
  478.05 3551.2 111
  478.99 466.6 15
//
