ACCESSION: MSBNK-Chubu_Univ-UT001207
RECORD_TITLE: Phosphatidylglyceride 18:0-18:2; LC-ESI-ITFT; MS2; [M-H]-; RT: 22.86; Exp: 1
DATE: 2016.01.19 (Created 2010.05.07, modified 2013.05.16)
AUTHORS: Taguchi R, Graduate School of Medicine, The University of Tokyo
LICENSE: CC BY-NC-SA
PUBLICATION: Taguchi, R.; Ishikawa, M. Precise and Global Identification of Phospholipid Molecular Species by an Orbitrap Mass Spectrometer and Automated Search Engine Lipid Search. Journal of Chromatography A 2010, 1217 (25), 4229–39. DOI:10.1016/j.chroma.2010.04.034
CH$NAME: Phosphatidylglyceride 18:0-18:2
CH$COMPOUND_CLASS: Natural Product; Glycerophospholipids; Glycerophosphoglycerols; Diacylglycerophosphoglycerols
CH$FORMULA: C42H79O10P
CH$EXACT_MASS: 774.54109
CH$SMILES: C(CCCCCC)CCCCCCCCCCC(=O)OCC(COP(OCC(O)CO)(O)=O)OC(=O)CCC=CCC=CCCCCCCCCCC
CH$IUPAC: InChI=1S/C42H79O10P/c1-3-5-7-9-11-13-15-17-19-21-23-25-27-29-31-33-41(45)49-37-40(38-51-53(47,48)50-36-39(44)35-43)52-42(46)34-32-30-28-26-24-22-20-18-16-14-12-10-8-6-4-2/h22,24,28,30,39-40,43-44H,3-21,23,25-27,29,31-38H2,1-2H3,(H,47,48)/b24-22-,30-28-
CH$LINK: INCHIKEY AOWDUWHTDPWHIC-JSCMVKKRSA-N
SP$SCIENTIFIC_NAME: Mus musculus
SP$LINEAGE: cellular organisms; Eukaryota; Fungi/Metazoa group; Metazoa; Eumetazoa; Bilateria; Coelomata; Deuterostomia; Chordata; Craniata; Vertebrata; Gnathostomata; Teleostomi; Euteleostomi; Sarcopterygii; Tetrapoda; Amniota; Mammalia; Theria; Eutheria; Euarchontoglires; Glires; Rodentia; Sciurognathi; Muroidea; Muridae; Murinae; Mus
SP$LINK: NCBI-TAXONOMY 10090
SP$SAMPLE: liver
AC$INSTRUMENT: LC-10ADVPmicro HPLC, Shimadzu; LTQ Orbitrap, Thermo Scientific
AC$INSTRUMENT_TYPE: LC-ESI-ITFT
AC$MASS_SPECTROMETRY: MS_TYPE MS2
AC$MASS_SPECTROMETRY: ION_MODE NEGATIVE
AC$MASS_SPECTROMETRY: COLLISION_ENERGY 30%
AC$MASS_SPECTROMETRY: ION_SPRAY_VOLTAGE 3500 V
AC$MASS_SPECTROMETRY: IONIZATION ESI
AC$CHROMATOGRAPHY: COLUMN_NAME Develosil C30, Nomura Chemical
AC$CHROMATOGRAPHY: FLOW_GRADIENT add 95/5 at 0 min, 70/30 at 40 min, 50/50 at 41 min, 50/50 at 90 min
AC$CHROMATOGRAPHY: FLOW_RATE add 100 uL/min
AC$CHROMATOGRAPHY: RETENTION_TIME 22.67 min (in paper: 22.9 min)
AC$CHROMATOGRAPHY: SOLVENT A acetonitrile-methanol-water (19:19:2) with 0.1% acetic acid and 0.1% ammonium hydroxide (28%)
AC$CHROMATOGRAPHY: SOLVENT B 2-propanol with 0.1% acetic acid and 0.1% ammonium hydroxide (28%)
MS$FOCUSED_ION: PRECURSOR_M/Z 773.53
MS$FOCUSED_ION: PRECURSOR_TYPE [M-H]-
MS$DATA_PROCESSING: WHOLE Xcalibur ver-2.0
PK$SPLASH: splash10-0059-0090210000-ee4277de7d98607323d4
PK$ANNOTATION: m/z num type mass error(ppm) formula
  279.13 1 [fa(18:2)-H]- 279.2324052393 -366 C18H31O2-
  283.15 1 [fa(18:0)-H]- 283.2637053677 -400 C18H35O2-
  489.05 1 [lyso_PG(-,18:2)-H2O]- 489.261729835 -432 C24H42O8P-
  493.07 1 [lyso_PG(18:0,-)-H2O]- 493.2930299634 -451 C24H46O8P-
  507.07 1 [lyso_PG(-,18:2)]- 507.2722945213 -398 C24H44O9P-
  511.18 1 [lyso_PG(18:0,-)]- 511.3035946497 -241 C24H48O9P-
PK$NUM_PEAK: 20
PK$PEAK: m/z int. rel.int.
  279.13 930.3 999
  280.11 105.5 113
  283.15 531.2 570
  284.20 33.1 36
  326.94 13.5 14
  329.24 13.0 14
  415.84 5.6 6
  417.12 12.4 13
  419.14 208.1 223
  423.39 5.6 6
  436.67 6.3 7
  489.05 14.7 16
  493.07 135.7 146
  493.95 58.4 63
  507.07 14.6 16
  511.18 164.7 177
  512.10 9.6 10
  625.68 16.4 18
  699.23 5.1 5
  700.17 15.8 17
//
