ACCESSION: MSBNK-Chubu_Univ-UT002963
RECORD_TITLE: Phosphatidylserine 18:0-20:4; LC-ESI-ITFT; MS2; [M-H]-; RT: 23.67; Exp: 3
DATE: 2016.01.19 (Created 2010.05.07, modified 2013.05.16)
AUTHORS: Taguchi R, Graduate School of Medicine, The University of Tokyo
LICENSE: CC BY-NC-SA
PUBLICATION: Taguchi, R.; Ishikawa, M. Precise and Global Identification of Phospholipid Molecular Species by an Orbitrap Mass Spectrometer and Automated Search Engine Lipid Search. Journal of Chromatography A 2010, 1217 (25), 4229–39. DOI:10.1016/j.chroma.2010.04.034
CH$NAME: Phosphatidylserine 18:0-20:4
CH$COMPOUND_CLASS: Natural Product; Glycerophospholipids; Glycerophosphoserines; Diacylglycerophosphoserines
CH$FORMULA: C44H78NO10P
CH$EXACT_MASS: 811.53633
CH$SMILES: C(CCCCCC)=CCC=CCC=CCC=CCCC(OC(COC(CCCCCCCCCCCCCCCCC)=O)COP(OCC(C(O)=O)N)(O)=O)=O
CH$IUPAC: InChI=1S/C44H78NO10P/c1-3-5-7-9-11-13-15-17-19-20-22-24-26-28-30-32-34-36-43(47)55-40(38-53-56(50,51)54-39-41(45)44(48)49)37-52-42(46)35-33-31-29-27-25-23-21-18-16-14-12-10-8-6-4-2/h13,15,19-20,24,26,30,32,40-41H,3-12,14,16-18,21-23,25,27-29,31,33-39,45H2,1-2H3,(H,48,49)(H,50,51)/b15-13-,20-19-,26-24-,32-30-
CH$LINK: INCHIKEY AENVCOSUVDLDFA-NQWSYULSSA-N
SP$SCIENTIFIC_NAME: Mus musculus
SP$LINEAGE: cellular organisms; Eukaryota; Fungi/Metazoa group; Metazoa; Eumetazoa; Bilateria; Coelomata; Deuterostomia; Chordata; Craniata; Vertebrata; Gnathostomata; Teleostomi; Euteleostomi; Sarcopterygii; Tetrapoda; Amniota; Mammalia; Theria; Eutheria; Euarchontoglires; Glires; Rodentia; Sciurognathi; Muroidea; Muridae; Murinae; Mus
SP$LINK: NCBI-TAXONOMY 10090
SP$SAMPLE: brain
AC$INSTRUMENT: LC-10ADVPmicro HPLC, Shimadzu; LTQ Orbitrap, Thermo Scientific
AC$INSTRUMENT_TYPE: LC-ESI-ITFT
AC$MASS_SPECTROMETRY: MS_TYPE MS2
AC$MASS_SPECTROMETRY: ION_MODE NEGATIVE
AC$MASS_SPECTROMETRY: COLLISION_ENERGY 30%
AC$MASS_SPECTROMETRY: ION_SPRAY_VOLTAGE 3500 V
AC$MASS_SPECTROMETRY: IONIZATION ESI
AC$CHROMATOGRAPHY: COLUMN_NAME Develosil C30, Nomura Chemical
AC$CHROMATOGRAPHY: FLOW_GRADIENT add 95/5 at 0 min, 70/30 at 40 min, 50/50 at 41 min, 50/50 at 90 min
AC$CHROMATOGRAPHY: FLOW_RATE add 100 uL/min
AC$CHROMATOGRAPHY: RETENTION_TIME 23.55 min (in paper: 23.5 min)
AC$CHROMATOGRAPHY: SOLVENT A acetonitrile-methanol-water (19:19:2) with 0.1% acetic acid and 0.1% ammonium hydroxide (28%)
AC$CHROMATOGRAPHY: SOLVENT B 2-propanol with 0.1% acetic acid and 0.1% ammonium hydroxide (28%)
MS$FOCUSED_ION: PRECURSOR_M/Z 810.53
MS$FOCUSED_ION: PRECURSOR_TYPE [M-H]-
MS$DATA_PROCESSING: WHOLE Xcalibur ver-2.0
PK$SPLASH: splash10-00di-0000100900-0b7e028aee24efb59826
PK$ANNOTATION: m/z num type mass error(ppm) formula
  283.11 1 [fa(18:0)-H]- 283.2637053677 -542 C18H35O2-
  303.20 1 [fa(20:4)-H]- 303.2324052393 -106 C20H31O2-
  419.00 1 [lyso_PS(18:0,-)-H2O]- 419.2562505266 -610 C21H40O6P-
  437.20 1 [lyso_PS(18:0,-)]- 437.2668152129 -152 C21H42O7P-
  439.12 1 [lyso_PS(-,20:4)-H2O]- 439.2249503982 -238 C23H36O6P-
  457.05 1 [lyso_PS(-,20:4)]- 457.2355150845 -405 C23H38O7P-
  705.19 1 [PS(18:0,20:4)-Ser-H2O]- 705.4859161117 -418 C41H70O7P-
PK$NUM_PEAK: 36
PK$PEAK: m/z int. rel.int.
  242.30 8.9 1
  269.21 9.0 1
  281.20 58.7 6
  283.11 607.2 59
  284.15 88.0 9
  303.20 119.1 12
  417.10 60.3 6
  419.00 1699.9 166
  420.12 226.1 22
  437.20 316.1 31
  438.38 190.9 19
  439.12 291.4 28
  440.12 37.8 4
  457.05 25.6 2
  504.15 9.2 1
  523.41 19.6 2
  524.11 9.1 1
  525.50 19.3 2
  529.51 6.1 1
  543.87 27.5 3
  545.18 26.6 3
  546.06 13.4 1
  608.95 11.7 1
  704.40 7.6 1
  705.19 11.9 1
  721.13 6.1 1
  722.49 996.4 97
  723.11 10248.5 999
  724.20 2969.9 289
  728.72 14.2 1
  733.41 11.7 1
  751.37 21.4 2
  752.84 39.5 4
  765.35 9.5 1
  774.00 19.3 2
  810.22 27.0 3
//
