ACCESSION: MSBNK-Chubu_Univ-UT002937
RECORD_TITLE: Phosphatidylglyceride 18:1-22:6; LC-ESI-ITFT; MS2; [M-H]-; RT: 9.03; Exp: 3
DATE: 2016.01.19 (Created 2010.05.07, modified 2013.05.16)
AUTHORS: Taguchi R, Graduate School of Medicine, The University of Tokyo
LICENSE: CC BY-NC-SA
PUBLICATION: Taguchi, R.; Ishikawa, M. Precise and Global Identification of Phospholipid Molecular Species by an Orbitrap Mass Spectrometer and Automated Search Engine Lipid Search. Journal of Chromatography A 2010, 1217 (25), 4229–39. DOI:10.1016/j.chroma.2010.04.034
CH$NAME: Phosphatidylglyceride 18:1-22:6
CH$COMPOUND_CLASS: Natural Product; Glycerophospholipids; Glycerophosphoglycerols; Diacylglycerophosphoglycerols
CH$FORMULA: C46H77O10P
CH$EXACT_MASS: 820.52544
CH$SMILES: C(CC=CCC=CCC=CCC=CCC=CCC=CCC)C(OC(COP(OCC(CO)O)(O)=O)COC(=O)CCC=CCCCCCCCCCCCCC)=O
CH$IUPAC: InChI=1S/C46H77O10P/c1-3-5-7-9-11-13-15-17-19-20-21-22-24-26-28-30-32-34-36-38-46(50)56-44(42-55-57(51,52)54-40-43(48)39-47)41-53-45(49)37-35-33-31-29-27-25-23-18-16-14-12-10-8-6-4-2/h5,7,11,13,17,19,21-22,26,28,31-34,43-44,47-48H,3-4,6,8-10,12,14-16,18,20,23-25,27,29-30,35-42H2,1-2H3,(H,51,52)/b7-5-,13-11-,19-17-,22-21-,28-26-,33-31-,34-32-
CH$LINK: INCHIKEY VGGGUMPTGJTNFQ-QRPORDCISA-N
SP$SCIENTIFIC_NAME: Mus musculus
SP$LINEAGE: cellular organisms; Eukaryota; Fungi/Metazoa group; Metazoa; Eumetazoa; Bilateria; Coelomata; Deuterostomia; Chordata; Craniata; Vertebrata; Gnathostomata; Teleostomi; Euteleostomi; Sarcopterygii; Tetrapoda; Amniota; Mammalia; Theria; Eutheria; Euarchontoglires; Glires; Rodentia; Sciurognathi; Muroidea; Muridae; Murinae; Mus
SP$LINK: NCBI-TAXONOMY 10090
SP$SAMPLE: brain
AC$INSTRUMENT: LC-10ADVPmicro HPLC, Shimadzu; LTQ Orbitrap, Thermo Scientific
AC$INSTRUMENT_TYPE: LC-ESI-ITFT
AC$MASS_SPECTROMETRY: MS_TYPE MS2
AC$MASS_SPECTROMETRY: ION_MODE NEGATIVE
AC$MASS_SPECTROMETRY: COLLISION_ENERGY 30%
AC$MASS_SPECTROMETRY: ION_SPRAY_VOLTAGE 3500 V
AC$MASS_SPECTROMETRY: IONIZATION ESI
AC$CHROMATOGRAPHY: COLUMN_NAME Develosil C30, Nomura Chemical
AC$CHROMATOGRAPHY: FLOW_GRADIENT add 95/5 at 0 min, 70/30 at 40 min, 50/50 at 41 min, 50/50 at 90 min
AC$CHROMATOGRAPHY: FLOW_RATE add 100 uL/min
AC$CHROMATOGRAPHY: RETENTION_TIME 8.95 min (in paper: 9.1 min)
AC$CHROMATOGRAPHY: SOLVENT A acetonitrile-methanol-water (19:19:2) with 0.1% acetic acid and 0.1% ammonium hydroxide (28%)
AC$CHROMATOGRAPHY: SOLVENT B 2-propanol with 0.1% acetic acid and 0.1% ammonium hydroxide (28%)
MS$FOCUSED_ION: PRECURSOR_M/Z 819.52
MS$FOCUSED_ION: PRECURSOR_TYPE [M-H]-
MS$DATA_PROCESSING: WHOLE Xcalibur ver-2.0
PK$SPLASH: splash10-001i-0094110210-11a24fa982e7196c2bfb
PK$ANNOTATION: m/z num type mass error(ppm) formula
  281.07 1 [fa(18:1)-H]- 281.2480553035 -632 C18H33O2-
  283.19 1 [fa(22:6)-H-CO2]- 283.2425759951 -185 C21H31-
  327.00 1 [fa(22:6)-H]- 327.2324052393 -709 C22H31O2-
  465.13 1 [lyso_PG(18:1,-)-CO2]- 465.2981153413 -360 C23H46O7P-
  537.16 1 [lyso_PG(-,22:6)-H2O]- 537.261729835 -188 C28H42O8P-
PK$NUM_PEAK: 18
PK$PEAK: m/z int. rel.int.
  249.16 13.5 94
  281.07 143.3 999
  282.19 38.4 268
  283.19 19.9 139
  284.20 7.0 49
  303.73 8.7 61
  327.00 60.9 425
  328.16 23.0 160
  329.04 9.3 65
  416.06 20.6 144
  465.13 14.3 100
  537.16 12.2 85
  582.12 16.7 116
  718.50 10.4 73
  745.32 14.0 98
  762.55 32.0 223
  812.01 16.1 112
  819.93 26.3 183
//
