ACCESSION: MSBNK-Chubu_Univ-UT002788
RECORD_TITLE: Phosphatidylcholine 18:1-20:4; LC-ESI-ITFT; MS2; [M-CH3]-; RT: 17.77; Exp: 3
DATE: 2016.01.19 (Created 2010.05.07, modified 2013.06.04)
AUTHORS: Taguchi R, Graduate School of Medicine, The University of Tokyo
LICENSE: CC BY-NC-SA
PUBLICATION: Taguchi, R.; Ishikawa, M. Precise and Global Identification of Phospholipid Molecular Species by an Orbitrap Mass Spectrometer and Automated Search Engine Lipid Search. Journal of Chromatography A 2010, 1217 (25), 4229–39. DOI:10.1016/j.chroma.2010.04.034
CH$NAME: Phosphatidylcholine 18:1-20:4
CH$COMPOUND_CLASS: Natural Product; Glycerophospholipids; Glycerophosphocholines; Diacylglycerophosphocholines
CH$FORMULA: C46H82NO8P
CH$EXACT_MASS: 807.57781
CH$SMILES: C(CCCC=CCC=CCC=CCC=CCCC(=O)OC(COP([O-1])(=O)OCC[N+1](C)(C)C)COC(CCC=CCCCCCCCCCCCCC)=O)CC
CH$IUPAC: InChI=1S/C46H82NO8P/c1-6-8-10-12-14-16-18-20-22-23-25-27-29-31-33-35-37-39-46(49)55-44(43-54-56(50,51)53-41-40-47(3,4)5)42-52-45(48)38-36-34-32-30-28-26-24-21-19-17-15-13-11-9-7-2/h16,18,22-23,27,29,32-35,44H,6-15,17,19-21,24-26,28,30-31,36-43H2,1-5H3/b18-16-,23-22-,29-27-,34-32-,35-33-
CH$LINK: INCHIKEY HYDKDXOLAXLJKA-ICTLDNOWSA-N
SP$SCIENTIFIC_NAME: Mus musculus
SP$LINEAGE: cellular organisms; Eukaryota; Fungi/Metazoa group; Metazoa; Eumetazoa; Bilateria; Coelomata; Deuterostomia; Chordata; Craniata; Vertebrata; Gnathostomata; Teleostomi; Euteleostomi; Sarcopterygii; Tetrapoda; Amniota; Mammalia; Theria; Eutheria; Euarchontoglires; Glires; Rodentia; Sciurognathi; Muroidea; Muridae; Murinae; Mus
SP$LINK: NCBI-TAXONOMY 10090
SP$SAMPLE: brain
AC$INSTRUMENT: LC-10ADVPmicro HPLC, Shimadzu; LTQ Orbitrap, Thermo Scientific
AC$INSTRUMENT_TYPE: LC-ESI-ITFT
AC$MASS_SPECTROMETRY: MS_TYPE MS2
AC$MASS_SPECTROMETRY: ION_MODE NEGATIVE
AC$MASS_SPECTROMETRY: COLLISION_ENERGY 30%
AC$MASS_SPECTROMETRY: ION_SPRAY_VOLTAGE 3500 V
AC$MASS_SPECTROMETRY: IONIZATION ESI
AC$CHROMATOGRAPHY: COLUMN_NAME Develosil C30, Nomura Chemical
AC$CHROMATOGRAPHY: FLOW_GRADIENT add 95/5 at 0 min, 70/30 at 40 min, 50/50 at 41 min, 50/50 at 90 min
AC$CHROMATOGRAPHY: FLOW_RATE add 100 uL/min
AC$CHROMATOGRAPHY: RETENTION_TIME 17.96 min (in paper: 17.1 min)
AC$CHROMATOGRAPHY: SOLVENT A acetonitrile-methanol-water (19:19:2) with 0.1% acetic acid and 0.1% ammonium hydroxide (28%)
AC$CHROMATOGRAPHY: SOLVENT B 2-propanol with 0.1% acetic acid and 0.1% ammonium hydroxide (28%)
MS$FOCUSED_ION: PRECURSOR_M/Z 792.54
MS$FOCUSED_ION: PRECURSOR_TYPE [M-CH3]-
MS$DATA_PROCESSING: WHOLE Xcalibur ver-2.0
PK$SPLASH: splash10-0udi-0049030000-d193102cb18376008910
PK$ANNOTATION: m/z num type mass error(ppm) formula
  259.27 1 [fa(20:4)-H-CO2]- 259.2425759951 106 C19H31-
  281.09 1 [fa(18:1)-H]- 281.2480553035 -561 C18H33O2-
  303.10 1 [fa(20:4)-H]- 303.2324052393 -436 C20H31O2-
  506.11 1 [lyso_PC(18:1,-)]- 506.3246644428 -423 C25H49NO7P-
PK$NUM_PEAK: 7
PK$PEAK: m/z int. rel.int.
  259.27 3.4 8
  267.02 4.0 9
  281.09 197.7 464
  301.12 7.3 17
  303.10 425.3 999
  506.11 145.5 342
  509.71 14.2 33
//
