ACCESSION: MSBNK-Chubu_Univ-UT001826
RECORD_TITLE: Phosphatidylcholine lyso 19:0; LC-ESI-ITFT; MS2; [M+CH3COO]-; RT: 4.81; Exp: 2
DATE: 2016.01.19 (Created 2010.05.07, modified 2011.08.03)
AUTHORS: Taguchi R, Graduate School of Medicine, The University of Tokyo
LICENSE: CC BY-NC-SA
PUBLICATION: Taguchi, R.; Ishikawa, M. Precise and Global Identification of Phospholipid Molecular Species by an Orbitrap Mass Spectrometer and Automated Search Engine Lipid Search. Journal of Chromatography A 2010, 1217 (25), 4229–39. DOI:10.1016/j.chroma.2010.04.034
CH$NAME: Phosphatidylcholine lyso 19:0
CH$COMPOUND_CLASS: Natural Product; Glycerophospholipids; Glycerophosphocholines; Monoacylglycerophosphocholines
CH$FORMULA: C27H56NO7P
CH$EXACT_MASS: 537.37944
CH$SMILES: P([O-1])(=O)(OCC[N+1](C)(C)C)OCC(CO)OC(=O)CCCCCCCCCCCCCCCCCC
CH$IUPAC: InChI=1S/C27H56NO7P/c1-5-6-7-8-9-10-11-12-13-14-15-16-17-18-19-20-21-27(30)35-26(24-29)25-34-36(31,32)33-23-22-28(2,3)4/h26,29H,5-25H2,1-4H3
CH$LINK: CAS 108273-88-7
CH$LINK: INCHIKEY FPTNXEGPLIELIU-UHFFFAOYSA-N
CH$LINK: PUBCHEM CID:22472205
SP$SCIENTIFIC_NAME: Mus musculus
SP$LINEAGE: cellular organisms; Eukaryota; Fungi/Metazoa group; Metazoa; Eumetazoa; Bilateria; Coelomata; Deuterostomia; Chordata; Craniata; Vertebrata; Gnathostomata; Teleostomi; Euteleostomi; Sarcopterygii; Tetrapoda; Amniota; Mammalia; Theria; Eutheria; Euarchontoglires; Glires; Rodentia; Sciurognathi; Muroidea; Muridae; Murinae; Mus
SP$LINK: NCBI-TAXONOMY 10090
SP$SAMPLE: liver
AC$INSTRUMENT: LC-10ADVPmicro HPLC, Shimadzu; LTQ Orbitrap, Thermo Scientific
AC$INSTRUMENT_TYPE: LC-ESI-ITFT
AC$MASS_SPECTROMETRY: MS_TYPE MS2
AC$MASS_SPECTROMETRY: ION_MODE NEGATIVE
AC$MASS_SPECTROMETRY: COLLISION_ENERGY 30%
AC$MASS_SPECTROMETRY: ION_SPRAY_VOLTAGE 3500 V
AC$MASS_SPECTROMETRY: IONIZATION ESI
AC$CHROMATOGRAPHY: COLUMN_NAME Develosil C30, Nomura Chemical
AC$CHROMATOGRAPHY: FLOW_GRADIENT  add 95/5 at 0 min, 70/30 at 40 min, 50/50 at 41 min, 50/50 at 90 min
AC$CHROMATOGRAPHY: FLOW_RATE  add 100 uL/min
AC$CHROMATOGRAPHY: RETENTION_TIME 4.75 min (in paper: 4.8 min)
AC$CHROMATOGRAPHY: SOLVENT A acetonitrile-methanol-water (19:19:2) with 0.1% acetic acid and 0.1% ammonium hydroxide (28%)
AC$CHROMATOGRAPHY: SOLVENT B 2-propanol with 0.1% acetic acid and 0.1% ammonium hydroxide (28%)
MS$FOCUSED_ION: PRECURSOR_M/Z 596.39
MS$FOCUSED_ION: PRECURSOR_TYPE [M+CH3COO]-
MS$DATA_PROCESSING: WHOLE Xcalibur ver-2.0
PK$SPLASH: splash10-00di-0000090000-b4d7817e4e41043c23b0
PK$ANNOTATION: m/z num type mass error(ppm) formula
  522.07 1 [PC(lyso,19:0)-CH3]- 522.3559645712 -546 C26H53NO7P-
PK$NUM_PEAK: 6
PK$PEAK: m/z int. rel.int.
  404.70 10.8 17
  503.90 8.0 13
  509.18 33.8 54
  513.48 8.6 14
  522.07 622.3 999
  522.70 4.5 7
//
