ACCESSION: MSBNK-Chubu_Univ-UT001305
RECORD_TITLE: Phosphatidylcholine 17:1-18:1; LC-ESI-ITFT; MS2; [M+CH3COO]-; RT: 21.46; Exp: 1
DATE: 2016.01.19 (Created 2010.05.07, modified 2011.08.03)
AUTHORS: Taguchi R, Graduate School of Medicine, The University of Tokyo
LICENSE: CC BY-NC-SA
PUBLICATION: Taguchi, R.; Ishikawa, M. Precise and Global Identification of Phospholipid Molecular Species by an Orbitrap Mass Spectrometer and Automated Search Engine Lipid Search. Journal of Chromatography A 2010, 1217 (25), 4229–39. DOI:10.1016/j.chroma.2010.04.034
CH$NAME: Phosphatidylcholine 17:1-18:1
CH$COMPOUND_CLASS: Natural Product; Glycerophospholipids; Glycerophosphocholines; Diacylglycerophosphocholines
CH$FORMULA: C43H82NO8P
CH$EXACT_MASS: 771.57781
CH$SMILES: O(CC(OC(=O)CCC=CCCCCCCCCCCCCC)COP(OCC[N+1](C)(C)C)([O-1])=O)C(=O)CCC=CCCCCCCCCCCCC
CH$IUPAC: InChI=1S/C43H82NO8P/c1-6-8-10-12-14-16-18-20-22-24-26-28-30-32-34-36-43(46)52-41(40-51-53(47,48)50-38-37-44(3,4)5)39-49-42(45)35-33-31-29-27-25-23-21-19-17-15-13-11-9-7-2/h29-32,41H,6-28,33-40H2,1-5H3/b31-29-,32-30-
CH$LINK: INCHIKEY OPXAZFYJOBVDTP-SZDCHMHBSA-N
SP$SCIENTIFIC_NAME: Mus musculus
SP$LINEAGE: cellular organisms; Eukaryota; Fungi/Metazoa group; Metazoa; Eumetazoa; Bilateria; Coelomata; Deuterostomia; Chordata; Craniata; Vertebrata; Gnathostomata; Teleostomi; Euteleostomi; Sarcopterygii; Tetrapoda; Amniota; Mammalia; Theria; Eutheria; Euarchontoglires; Glires; Rodentia; Sciurognathi; Muroidea; Muridae; Murinae; Mus
SP$LINK: NCBI-TAXONOMY 10090
SP$SAMPLE: brain
AC$INSTRUMENT: LC-10ADVPmicro HPLC, Shimadzu; LTQ Orbitrap, Thermo Scientific
AC$INSTRUMENT_TYPE: LC-ESI-ITFT
AC$MASS_SPECTROMETRY: MS_TYPE MS2
AC$MASS_SPECTROMETRY: ION_MODE NEGATIVE
AC$MASS_SPECTROMETRY: COLLISION_ENERGY 30%
AC$MASS_SPECTROMETRY: ION_SPRAY_VOLTAGE 3500 V
AC$MASS_SPECTROMETRY: IONIZATION ESI
AC$CHROMATOGRAPHY: COLUMN_NAME Develosil C30, Nomura Chemical
AC$CHROMATOGRAPHY: FLOW_GRADIENT  add 95/5 at 0 min, 70/30 at 40 min, 50/50 at 41 min, 50/50 at 90 min
AC$CHROMATOGRAPHY: FLOW_RATE  add 100 uL/min
AC$CHROMATOGRAPHY: RETENTION_TIME 21.72 min (in paper: 29.39(29.54) min)
AC$CHROMATOGRAPHY: SOLVENT A acetonitrile-methanol-water (19:19:2) with 0.1% acetic acid and 0.1% ammonium hydroxide (28%)
AC$CHROMATOGRAPHY: SOLVENT B 2-propanol with 0.1% acetic acid and 0.1% ammonium hydroxide (28%)
MS$FOCUSED_ION: PRECURSOR_M/Z 830.53
MS$FOCUSED_ION: PRECURSOR_TYPE [M+CH3COO]-
MS$DATA_PROCESSING: WHOLE Xcalibur ver-2.0
PK$SPLASH: splash10-0002-0000000900-0c1b9ce520fa4a11f861
PK$NUM_PEAK: 16
PK$PEAK: m/z int. rel.int.
  283.45 7.4 3
  303.14 62.3 25
  461.97 17.6 7
  484.16 12.7 5
  494.26 18.7 8
  659.89 11.4 5
  748.15 2441.1 999
  749.08 287.1 117
  749.78 8.9 4
  756.20 229.2 94
  766.55 20.8 9
  768.23 19.6 8
  769.40 7.4 3
  770.49 9.7 4
  773.65 11.9 5
  811.02 7.4 3
//
