ACCESSION: MSBNK-Chubu_Univ-UT002331
RECORD_TITLE: Phosphatidylcholine alkyl 16:0-22:5; LC-ESI-ITFT; MS3; [M+CH3COO]-/[M-CH3]-; RT: 23.45; Exp: 2
DATE: 2016.01.19 (Created 2010.05.07, modified 2011.08.03)
AUTHORS: Taguchi R, Graduate School of Medicine, The University of Tokyo
LICENSE: CC BY-NC-SA
PUBLICATION: Taguchi, R.; Ishikawa, M. Precise and Global Identification of Phospholipid Molecular Species by an Orbitrap Mass Spectrometer and Automated Search Engine Lipid Search. Journal of Chromatography A 2010, 1217 (25), 4229–39. DOI:10.1016/j.chroma.2010.04.034
CH$NAME: Phosphatidylcholine alkyl 16:0-22:5
CH$COMPOUND_CLASS: Natural Product; Glycerophospholipids; Glycerophosphocholines; 1-alkyl,2-acylglycerophosphocholines
CH$FORMULA: C46H84NO7P
CH$EXACT_MASS: 793.59854
CH$SMILES: C(CCOCC(COP([O-1])(=O)OCC[N+1](C)(C)C)OC(CCC=CCC=CCC=CCC=CCC=CCCCCC)=O)CCCCCCCCCCCCC
CH$IUPAC: InChI=1S/C46H84NO7P/c1-6-8-10-12-14-16-18-20-22-23-24-25-26-27-29-31-33-35-37-39-46(48)54-45(44-53-55(49,50)52-42-40-47(3,4)5)43-51-41-38-36-34-32-30-28-21-19-17-15-13-11-9-7-2/h14,16,20,22,24-25,27,29,33,35,45H,6-13,15,17-19,21,23,26,28,30-32,34,36-44H2,1-5H3/b16-14-,22-20-,25-24-,29-27-,35-33-
CH$LINK: INCHIKEY JMQLAFWVISATAG-PEUCRCJUSA-N
SP$SCIENTIFIC_NAME: Mus musculus
SP$LINEAGE: cellular organisms; Eukaryota; Fungi/Metazoa group; Metazoa; Eumetazoa; Bilateria; Coelomata; Deuterostomia; Chordata; Craniata; Vertebrata; Gnathostomata; Teleostomi; Euteleostomi; Sarcopterygii; Tetrapoda; Amniota; Mammalia; Theria; Eutheria; Euarchontoglires; Glires; Rodentia; Sciurognathi; Muroidea; Muridae; Murinae; Mus
SP$LINK: NCBI-TAXONOMY 10090
SP$SAMPLE: liver
AC$INSTRUMENT: LC-10ADVPmicro HPLC, Shimadzu; LTQ Orbitrap, Thermo Scientific
AC$INSTRUMENT_TYPE: LC-ESI-ITFT
AC$MASS_SPECTROMETRY: MS_TYPE MS3
AC$MASS_SPECTROMETRY: ION_MODE NEGATIVE
AC$MASS_SPECTROMETRY: COLLISION_ENERGY 30%
AC$MASS_SPECTROMETRY: ION_SPRAY_VOLTAGE 3500 V
AC$MASS_SPECTROMETRY: IONIZATION ESI
AC$CHROMATOGRAPHY: COLUMN_NAME Develosil C30, Nomura Chemical
AC$CHROMATOGRAPHY: FLOW_GRADIENT  add 95/5 at 0 min, 70/30 at 40 min, 50/50 at 41 min, 50/50 at 90 min
AC$CHROMATOGRAPHY: FLOW_RATE  add 100 uL/min
AC$CHROMATOGRAPHY: RETENTION_TIME 23.44 min (in paper: 23.5 min)
AC$CHROMATOGRAPHY: SOLVENT A acetonitrile-methanol-water (19:19:2) with 0.1% acetic acid and 0.1% ammonium hydroxide (28%)
AC$CHROMATOGRAPHY: SOLVENT B 2-propanol with 0.1% acetic acid and 0.1% ammonium hydroxide (28%)
MS$FOCUSED_ION: PRECURSOR_M/Z 852.61/778.26
MS$FOCUSED_ION: PRECURSOR_TYPE [M+CH3COO]-/[M-CH3]-
MS$DATA_PROCESSING: WHOLE Xcalibur ver-2.0
PK$SPLASH: splash10-004i-0009300000-95af5c172f1673442339
PK$ANNOTATION: m/z num type mass error(ppm) formula
  285.01 1 [fa(22:5)-H-CO2]- 285.2582260593 -869 C21H33-
  329.08 1 [fa(22:5)-H]- 329.2480553035 -509 C22H33O2-
  448.08 1 [lyso_PC(alkyl-16:0,-)-H2O]- 448.3191851344 -533 C23H47NO5P-
  466.16 1 [lyso_PC(alkyl-16:0,-)]- 466.3297498207 -363 C23H49NO6P-
PK$NUM_PEAK: 9
PK$PEAK: m/z int. rel.int.
  231.12 6.5 14
  285.01 39.1 87
  303.22 4.2 9
  305.17 7.1 16
  311.33 12.4 28
  329.08 449.2 999
  448.08 28.9 64
  466.16 121.5 270
  492.13 48.6 108
//
