ACCESSION: MSBNK-Chubu_Univ-UT001590
RECORD_TITLE: Phosphatidylcholine alkyl 18:0-16:0; LC-ESI-ITFT; MS3; [M+CH3COO]-/[M-CH3]-; RT: 42.15; Exp: 1
DATE: 2016.01.19 (Created 2010.05.07, modified 2011.08.03)
AUTHORS: Taguchi R, Graduate School of Medicine, The University of Tokyo
LICENSE: CC BY-NC-SA
PUBLICATION: Taguchi, R.; Ishikawa, M. Precise and Global Identification of Phospholipid Molecular Species by an Orbitrap Mass Spectrometer and Automated Search Engine Lipid Search. Journal of Chromatography A 2010, 1217 (25), 4229–39. DOI:10.1016/j.chroma.2010.04.034
CH$NAME: Phosphatidylcholine alkyl 18:0-16:0
CH$COMPOUND_CLASS: Natural Product; Glycerophospholipids; Glycerophosphocholines; 1-alkyl,2-acylglycerophosphocholines
CH$FORMULA: C42H86NO7P
CH$EXACT_MASS: 747.61419
CH$SMILES: C[N+1](C)(C)CCOP(OCC(OC(=O)CCCCCCCCCCCCCCC)COCCCCCCCCCCCCCCCCCC)([O-1])=O
CH$IUPAC: InChI=1S/C42H86NO7P/c1-6-8-10-12-14-16-18-20-21-22-24-26-28-30-32-34-37-47-39-41(40-49-51(45,46)48-38-36-43(3,4)5)50-42(44)35-33-31-29-27-25-23-19-17-15-13-11-9-7-2/h41H,6-40H2,1-5H3
CH$LINK: CAS 93598-05-1
CH$LINK: INCHIKEY GTFLTTXDLGEBAI-UHFFFAOYSA-N
CH$LINK: PUBCHEM CID:24779324
SP$SCIENTIFIC_NAME: Mus musculus
SP$LINEAGE: cellular organisms; Eukaryota; Fungi/Metazoa group; Metazoa; Eumetazoa; Bilateria; Coelomata; Deuterostomia; Chordata; Craniata; Vertebrata; Gnathostomata; Teleostomi; Euteleostomi; Sarcopterygii; Tetrapoda; Amniota; Mammalia; Theria; Eutheria; Euarchontoglires; Glires; Rodentia; Sciurognathi; Muroidea; Muridae; Murinae; Mus
SP$LINK: NCBI-TAXONOMY 10090
SP$SAMPLE: liver
AC$INSTRUMENT: LC-10ADVPmicro HPLC, Shimadzu; LTQ Orbitrap, Thermo Scientific
AC$INSTRUMENT_TYPE: LC-ESI-ITFT
AC$MASS_SPECTROMETRY: MS_TYPE MS3
AC$MASS_SPECTROMETRY: ION_MODE NEGATIVE
AC$MASS_SPECTROMETRY: COLLISION_ENERGY 30%
AC$MASS_SPECTROMETRY: ION_SPRAY_VOLTAGE 3500 V
AC$MASS_SPECTROMETRY: IONIZATION ESI
AC$CHROMATOGRAPHY: COLUMN_NAME Develosil C30, Nomura Chemical
AC$CHROMATOGRAPHY: FLOW_GRADIENT  add 95/5 at 0 min, 70/30 at 40 min, 50/50 at 41 min, 50/50 at 90 min
AC$CHROMATOGRAPHY: FLOW_RATE  add 100 uL/min
AC$CHROMATOGRAPHY: RETENTION_TIME 42.02 min (in paper: 42.2 min)
AC$CHROMATOGRAPHY: SOLVENT A acetonitrile-methanol-water (19:19:2) with 0.1% acetic acid and 0.1% ammonium hydroxide (28%)
AC$CHROMATOGRAPHY: SOLVENT B 2-propanol with 0.1% acetic acid and 0.1% ammonium hydroxide (28%)
MS$FOCUSED_ION: PRECURSOR_M/Z 806.63/732.18
MS$FOCUSED_ION: PRECURSOR_TYPE [M+CH3COO]-/[M-CH3]-
MS$DATA_PROCESSING: WHOLE Xcalibur ver-2.0
PK$SPLASH: splash10-0a4i-0090300000-6260e5ba466101093d2c
PK$ANNOTATION: m/z num type mass error(ppm) formula
  255.00 1 [fa(16:0)-H]- 255.2324052393 -910 C16H31O2-
  476.27 1 [lyso_PC(alkyl-18:0,-)-H2O]- 476.3504852628 -168 C25H51NO5P-
  494.29 1 [lyso_PC(alkyl-18:0,-)]- 494.3610499491 -143 C25H53NO6P-
PK$NUM_PEAK: 4
PK$PEAK: m/z int. rel.int.
  255.00 310.8 999
  255.60 7.9 25
  476.27 22.4 72
  494.29 107.8 347
//
