ACCESSION: MSBNK-Chubu_Univ-UT000233
RECORD_TITLE: 9,10-EODE; LC-ESI-QIT; MS2; CE:45 V; [M-H]-
DATE: 2016.01.19 (Created 2007.10.19, modified 2011.08.03)
AUTHORS: Nakanishi H, Taguchi R, Graduate School of Medicine, The University of Tokyo
LICENSE: CC BY-NC-SA
CH$NAME: 9,10-EODE
CH$NAME: 9,10-epoxy-12Z-octadecenoic acid
CH$NAME: (+-)9(10)-EpOME
CH$COMPOUND_CLASS: Natural Product; Lipid; Fatty acid
CH$FORMULA: C18H32O3
CH$EXACT_MASS: 296.23514
CH$SMILES: CCCCCC=CCC(O1)C(CCCCCCCC(O)=O)1
CH$IUPAC: InChI=1S/C18H32O3/c1-2-3-4-5-7-10-13-16-17(21-16)14-11-8-6-9-12-15-18(19)20/h7,10,16-17H,2-6,8-9,11-15H2,1H3,(H,19,20)/b10-7+
CH$LINK: CAYMAN 52400
CH$LINK: LIPIDBANK DFA8007
CH$LINK: INCHIKEY FBUKMFOXMZRGRB-JXMROGBWSA-N
AC$INSTRUMENT: 4000Q TRAP, Applied Biosystems
AC$INSTRUMENT_TYPE: LC-ESI-QIT
AC$MASS_SPECTROMETRY: MS_TYPE MS2
AC$MASS_SPECTROMETRY: ION_MODE NEGATIVE
AC$MASS_SPECTROMETRY: COLLISION_ENERGY 45 V
AC$MASS_SPECTROMETRY: IONIZATION ESI
MS$FOCUSED_ION: PRECURSOR_TYPE [M-H]-
MS$DATA_PROCESSING: IGNORE rel.val. < 0.5
MS$DATA_PROCESSING: WHOLE Analyst 1.4.2
PK$SPLASH: splash10-00di-0910000000-aca703a1e94829afdba4
PK$NUM_PEAK: 10
PK$PEAK: m/z int. rel.int.
  139.200 10000.0 28
  151.040 12500.0 35
  151.200 5000.0 14
  171.083 355000.0 999
  183.040 35000.0 98
  205.240 5000.0 14
  222.080 12500.0 35
  223.040 15000.0 42
  223.180 15000.0 42
  277.184 20000.0 56
//
