ACCESSION: MSBNK-Chubu_Univ-UT002647
RECORD_TITLE: Phosphatidylethanolamine alkenyl 18:0-22:6; LC-ESI-ITFT; MS2; [M-H]-; RT: 28.50; Exp: 3
DATE: 2016.01.19 (Created 2010.05.07, modified 2011.08.03)
AUTHORS: Taguchi R, Graduate School of Medicine, The University of Tokyo
LICENSE: CC BY-NC-SA
PUBLICATION: Taguchi, R.; Ishikawa, M. Precise and Global Identification of Phospholipid Molecular Species by an Orbitrap Mass Spectrometer and Automated Search Engine Lipid Search. Journal of Chromatography A 2010, 1217 (25), 4229–39. DOI:10.1016/j.chroma.2010.04.034
CH$NAME: Phosphatidylethanolamine alkenyl 18:0-22:6
CH$COMPOUND_CLASS: Natural Product; Glycerophospholipids; Glycerophosphoethanolamines; 1Z-alkenyl,2-acylglycerophosphoethanolamines
CH$FORMULA: C45H78NO7P
CH$EXACT_MASS: 775.55159
CH$SMILES: C(CCCCCCCCCCC)CCCCC=COCC(COP(OCCN)(O)=O)OC(CCC=CCC=CCC=CCC=CCC=CCC=CCC)=O
CH$IUPAC: InChI=1S/C45H78NO7P/c1-3-5-7-9-11-13-15-17-19-21-22-23-24-26-28-30-32-34-36-38-45(47)53-44(43-52-54(48,49)51-41-39-46)42-50-40-37-35-33-31-29-27-25-20-18-16-14-12-10-8-6-4-2/h5,7,11,13,17,19,22-23,26,28,32,34,37,40,44H,3-4,6,8-10,12,14-16,18,20-21,24-25,27,29-31,33,35-36,38-39,41-43,46H2,1-2H3,(H,48,49)/b7-5-,13-11-,19-17-,23-22-,28-26-,34-32-,40-37+
CH$LINK: CAS 139367-62-7
CH$LINK: INCHIKEY FIJFPUAJUDAZEY-NUANVQICSA-N
SP$SCIENTIFIC_NAME: Mus musculus
SP$LINEAGE: cellular organisms; Eukaryota; Fungi/Metazoa group; Metazoa; Eumetazoa; Bilateria; Coelomata; Deuterostomia; Chordata; Craniata; Vertebrata; Gnathostomata; Teleostomi; Euteleostomi; Sarcopterygii; Tetrapoda; Amniota; Mammalia; Theria; Eutheria; Euarchontoglires; Glires; Rodentia; Sciurognathi; Muroidea; Muridae; Murinae; Mus
SP$LINK: NCBI-TAXONOMY 10090
SP$SAMPLE: liver
AC$INSTRUMENT: LC-10ADVPmicro HPLC, Shimadzu; LTQ Orbitrap, Thermo Scientific
AC$INSTRUMENT_TYPE: LC-ESI-ITFT
AC$MASS_SPECTROMETRY: MS_TYPE MS2
AC$MASS_SPECTROMETRY: ION_MODE NEGATIVE
AC$MASS_SPECTROMETRY: COLLISION_ENERGY 30%
AC$MASS_SPECTROMETRY: ION_SPRAY_VOLTAGE 3500 V
AC$MASS_SPECTROMETRY: IONIZATION ESI
AC$CHROMATOGRAPHY: COLUMN_NAME Develosil C30, Nomura Chemical
AC$CHROMATOGRAPHY: FLOW_GRADIENT  add 95/5 at 0 min, 70/30 at 40 min, 50/50 at 41 min, 50/50 at 90 min
AC$CHROMATOGRAPHY: FLOW_RATE  add 100 uL/min
AC$CHROMATOGRAPHY: RETENTION_TIME 28.50 min (in paper: 28.5 min)
AC$CHROMATOGRAPHY: SOLVENT A acetonitrile-methanol-water (19:19:2) with 0.1% acetic acid and 0.1% ammonium hydroxide (28%)
AC$CHROMATOGRAPHY: SOLVENT B 2-propanol with 0.1% acetic acid and 0.1% ammonium hydroxide (28%)
MS$FOCUSED_ION: PRECURSOR_M/Z 774.54
MS$FOCUSED_ION: PRECURSOR_TYPE [M-H]-
MS$DATA_PROCESSING: WHOLE Xcalibur ver-2.0
PK$SPLASH: splash10-01u0-0048900000-5690638f7a29e2b65d9f
PK$ANNOTATION: m/z num type mass error(ppm) formula
  267.08 1 [fa(alkenyl-18:0)-H]- 267.2687907456 -705 C18H35O-
  283.11 1 [fa(22:6)-H-CO2]- 283.2425759951 -467 C21H31-
  327.04 1 [fa(22:6)-H]- 327.2324052393 -587 C22H31O2-
  446.16 1 [lyso_PE(alkenyl-18:0,-)-H2O]- 446.3035350702 -321 C23H45NO5P-
  464.15 1 [lyso_PE(alkenyl-18:0,-)]- 464.3140997565 -352 C23H47NO6P-
  506.19 1 [lyso_PE(-,22:6)-H2O]- 506.2671495639 -151 C27H41NO6P-
PK$NUM_PEAK: 26
PK$PEAK: m/z int. rel.int.
  228.98 166.5 34
  230.05 27.3 6
  249.08 36.0 7
  250.00 8.8 2
  257.08 12.0 2
  267.08 9.3 2
  279.04 11.7 2
  281.16 117.5 24
  283.11 2560.9 518
  284.20 227.5 46
  292.92 5.3 1
  309.13 25.0 5
  327.04 4940.6 999
  328.09 463.4 94
  403.31 5.8 1
  419.17 54.1 11
  446.16 739.6 150
  447.21 50.5 10
  464.15 4632.7 937
  465.27 370.0 75
  466.41 18.2 4
  493.04 57.7 12
  506.19 37.8 8
  511.48 28.5 6
  692.02 11.7 2
  717.14 14.0 3
//
