ACCESSION: MSBNK-Chubu_Univ-UT001169
RECORD_TITLE: Phosphatidylethanolamine alkenyl 20:1-18:2; LC-ESI-ITFT; MS2; [M-H]-; RT: 41.74; Exp: 1
DATE: 2016.01.19 (Created 2010.05.07, modified 2013.05.16)
AUTHORS: Taguchi R, Graduate School of Medicine, The University of Tokyo
LICENSE: CC BY-NC-SA
PUBLICATION: Taguchi, R.; Ishikawa, M. Precise and Global Identification of Phospholipid Molecular Species by an Orbitrap Mass Spectrometer and Automated Search Engine Lipid Search. Journal of Chromatography A 2010, 1217 (25), 4229–39. DOI:10.1016/j.chroma.2010.04.034
CH$NAME: Phosphatidylethanolamine alkenyl 20:1-18:2
CH$COMPOUND_CLASS: Natural Product; Glycerophospholipids; Glycerophosphoethanolamines; 1Z-alkenyl,2-acylglycerophosphoethanolamines
CH$FORMULA: C43H82NO7P
CH$EXACT_MASS: 755.58289
CH$SMILES: C(CCCCC=CCC=CCCC(OC(COP(OCCN)(O)=O)COCCCC=CCCCCCCCCCCCCCCC)=O)CCCCC
CH$IUPAC: InChI=1S/C43H82NO7P/c1-3-5-7-9-11-13-15-17-19-20-21-23-25-27-29-31-33-35-38-48-40-42(41-50-52(46,47)49-39-37-44)51-43(45)36-34-32-30-28-26-24-22-18-16-14-12-10-8-6-4-2/h24,26,29-32,42H,3-23,25,27-28,33-41,44H2,1-2H3,(H,46,47)/b26-24-,31-29-,32-30-
CH$LINK: INCHIKEY GPGJCRAIGHOCDQ-QGRKPBPISA-N
SP$SCIENTIFIC_NAME: Mus musculus
SP$LINEAGE: cellular organisms; Eukaryota; Fungi/Metazoa group; Metazoa; Eumetazoa; Bilateria; Coelomata; Deuterostomia; Chordata; Craniata; Vertebrata; Gnathostomata; Teleostomi; Euteleostomi; Sarcopterygii; Tetrapoda; Amniota; Mammalia; Theria; Eutheria; Euarchontoglires; Glires; Rodentia; Sciurognathi; Muroidea; Muridae; Murinae; Mus
SP$LINK: NCBI-TAXONOMY 10090
SP$SAMPLE: liver
AC$INSTRUMENT: LC-10ADVPmicro HPLC, Shimadzu; LTQ Orbitrap, Thermo Scientific
AC$INSTRUMENT_TYPE: LC-ESI-ITFT
AC$MASS_SPECTROMETRY: MS_TYPE MS2
AC$MASS_SPECTROMETRY: ION_MODE NEGATIVE
AC$MASS_SPECTROMETRY: COLLISION_ENERGY 30%
AC$MASS_SPECTROMETRY: ION_SPRAY_VOLTAGE 3500 V
AC$MASS_SPECTROMETRY: IONIZATION ESI
AC$CHROMATOGRAPHY: COLUMN_NAME Develosil C30, Nomura Chemical
AC$CHROMATOGRAPHY: FLOW_GRADIENT add 95/5 at 0 min, 70/30 at 40 min, 50/50 at 41 min, 50/50 at 90 min
AC$CHROMATOGRAPHY: FLOW_RATE add 100 uL/min
AC$CHROMATOGRAPHY: RETENTION_TIME 41.63 min (in paper: 41.7 min)
AC$CHROMATOGRAPHY: SOLVENT A acetonitrile-methanol-water (19:19:2) with 0.1% acetic acid and 0.1% ammonium hydroxide (28%)
AC$CHROMATOGRAPHY: SOLVENT B 2-propanol with 0.1% acetic acid and 0.1% ammonium hydroxide (28%)
MS$FOCUSED_ION: PRECURSOR_M/Z 754.58
MS$FOCUSED_ION: PRECURSOR_TYPE [M-H]-
MS$DATA_PROCESSING: WHOLE Xcalibur ver-2.0
PK$SPLASH: splash10-004i-0090200000-c2552b9a58fcd83e3386
PK$ANNOTATION: m/z num type mass error(ppm) formula
  279.07 1 [fa(18:2)-H]- 279.2324052393 -581 C18H31O2-
PK$NUM_PEAK: 7
PK$PEAK: m/z int. rel.int.
  279.07 336.9 999
  279.98 93.0 276
  453.62 10.1 30
  492.24 114.2 339
  493.40 9.0 27
  575.65 15.5 46
  630.78 7.8 23
//
