ACCESSION: MSBNK-Chubu_Univ-UT001891
RECORD_TITLE: Phosphatidylethanolamine 20:0-20:4; LC-ESI-ITFT; MS2; [M-H]-; RT: 35.73; Exp: 2
DATE: 2016.01.19 (Created 2010.05.07, modified 2011.08.03)
AUTHORS: Taguchi R, Graduate School of Medicine, The University of Tokyo
LICENSE: CC BY-NC-SA
PUBLICATION: Taguchi, R.; Ishikawa, M. Precise and Global Identification of Phospholipid Molecular Species by an Orbitrap Mass Spectrometer and Automated Search Engine Lipid Search. Journal of Chromatography A 2010, 1217 (25), 4229–39. DOI:10.1016/j.chroma.2010.04.034
CH$NAME: Phosphatidylethanolamine 20:0-20:4
CH$COMPOUND_CLASS: Natural Product; Glycerophospholipids; Glycerophosphoethanolamines; Diacylglycerophosphoethanolamines
CH$FORMULA: C45H82NO8P
CH$EXACT_MASS: 795.57781
CH$SMILES: C(CCCCCC)=CCC=CCC=CCC=CCCC(=O)OC(COP(OCCN)(O)=O)COC(CCCCCCCCCCCCCCCCCCC)=O
CH$IUPAC: InChI=1S/C45H82NO8P/c1-3-5-7-9-11-13-15-17-19-21-23-25-27-29-31-33-35-37-44(47)51-41-43(42-53-55(49,50)52-40-39-46)54-45(48)38-36-34-32-30-28-26-24-22-20-18-16-14-12-10-8-6-4-2/h14,16,20,22,26,28,32,34,43H,3-13,15,17-19,21,23-25,27,29-31,33,35-42,46H2,1-2H3,(H,49,50)/b16-14-,22-20-,28-26-,34-32-
CH$LINK: INCHIKEY NWMRMMRJNCGRTC-CDNBUOKMSA-N
SP$SCIENTIFIC_NAME: Mus musculus
SP$LINEAGE: cellular organisms; Eukaryota; Fungi/Metazoa group; Metazoa; Eumetazoa; Bilateria; Coelomata; Deuterostomia; Chordata; Craniata; Vertebrata; Gnathostomata; Teleostomi; Euteleostomi; Sarcopterygii; Tetrapoda; Amniota; Mammalia; Theria; Eutheria; Euarchontoglires; Glires; Rodentia; Sciurognathi; Muroidea; Muridae; Murinae; Mus
SP$LINK: NCBI-TAXONOMY 10090
SP$SAMPLE: liver
AC$INSTRUMENT: LC-10ADVPmicro HPLC, Shimadzu; LTQ Orbitrap, Thermo Scientific
AC$INSTRUMENT_TYPE: LC-ESI-ITFT
AC$MASS_SPECTROMETRY: MS_TYPE MS2
AC$MASS_SPECTROMETRY: ION_MODE NEGATIVE
AC$MASS_SPECTROMETRY: COLLISION_ENERGY 30%
AC$MASS_SPECTROMETRY: ION_SPRAY_VOLTAGE 3500 V
AC$MASS_SPECTROMETRY: IONIZATION ESI
AC$CHROMATOGRAPHY: COLUMN_NAME Develosil C30, Nomura Chemical
AC$CHROMATOGRAPHY: FLOW_GRADIENT  add 95/5 at 0 min, 70/30 at 40 min, 50/50 at 41 min, 50/50 at 90 min
AC$CHROMATOGRAPHY: FLOW_RATE  add 100 uL/min
AC$CHROMATOGRAPHY: RETENTION_TIME 35.74 min (in paper: 35.7 min)
AC$CHROMATOGRAPHY: SOLVENT A acetonitrile-methanol-water (19:19:2) with 0.1% acetic acid and 0.1% ammonium hydroxide (28%)
AC$CHROMATOGRAPHY: SOLVENT B 2-propanol with 0.1% acetic acid and 0.1% ammonium hydroxide (28%)
MS$FOCUSED_ION: PRECURSOR_M/Z 794.57
MS$FOCUSED_ION: PRECURSOR_TYPE [M-H]-
MS$DATA_PROCESSING: WHOLE Xcalibur ver-2.0
PK$SPLASH: splash10-0w29-0009010000-104fbcc4f4eae3e7850c
PK$ANNOTATION: m/z num type mass error(ppm) formula
  259.11 1 [fa(20:4)-H-CO2]- 259.2425759951 -510 C19H31-
  303.06 1 [fa(20:4)-H]- 303.2324052393 -568 C20H31O2-
  311.14 1 [fa(20:0)-H]- 311.2950054961 -497 C20H39O2-
  481.99 1 [lyso_PE(-,20:4)-H2O]- 482.2671495639 -574 C25H41NO6P-
  490.27 1 [lyso_PE(20:0,-)-H2O]- 490.3297498207 -121 C25H49NO6P-
  500.12 1 [lyso_PE(-,20:4)]- 500.2777142502 -314 C25H43NO7P-
PK$NUM_PEAK: 28
PK$PEAK: m/z int. rel.int.
  229.17 5.9 1
  259.11 628.8 102
  260.22 48.6 8
  282.88 7.6 1
  285.13 39.2 6
  286.12 4.2 1
  291.30 6.5 1
  301.22 27.7 4
  303.06 6168.8 999
  304.11 628.4 102
  311.14 3678.7 596
  312.21 481.4 78
  331.08 4.3 1
  381.05 11.3 2
  438.99 6.5 1
  441.19 8.8 1
  448.18 27.4 4
  481.99 27.9 5
  489.64 30.7 5
  490.27 105.4 17
  491.20 27.1 4
  500.12 53.8 9
  508.03 1938.5 314
  509.03 283.6 46
  563.58 13.1 2
  696.40 4.8 1
  710.67 12.8 2
  730.68 132.8 22
//
