ACCESSION: MSBNK-Chubu_Univ-UT001538
RECORD_TITLE: Phosphatidylcholine 16:0-22:5; LC-ESI-ITFT; MS3; [M+CH3COO]-/[M-CH3]-; RT: 18.61; Exp: 1
DATE: 2016.01.19 (Created 2010.05.07, modified 2011.08.03)
AUTHORS: Taguchi R, Graduate School of Medicine, The University of Tokyo
LICENSE: CC BY-NC-SA
PUBLICATION: Taguchi, R.; Ishikawa, M. Precise and Global Identification of Phospholipid Molecular Species by an Orbitrap Mass Spectrometer and Automated Search Engine Lipid Search. Journal of Chromatography A 2010, 1217 (25), 4229–39. DOI:10.1016/j.chroma.2010.04.034
CH$NAME: Phosphatidylcholine 16:0-22:5
CH$COMPOUND_CLASS: Natural Product; Glycerophospholipids; Glycerophosphocholines; Diacylglycerophosphocholines
CH$FORMULA: C46H82NO8P
CH$EXACT_MASS: 807.57781
CH$SMILES: C(CC=CCC=CCCC(=O)OC(COP(OCC[N+1](C)(C)C)([O-1])=O)COC(=O)CCCCCCCCCCCCCCC)=CCC=CCC=CCCCCC
CH$IUPAC: InChI=1S/C46H82NO8P/c1-6-8-10-12-14-16-18-20-21-22-23-24-25-27-29-31-33-35-37-39-46(49)55-44(43-54-56(50,51)53-41-40-47(3,4)5)42-52-45(48)38-36-34-32-30-28-26-19-17-15-13-11-9-7-2/h14,16,20-21,23-24,27,29,33,35,44H,6-13,15,17-19,22,25-26,28,30-32,34,36-43H2,1-5H3/b16-14-,21-20-,24-23-,29-27-,35-33-
CH$LINK: CAS 202647-91-4
CH$LINK: INCHIKEY MWXAIAMSOXOQJK-TZCDOOIHSA-N
SP$SCIENTIFIC_NAME: Mus musculus
SP$LINEAGE: cellular organisms; Eukaryota; Fungi/Metazoa group; Metazoa; Eumetazoa; Bilateria; Coelomata; Deuterostomia; Chordata; Craniata; Vertebrata; Gnathostomata; Teleostomi; Euteleostomi; Sarcopterygii; Tetrapoda; Amniota; Mammalia; Theria; Eutheria; Euarchontoglires; Glires; Rodentia; Sciurognathi; Muroidea; Muridae; Murinae; Mus
SP$LINK: NCBI-TAXONOMY 10090
SP$SAMPLE: liver
AC$INSTRUMENT: LC-10ADVPmicro HPLC, Shimadzu; LTQ Orbitrap, Thermo Scientific
AC$INSTRUMENT_TYPE: LC-ESI-ITFT
AC$MASS_SPECTROMETRY: MS_TYPE MS3
AC$MASS_SPECTROMETRY: ION_MODE NEGATIVE
AC$MASS_SPECTROMETRY: COLLISION_ENERGY 30%
AC$MASS_SPECTROMETRY: ION_SPRAY_VOLTAGE 3500 V
AC$MASS_SPECTROMETRY: IONIZATION ESI
AC$CHROMATOGRAPHY: COLUMN_NAME Develosil C30, Nomura Chemical
AC$CHROMATOGRAPHY: FLOW_GRADIENT  add 95/5 at 0 min, 70/30 at 40 min, 50/50 at 41 min, 50/50 at 90 min
AC$CHROMATOGRAPHY: FLOW_RATE  add 100 uL/min
AC$CHROMATOGRAPHY: RETENTION_TIME 18.48 min (in paper: 18.6 min)
AC$CHROMATOGRAPHY: SOLVENT A acetonitrile-methanol-water (19:19:2) with 0.1% acetic acid and 0.1% ammonium hydroxide (28%)
AC$CHROMATOGRAPHY: SOLVENT B 2-propanol with 0.1% acetic acid and 0.1% ammonium hydroxide (28%)
MS$FOCUSED_ION: PRECURSOR_M/Z 866.59/792.12
MS$FOCUSED_ION: PRECURSOR_TYPE [M+CH3COO]-/[M-CH3]-
MS$DATA_PROCESSING: WHOLE Xcalibur ver-2.0
PK$SPLASH: splash10-057i-0069400000-67845e535473d0f5f64e
PK$ANNOTATION: m/z num type mass error(ppm) formula
  255.18 1 [fa(16:0)-H]- 255.2324052393 -204 C16H31O2-
  284.99 1 [fa(22:5)-H-CO2]- 285.2582260593 -939 C21H33-
  329.14 1 [fa(22:5)-H]- 329.2480553035 -327 C22H33O2-
  462.29 1 [lyso_PC(16:0,-)-H2O]- 462.2984496923 -17 C23H45NO6P-
  480.11 1 [lyso_PC(16:0,-)]- 480.3090143786 -413 C23H47NO7P-
PK$NUM_PEAK: 9
PK$PEAK: m/z int. rel.int.
  255.18 296.2 500
  281.10 16.9 29
  284.99 134.0 226
  303.30 11.8 20
  329.14 591.9 999
  345.07 18.8 32
  406.40 35.5 60
  462.29 18.2 31
  480.11 223.4 377
//
