ACCESSION: MSBNK-Chubu_Univ-UT001517
RECORD_TITLE: Sphingomyelin d18:2-C18:0; LC-ESI-ITFT; MS2; [M+CH3COO]-; RT: 20.44; Exp: 1
DATE: 2016.01.19 (Created 2010.05.07, modified 2011.08.03)
AUTHORS: Taguchi R, Graduate School of Medicine, The University of Tokyo
LICENSE: CC BY-NC-SA
PUBLICATION: Taguchi, R.; Ishikawa, M. Precise and Global Identification of Phospholipid Molecular Species by an Orbitrap Mass Spectrometer and Automated Search Engine Lipid Search. Journal of Chromatography A 2010, 1217 (25), 4229–39. DOI:10.1016/j.chroma.2010.04.034
CH$NAME: Sphingomyelin d18:2-C18:0
CH$COMPOUND_CLASS: Natural Product; Sphingolipids; Phosphosphingolipids; Ceramide phosphocholines (sphingomyelins)
CH$FORMULA: C41H81N2O6P
CH$EXACT_MASS: 728.58322
CH$SMILES: OC(C=CCCC=CCCCCCCCCC)C(COP([O-1])(=O)OCC[N+1](C)(C)C)NC(=O)CCCCCCCCCCCCCCCCC
CH$IUPAC: InChI=1S/C41H81N2O6P/c1-6-8-10-12-14-16-18-20-21-23-25-27-29-31-33-35-41(45)42-39(38-49-50(46,47)48-37-36-43(3,4)5)40(44)34-32-30-28-26-24-22-19-17-15-13-11-9-7-2/h24,26,32,34,39-40,44H,6-23,25,27-31,33,35-38H2,1-5H3,(H-,42,45,46,47)/b26-24+,34-32+/t39-,40+/m1/s1
CH$LINK: INCHIKEY GCHHFAWECQPLHL-KCJNDVAJSA-N
SP$SCIENTIFIC_NAME: Mus musculus
SP$LINEAGE: cellular organisms; Eukaryota; Fungi/Metazoa group; Metazoa; Eumetazoa; Bilateria; Coelomata; Deuterostomia; Chordata; Craniata; Vertebrata; Gnathostomata; Teleostomi; Euteleostomi; Sarcopterygii; Tetrapoda; Amniota; Mammalia; Theria; Eutheria; Euarchontoglires; Glires; Rodentia; Sciurognathi; Muroidea; Muridae; Murinae; Mus
SP$LINK: NCBI-TAXONOMY 10090
SP$SAMPLE: brain
AC$INSTRUMENT: LC-10ADVPmicro HPLC, Shimadzu; LTQ Orbitrap, Thermo Scientific
AC$INSTRUMENT_TYPE: LC-ESI-ITFT
AC$MASS_SPECTROMETRY: MS_TYPE MS2
AC$MASS_SPECTROMETRY: ION_MODE NEGATIVE
AC$MASS_SPECTROMETRY: COLLISION_ENERGY 30%
AC$MASS_SPECTROMETRY: ION_SPRAY_VOLTAGE 3500 V
AC$MASS_SPECTROMETRY: IONIZATION ESI
AC$CHROMATOGRAPHY: COLUMN_NAME Develosil C30, Nomura Chemical
AC$CHROMATOGRAPHY: FLOW_GRADIENT  add 95/5 at 0 min, 70/30 at 40 min, 50/50 at 41 min, 50/50 at 90 min
AC$CHROMATOGRAPHY: FLOW_RATE  add 100 uL/min
AC$CHROMATOGRAPHY: RETENTION_TIME 20.55 min (in paper: 20.4 min)
AC$CHROMATOGRAPHY: SOLVENT A acetonitrile-methanol-water (19:19:2) with 0.1% acetic acid and 0.1% ammonium hydroxide (28%)
AC$CHROMATOGRAPHY: SOLVENT B 2-propanol with 0.1% acetic acid and 0.1% ammonium hydroxide (28%)
MS$FOCUSED_ION: PRECURSOR_M/Z 787.60
MS$FOCUSED_ION: PRECURSOR_TYPE [M+CH3COO]-
MS$DATA_PROCESSING: WHOLE Xcalibur ver-2.0
PK$SPLASH: splash10-03di-0000000900-92278fca617dc64d7e38
PK$NUM_PEAK: 24
PK$PEAK: m/z int. rel.int.
  250.91 21.7 2
  281.12 120.1 11
  282.37 58.7 6
  417.09 188.3 18
  417.93 147.6 14
  418.95 29.9 3
  420.38 11.8 1
  423.62 10.1 1
  435.36 20.6 2
  436.34 34.9 3
  477.40 11.5 1
  523.03 13.4 1
  558.88 6.8 1
  661.02 7.9 1
  667.16 7.9 1
  699.16 598.6 56
  700.15 1793.2 169
  701.26 320.9 30
  705.15 19.5 2
  713.21 10614.0 999
  714.01 19.1 2
  726.85 99.4 9
  727.69 40.3 4
  728.29 26.4 2
//
