ACCESSION: MSBNK-Chubu_Univ-UT002755
RECORD_TITLE: Phosphatidylcholine 16:0-15:0; LC-ESI-ITFT; MS2; [M+CH3COO]-; RT: 23.16; Exp: 3
DATE: 2016.01.19 (Created 2010.05.07, modified 2011.08.03)
AUTHORS: Taguchi R, Graduate School of Medicine, The University of Tokyo
LICENSE: CC BY-NC-SA
PUBLICATION: Taguchi, R.; Ishikawa, M. Precise and Global Identification of Phospholipid Molecular Species by an Orbitrap Mass Spectrometer and Automated Search Engine Lipid Search. Journal of Chromatography A 2010, 1217 (25), 4229–39. DOI:10.1016/j.chroma.2010.04.034
CH$NAME: Phosphatidylcholine 16:0-15:0
CH$COMPOUND_CLASS: Natural Product; Glycerophospholipids; Glycerophosphocholines; Diacylglycerophosphocholines
CH$FORMULA: C39H78NO8P
CH$EXACT_MASS: 719.54650
CH$SMILES: C(CCC(=O)OC(COC(=O)CCCCCCCCCCCCCCC)COP([O-1])(=O)OCC[N+1](C)(C)C)CCCCCCCCCCC
CH$IUPAC: InChI=1S/C39H78NO8P/c1-6-8-10-12-14-16-18-20-22-23-25-27-29-31-38(41)45-35-37(36-47-49(43,44)46-34-33-40(3,4)5)48-39(42)32-30-28-26-24-21-19-17-15-13-11-9-7-2/h37H,6-36H2,1-5H3
CH$LINK: INCHIKEY NPGWXTIWUUFYAB-UHFFFAOYSA-N
CH$LINK: PUBCHEM CID:10122972
SP$SCIENTIFIC_NAME: Mus musculus
SP$LINEAGE: cellular organisms; Eukaryota; Fungi/Metazoa group; Metazoa; Eumetazoa; Bilateria; Coelomata; Deuterostomia; Chordata; Craniata; Vertebrata; Gnathostomata; Teleostomi; Euteleostomi; Sarcopterygii; Tetrapoda; Amniota; Mammalia; Theria; Eutheria; Euarchontoglires; Glires; Rodentia; Sciurognathi; Muroidea; Muridae; Murinae; Mus
SP$LINK: NCBI-TAXONOMY 10090
SP$SAMPLE: brain
AC$INSTRUMENT: LC-10ADVPmicro HPLC, Shimadzu; LTQ Orbitrap, Thermo Scientific
AC$INSTRUMENT_TYPE: LC-ESI-ITFT
AC$MASS_SPECTROMETRY: MS_TYPE MS2
AC$MASS_SPECTROMETRY: ION_MODE NEGATIVE
AC$MASS_SPECTROMETRY: COLLISION_ENERGY 30%
AC$MASS_SPECTROMETRY: ION_SPRAY_VOLTAGE 3500 V
AC$MASS_SPECTROMETRY: IONIZATION ESI
AC$CHROMATOGRAPHY: COLUMN_NAME Develosil C30, Nomura Chemical
AC$CHROMATOGRAPHY: FLOW_GRADIENT  add 95/5 at 0 min, 70/30 at 40 min, 50/50 at 41 min, 50/50 at 90 min
AC$CHROMATOGRAPHY: FLOW_RATE  add 100 uL/min
AC$CHROMATOGRAPHY: RETENTION_TIME 23.45 min (in paper: 23.1 min)
AC$CHROMATOGRAPHY: SOLVENT A acetonitrile-methanol-water (19:19:2) with 0.1% acetic acid and 0.1% ammonium hydroxide (28%)
AC$CHROMATOGRAPHY: SOLVENT B 2-propanol with 0.1% acetic acid and 0.1% ammonium hydroxide (28%)
MS$FOCUSED_ION: PRECURSOR_M/Z 778.56
MS$FOCUSED_ION: PRECURSOR_TYPE [M+CH3COO]-
MS$DATA_PROCESSING: WHOLE Xcalibur ver-2.0
PK$SPLASH: splash10-0udi-0000000900-928659693b14448cf4b6
PK$ANNOTATION: m/z num type mass error(ppm) formula
  241.06 1 [fa(15:0)-H]- 241.2167551751 -649 C15H29O2-
  255.21 1 [fa(16:0)-H]- 255.2324052393 -87 C16H31O2-
  466.20 1 [lyso_PC(-,15:0)]- 466.2933643144 -199 C22H45NO7P-
PK$NUM_PEAK: 14
PK$PEAK: m/z int. rel.int.
  241.06 5.5 2
  255.21 6.6 2
  329.19 27.7 8
  330.15 27.2 8
  369.87 30.5 9
  446.18 5.5 2
  465.18 27.4 8
  466.20 12.5 4
  472.27 13.6 4
  687.94 9.5 3
  704.06 3326.1 999
  704.93 2.7 1
  718.51 26.6 8
  719.12 35.8 11
//
