ACCESSION: MSBNK-Chubu_Univ-UT001224
RECORD_TITLE: Phosphatidylinositol 16:0-20:3; LC-ESI-ITFT; MS2; [M-H]-; RT: 16.24; Exp: 1
DATE: 2016.01.19 (Created 2010.05.07, modified 2011.08.03)
AUTHORS: Taguchi R, Graduate School of Medicine, The University of Tokyo
LICENSE: CC BY-NC-SA
PUBLICATION: Taguchi, R.; Ishikawa, M. Precise and Global Identification of Phospholipid Molecular Species by an Orbitrap Mass Spectrometer and Automated Search Engine Lipid Search. Journal of Chromatography A 2010, 1217 (25), 4229–39. DOI:10.1016/j.chroma.2010.04.034
CH$NAME: Phosphatidylinositol 16:0-20:3
CH$COMPOUND_CLASS: Natural Product; Glycerophospholipids; Glycerophosphoinositols; Diacylglycerophosphoinositols
CH$FORMULA: C45H81O13P
CH$EXACT_MASS: 860.54148
CH$SMILES: C(CCCCCCCCCCCC)CCC(=O)OCC(OC(CCC=CCC=CCC=CCCCCCCCCC)=O)COP(O)(=O)OC(C(O)1)C(O)C(O)C(O)C(O)1
CH$IUPAC: InChI=1S/C45H81O13P/c1-3-5-7-9-11-13-15-17-18-19-20-22-24-26-28-30-32-34-39(47)57-37(36-56-59(53,54)58-45-43(51)41(49)40(48)42(50)44(45)52)35-55-38(46)33-31-29-27-25-23-21-16-14-12-10-8-6-4-2/h18-19,22,24,28,30,37,40-45,48-52H,3-17,20-21,23,25-27,29,31-36H2,1-2H3,(H,53,54)/b19-18-,24-22-,30-28-/t37?,40-,41-,42+,43-,44-,45-/m1/s1
CH$LINK: INCHIKEY TYVNWAWTRSCTFD-PSOMHJJNSA-N
SP$SCIENTIFIC_NAME: Mus musculus
SP$LINEAGE: cellular organisms; Eukaryota; Fungi/Metazoa group; Metazoa; Eumetazoa; Bilateria; Coelomata; Deuterostomia; Chordata; Craniata; Vertebrata; Gnathostomata; Teleostomi; Euteleostomi; Sarcopterygii; Tetrapoda; Amniota; Mammalia; Theria; Eutheria; Euarchontoglires; Glires; Rodentia; Sciurognathi; Muroidea; Muridae; Murinae; Mus
SP$LINK: NCBI-TAXONOMY 10090
SP$SAMPLE: liver
AC$INSTRUMENT: LC-10ADVPmicro HPLC, Shimadzu; LTQ Orbitrap, Thermo Scientific
AC$INSTRUMENT_TYPE: LC-ESI-ITFT
AC$MASS_SPECTROMETRY: MS_TYPE MS2
AC$MASS_SPECTROMETRY: ION_MODE NEGATIVE
AC$MASS_SPECTROMETRY: COLLISION_ENERGY 30%
AC$MASS_SPECTROMETRY: ION_SPRAY_VOLTAGE 3500 V
AC$MASS_SPECTROMETRY: IONIZATION ESI
AC$CHROMATOGRAPHY: COLUMN_NAME Develosil C30, Nomura Chemical
AC$CHROMATOGRAPHY: FLOW_GRADIENT  add 95/5 at 0 min, 70/30 at 40 min, 50/50 at 41 min, 50/50 at 90 min
AC$CHROMATOGRAPHY: FLOW_RATE  add 100 uL/min
AC$CHROMATOGRAPHY: RETENTION_TIME 16.03 min (in paper: 16.2 min)
AC$CHROMATOGRAPHY: SOLVENT A acetonitrile-methanol-water (19:19:2) with 0.1% acetic acid and 0.1% ammonium hydroxide (28%)
AC$CHROMATOGRAPHY: SOLVENT B 2-propanol with 0.1% acetic acid and 0.1% ammonium hydroxide (28%)
MS$FOCUSED_ION: PRECURSOR_M/Z 859.53
MS$FOCUSED_ION: PRECURSOR_TYPE [M-H]-
MS$DATA_PROCESSING: WHOLE Xcalibur ver-2.0
PK$SPLASH: splash10-0zfr-0045091000-452dc5e5c4abf3c6298b
PK$ANNOTATION: m/z num type mass error(ppm) formula
  255.18 1 [fa(16:0)-H]- 255.2324052393 -204 C16H31O2-
  305.11 1 [fa(20:3)-H]- 305.2480553035 -451 C20H33O2-
  553.07 1 [lyso_PI(16:0,-)-H2O]- 553.2777738297 -375 C25H46O11P-
  571.11 1 [lyso_PI(16:0,-)]- 571.288338516 -311 C25H48O12P-
  577.04 1 [lyso_PI(-,20:3)-CO2]- 577.314159336 -474 C28H50O10P-
  603.11 1 [lyso_PI(-,20:3)-H2O]- 603.2934238939 -303 C29H48O11P-
  621.43 1 [lyso_PI(-,20:3)]- 621.3039885802 203 C29H50O12P-
PK$NUM_PEAK: 31
PK$PEAK: m/z int. rel.int.
  240.97 4.6 6
  255.18 258.2 320
  256.05 68.7 85
  296.95 197.1 245
  297.92 9.2 11
  305.11 203.6 253
  306.18 15.3 19
  314.92 21.3 26
  347.16 12.5 16
  391.02 327.8 407
  392.09 53.2 66
  409.26 15.5 19
  440.96 74.1 92
  442.02 15.4 19
  461.01 6.9 9
  491.29 11.9 15
  553.07 805.3 999
  554.17 113.7 141
  571.11 129.9 161
  572.13 56.5 70
  577.04 10.1 13
  595.28 14.5 18
  603.11 33.4 41
  604.13 57.0 71
  621.43 40.8 51
  622.08 6.8 8
  697.21 17.5 22
  755.40 16.7 21
  770.83 9.7 12
  772.24 39.0 48
  808.12 35.0 43
//
