ACCESSION: MSBNK-Chubu_Univ-UT003018
RECORD_TITLE: Phosphatidylcholine 17:2-18:2; LC-ESI-ITFT; MS3; [M+CH3COO]-/[M-CH3]-; RT: 11.93; Exp: 3
DATE: 2016.01.19 (Created 2010.05.07, modified 2011.08.03)
AUTHORS: Taguchi R, Graduate School of Medicine, The University of Tokyo
LICENSE: CC BY-NC-SA
PUBLICATION: Taguchi, R.; Ishikawa, M. Precise and Global Identification of Phospholipid Molecular Species by an Orbitrap Mass Spectrometer and Automated Search Engine Lipid Search. Journal of Chromatography A 2010, 1217 (25), 4229–39. DOI:10.1016/j.chroma.2010.04.034
CH$NAME: Phosphatidylcholine 17:2-18:2
CH$COMPOUND_CLASS: Natural Product; Glycerophospholipids; Glycerophosphocholines; Diacylglycerophosphocholines
CH$FORMULA: C43H78NO8P
CH$EXACT_MASS: 767.54650
CH$SMILES: C(COP(OCC(COC(=O)CCC=CCC=CCCCCCCCCC)OC(=O)CCC=CCC=CCCCCCCCCCC)([O-1])=O)[N+1](C)(C)C
CH$IUPAC: InChI=1S/C43H78NO8P/c1-6-8-10-12-14-16-18-20-22-24-26-28-30-32-34-36-43(46)52-41(40-51-53(47,48)50-38-37-44(3,4)5)39-49-42(45)35-33-31-29-27-25-23-21-19-17-15-13-11-9-7-2/h23-26,29-32,41H,6-22,27-28,33-40H2,1-5H3/b25-23-,26-24-,31-29-,32-30-
CH$LINK: INCHIKEY GTDQVCDADITTFR-IXGWNOPWSA-N
SP$SCIENTIFIC_NAME: Mus musculus
SP$LINEAGE: cellular organisms; Eukaryota; Fungi/Metazoa group; Metazoa; Eumetazoa; Bilateria; Coelomata; Deuterostomia; Chordata; Craniata; Vertebrata; Gnathostomata; Teleostomi; Euteleostomi; Sarcopterygii; Tetrapoda; Amniota; Mammalia; Theria; Eutheria; Euarchontoglires; Glires; Rodentia; Sciurognathi; Muroidea; Muridae; Murinae; Mus
SP$LINK: NCBI-TAXONOMY 10090
SP$SAMPLE: liver
AC$INSTRUMENT: LC-10ADVPmicro HPLC, Shimadzu; LTQ Orbitrap, Thermo Scientific
AC$INSTRUMENT_TYPE: LC-ESI-ITFT
AC$MASS_SPECTROMETRY: MS_TYPE MS3
AC$MASS_SPECTROMETRY: ION_MODE NEGATIVE
AC$MASS_SPECTROMETRY: COLLISION_ENERGY 30%
AC$MASS_SPECTROMETRY: ION_SPRAY_VOLTAGE 3500 V
AC$MASS_SPECTROMETRY: IONIZATION ESI
AC$CHROMATOGRAPHY: COLUMN_NAME Develosil C30, Nomura Chemical
AC$CHROMATOGRAPHY: FLOW_GRADIENT  add 95/5 at 0 min, 70/30 at 40 min, 50/50 at 41 min, 50/50 at 90 min
AC$CHROMATOGRAPHY: FLOW_RATE  add 100 uL/min
AC$CHROMATOGRAPHY: RETENTION_TIME 12.08 min (in paper: 11.9 min)
AC$CHROMATOGRAPHY: SOLVENT A acetonitrile-methanol-water (19:19:2) with 0.1% acetic acid and 0.1% ammonium hydroxide (28%)
AC$CHROMATOGRAPHY: SOLVENT B 2-propanol with 0.1% acetic acid and 0.1% ammonium hydroxide (28%)
MS$FOCUSED_ION: PRECURSOR_M/Z 826.56/752.20
MS$FOCUSED_ION: PRECURSOR_TYPE [M+CH3COO]-/[M-CH3]-
MS$DATA_PROCESSING: WHOLE Xcalibur ver-2.0
PK$SPLASH: splash10-00or-0090000000-70844b98045cbeb8f9df
PK$ANNOTATION: m/z num type mass error(ppm) formula
  265.09 1 [fa(17:2)-H]- 265.2167551751 -477 C17H29O2-
  278.99 1 [fa(18:2)-H]- 279.2324052393 -867 C18H31O2-
  504.22 1 [lyso_PC(-,18:2)]- 504.3090143786 -176 C25H47NO7P-
PK$NUM_PEAK: 8
PK$PEAK: m/z int. rel.int.
  227.17 14.4 101
  265.09 100.9 706
  267.13 15.7 110
  278.99 142.8 999
  301.08 9.7 68
  471.88 8.9 62
  489.86 14.5 101
  504.22 15.2 106
//
