ACCESSION: MSBNK-Chubu_Univ-UT002181
RECORD_TITLE: Phosphatidylethanolamine alkyl 16:0-18:1; LC-ESI-ITFT; MS2; [M-H]-; RT: 32.76; Exp: 2
DATE: 2016.01.19 (Created 2010.05.07, modified 2011.08.03)
AUTHORS: Taguchi R, Graduate School of Medicine, The University of Tokyo
LICENSE: CC BY-NC-SA
PUBLICATION: Taguchi, R.; Ishikawa, M. Precise and Global Identification of Phospholipid Molecular Species by an Orbitrap Mass Spectrometer and Automated Search Engine Lipid Search. Journal of Chromatography A 2010, 1217 (25), 4229–39. DOI:10.1016/j.chroma.2010.04.034
CH$NAME: Phosphatidylethanolamine alkyl 16:0-18:1
CH$COMPOUND_CLASS: Natural Product; Glycerophospholipids; Glycerophosphoethanolamines; 1-alkyl,2-acylglycerophosphoethanolamines
CH$FORMULA: C39H78NO7P
CH$EXACT_MASS: 703.55159
CH$SMILES: C(CCCCCCCCCCCOCC(COP(OCCN)(O)=O)OC(CCC=CCCCCCCCCCCCCC)=O)CCCC
CH$IUPAC: InChI=1S/C39H78NO7P/c1-3-5-7-9-11-13-15-17-19-20-22-24-26-28-30-32-39(41)47-38(37-46-48(42,43)45-35-33-40)36-44-34-31-29-27-25-23-21-18-16-14-12-10-8-6-4-2/h26,28,38H,3-25,27,29-37,40H2,1-2H3,(H,42,43)/b28-26-
CH$LINK: INCHIKEY XDIGIEOFWXOONN-SGEDCAFJSA-N
SP$SCIENTIFIC_NAME: Mus musculus
SP$LINEAGE: cellular organisms; Eukaryota; Fungi/Metazoa group; Metazoa; Eumetazoa; Bilateria; Coelomata; Deuterostomia; Chordata; Craniata; Vertebrata; Gnathostomata; Teleostomi; Euteleostomi; Sarcopterygii; Tetrapoda; Amniota; Mammalia; Theria; Eutheria; Euarchontoglires; Glires; Rodentia; Sciurognathi; Muroidea; Muridae; Murinae; Mus
SP$LINK: NCBI-TAXONOMY 10090
SP$SAMPLE: brain
AC$INSTRUMENT: LC-10ADVPmicro HPLC, Shimadzu; LTQ Orbitrap, Thermo Scientific
AC$INSTRUMENT_TYPE: LC-ESI-ITFT
AC$MASS_SPECTROMETRY: MS_TYPE MS2
AC$MASS_SPECTROMETRY: ION_MODE NEGATIVE
AC$MASS_SPECTROMETRY: COLLISION_ENERGY 30%
AC$MASS_SPECTROMETRY: ION_SPRAY_VOLTAGE 3500 V
AC$MASS_SPECTROMETRY: IONIZATION ESI
AC$CHROMATOGRAPHY: COLUMN_NAME Develosil C30, Nomura Chemical
AC$CHROMATOGRAPHY: FLOW_GRADIENT  add 95/5 at 0 min, 70/30 at 40 min, 50/50 at 41 min, 50/50 at 90 min
AC$CHROMATOGRAPHY: FLOW_RATE  add 100 uL/min
AC$CHROMATOGRAPHY: RETENTION_TIME 32.78 min (in paper: 32.8 min)
AC$CHROMATOGRAPHY: SOLVENT A acetonitrile-methanol-water (19:19:2) with 0.1% acetic acid and 0.1% ammonium hydroxide (28%)
AC$CHROMATOGRAPHY: SOLVENT B 2-propanol with 0.1% acetic acid and 0.1% ammonium hydroxide (28%)
MS$FOCUSED_ION: PRECURSOR_M/Z 702.54
MS$FOCUSED_ION: PRECURSOR_TYPE [M-H]-
MS$DATA_PROCESSING: WHOLE Xcalibur ver-2.0
PK$SPLASH: splash10-001i-0090300000-ea07291b7680fea9b267
PK$ANNOTATION: m/z num type mass error(ppm) formula
  281.09 1 [fa(18:1)-H]- 281.2480553035 -561 C18H33O2-
  420.15 1 [lyso_PE(alkyl-16:0,-)-H2O]- 420.287885006 -327 C21H43NO5P-
  438.22 1 [lyso_PE(alkyl-16:0,-)]- 438.2984496923 -178 C21H45NO6P-
PK$NUM_PEAK: 20
PK$PEAK: m/z int. rel.int.
  253.03 54.7 27
  254.18 52.0 26
  255.13 296.9 147
  256.08 28.1 14
  281.09 2011.4 999
  282.21 265.9 132
  283.28 52.3 26
  284.27 37.1 18
  285.28 7.2 4
  377.23 22.2 11
  416.68 20.0 10
  419.38 66.1 33
  420.15 41.1 20
  421.02 13.0 6
  438.22 600.9 298
  439.29 70.7 35
  464.15 72.4 36
  465.16 44.1 22
  466.16 8.1 4
  684.89 5.5 3
//
