ACCESSION: MSBNK-Chubu_Univ-UT002834
RECORD_TITLE: Phosphatidylethanolamine 16:0-22:6; LC-ESI-ITFT; MS2; [M-H]-; RT: 17.45; Exp: 3
DATE: 2016.01.19 (Created 2010.05.07, modified 2011.08.03)
AUTHORS: Taguchi R, Graduate School of Medicine, The University of Tokyo
LICENSE: CC BY-NC-SA
PUBLICATION: Taguchi, R.; Ishikawa, M. Precise and Global Identification of Phospholipid Molecular Species by an Orbitrap Mass Spectrometer and Automated Search Engine Lipid Search. Journal of Chromatography A 2010, 1217 (25), 4229–39. DOI:10.1016/j.chroma.2010.04.034
CH$NAME: Phosphatidylethanolamine 16:0-22:6
CH$COMPOUND_CLASS: Natural Product; Glycerophospholipids; Glycerophosphoethanolamines; Diacylglycerophosphoethanolamines
CH$FORMULA: C43H74NO8P
CH$EXACT_MASS: 763.51520
CH$SMILES: OP(=O)(OCCN)OCC(COC(=O)CCCCCCCCCCCCCCC)OC(=O)CCC=CCC=CCC=CCC=CCC=CCC=CCC
CH$IUPAC: InChI=1S/C43H74NO8P/c1-3-5-7-9-11-13-15-17-18-19-20-21-22-24-26-28-30-32-34-36-43(46)52-41(40-51-53(47,48)50-38-37-44)39-49-42(45)35-33-31-29-27-25-23-16-14-12-10-8-6-4-2/h5,7,11,13,17-18,20-21,24,26,30,32,41H,3-4,6,8-10,12,14-16,19,22-23,25,27-29,31,33-40,44H2,1-2H3,(H,47,48)/b7-5-,13-11-,18-17-,21-20-,26-24-,32-30-
CH$LINK: CAS 202647-79-8
CH$LINK: INCHIKEY MPWUZHVZZKSTPV-LGFBOSHVSA-N
SP$SCIENTIFIC_NAME: Mus musculus
SP$LINEAGE: cellular organisms; Eukaryota; Fungi/Metazoa group; Metazoa; Eumetazoa; Bilateria; Coelomata; Deuterostomia; Chordata; Craniata; Vertebrata; Gnathostomata; Teleostomi; Euteleostomi; Sarcopterygii; Tetrapoda; Amniota; Mammalia; Theria; Eutheria; Euarchontoglires; Glires; Rodentia; Sciurognathi; Muroidea; Muridae; Murinae; Mus
SP$LINK: NCBI-TAXONOMY 10090
SP$SAMPLE: brain
AC$INSTRUMENT: LC-10ADVPmicro HPLC, Shimadzu; LTQ Orbitrap, Thermo Scientific
AC$INSTRUMENT_TYPE: LC-ESI-ITFT
AC$MASS_SPECTROMETRY: MS_TYPE MS2
AC$MASS_SPECTROMETRY: ION_MODE NEGATIVE
AC$MASS_SPECTROMETRY: COLLISION_ENERGY 30%
AC$MASS_SPECTROMETRY: ION_SPRAY_VOLTAGE 3500 V
AC$MASS_SPECTROMETRY: IONIZATION ESI
AC$CHROMATOGRAPHY: COLUMN_NAME Develosil C30, Nomura Chemical
AC$CHROMATOGRAPHY: FLOW_GRADIENT  add 95/5 at 0 min, 70/30 at 40 min, 50/50 at 41 min, 50/50 at 90 min
AC$CHROMATOGRAPHY: FLOW_RATE  add 100 uL/min
AC$CHROMATOGRAPHY: RETENTION_TIME 17.70 min (in paper: 17.5 min)
AC$CHROMATOGRAPHY: SOLVENT A acetonitrile-methanol-water (19:19:2) with 0.1% acetic acid and 0.1% ammonium hydroxide (28%)
AC$CHROMATOGRAPHY: SOLVENT B 2-propanol with 0.1% acetic acid and 0.1% ammonium hydroxide (28%)
MS$FOCUSED_ION: PRECURSOR_M/Z 762.51
MS$FOCUSED_ION: PRECURSOR_TYPE [M-H]-
MS$DATA_PROCESSING: WHOLE Xcalibur ver-2.0
PK$SPLASH: splash10-057i-0096300000-4375a8d5fc0b2827ee4f
PK$ANNOTATION: m/z num type mass error(ppm) formula
  255.04 1 [fa(16:0)-H]- 255.2324052393 -753 C16H31O2-
  283.08 1 [fa(22:6)-H-CO2]- 283.2425759951 -573 C21H31-
  327.06 1 [fa(22:6)-H]- 327.2324052393 -526 C22H31O2-
  434.07 1 [lyso_PE(16:0,-)-H2O]- 434.2671495639 -453 C21H41NO6P-
  452.10 1 [lyso_PE(16:0,-)]- 452.2777142502 -392 C21H43NO7P-
  506.00 1 [lyso_PE(-,22:6)-H2O]- 506.2671495639 -527 C27H41NO6P-
  524.00 1 [lyso_PE(-,22:6)]- 524.2777142502 -529 C27H43NO7P-
PK$NUM_PEAK: 19
PK$PEAK: m/z int. rel.int.
  225.17 50.0 1
  229.16 619.2 16
  230.05 359.6 9
  236.75 92.8 2
  241.25 103.2 3
  249.00 209.2 6
  255.04 25374.4 670
  256.13 1772.4 47
  283.08 22336.2 590
  284.16 1261.3 33
  327.06 37831.6 999
  328.04 2240.9 59
  434.07 895.8 24
  435.09 232.6 6
  452.10 18594.9 491
  453.07 1281.8 34
  506.00 1423.9 38
  506.95 272.8 7
  524.00 603.9 16
//
