ACCESSION: MSBNK-Chubu_Univ-UT001251
RECORD_TITLE: Phosphatidylserine 18:0-18:2; LC-ESI-ITFT; MS2; [M-H]-; RT: 28.22; Exp: 1
DATE: 2016.01.19 (Created 2010.05.07, modified 2013.05.16)
AUTHORS: Taguchi R, Graduate School of Medicine, The University of Tokyo
LICENSE: CC BY-NC-SA
PUBLICATION: Taguchi, R.; Ishikawa, M. Precise and Global Identification of Phospholipid Molecular Species by an Orbitrap Mass Spectrometer and Automated Search Engine Lipid Search. Journal of Chromatography A 2010, 1217 (25), 4229–39. DOI:10.1016/j.chroma.2010.04.034
CH$NAME: Phosphatidylserine 18:0-18:2
CH$COMPOUND_CLASS: Natural Product; Glycerophospholipids; Glycerophosphoserines; Diacylglycerophosphoserines
CH$FORMULA: C42H78NO10P
CH$EXACT_MASS: 787.53633
CH$SMILES: C(CCCCCC)CCCCCCCCCCC(OCC(COP(OCC(N)C(O)=O)(O)=O)OC(=O)CCC=CCC=CCCCCCCCCCC)=O
CH$IUPAC: InChI=1S/C42H78NO10P/c1-3-5-7-9-11-13-15-17-19-21-23-25-27-29-31-33-40(44)50-35-38(36-51-54(48,49)52-37-39(43)42(46)47)53-41(45)34-32-30-28-26-24-22-20-18-16-14-12-10-8-6-4-2/h22,24,28,30,38-39H,3-21,23,25-27,29,31-37,43H2,1-2H3,(H,46,47)(H,48,49)/b24-22-,30-28-
CH$LINK: INCHIKEY VMDCGUSYZOIAGZ-JSCMVKKRSA-N
SP$SCIENTIFIC_NAME: Mus musculus
SP$LINEAGE: cellular organisms; Eukaryota; Fungi/Metazoa group; Metazoa; Eumetazoa; Bilateria; Coelomata; Deuterostomia; Chordata; Craniata; Vertebrata; Gnathostomata; Teleostomi; Euteleostomi; Sarcopterygii; Tetrapoda; Amniota; Mammalia; Theria; Eutheria; Euarchontoglires; Glires; Rodentia; Sciurognathi; Muroidea; Muridae; Murinae; Mus
SP$LINK: NCBI-TAXONOMY 10090
SP$SAMPLE: liver
AC$INSTRUMENT: LC-10ADVPmicro HPLC, Shimadzu; LTQ Orbitrap, Thermo Scientific
AC$INSTRUMENT_TYPE: LC-ESI-ITFT
AC$MASS_SPECTROMETRY: MS_TYPE MS2
AC$MASS_SPECTROMETRY: ION_MODE NEGATIVE
AC$MASS_SPECTROMETRY: COLLISION_ENERGY 30%
AC$MASS_SPECTROMETRY: ION_SPRAY_VOLTAGE 3500 V
AC$MASS_SPECTROMETRY: IONIZATION ESI
AC$CHROMATOGRAPHY: COLUMN_NAME Develosil C30, Nomura Chemical
AC$CHROMATOGRAPHY: FLOW_GRADIENT add 95/5 at 0 min, 70/30 at 40 min, 50/50 at 41 min, 50/50 at 90 min
AC$CHROMATOGRAPHY: FLOW_RATE add 100 uL/min
AC$CHROMATOGRAPHY: RETENTION_TIME 28.42 min (in paper: 28.2 min)
AC$CHROMATOGRAPHY: SOLVENT A acetonitrile-methanol-water (19:19:2) with 0.1% acetic acid and 0.1% ammonium hydroxide (28%)
AC$CHROMATOGRAPHY: SOLVENT B 2-propanol with 0.1% acetic acid and 0.1% ammonium hydroxide (28%)
MS$FOCUSED_ION: PRECURSOR_M/Z 786.53
MS$FOCUSED_ION: PRECURSOR_TYPE [M-H]-
MS$DATA_PROCESSING: WHOLE Xcalibur ver-2.0
PK$SPLASH: splash10-0002-0001209400-6e781aff6c0f632cd35b
PK$ANNOTATION: m/z num type mass error(ppm) formula
  279.41 1 [fa(18:2)-H]- 279.2324052393 636 C18H31O2-
  415.06 1 [lyso_PS(-,18:2)-H2O]- 415.2249503982 -396 C21H36O6P-
  418.96 1 [lyso_PS(18:0,-)-H2O]- 419.2562505266 -706 C21H40O6P-
  437.22 1 [lyso_PS(18:0,-)]- 437.2668152129 -106 C21H42O7P-
PK$NUM_PEAK: 17
PK$PEAK: m/z int. rel.int.
  279.41 6.2 9
  283.61 10.0 15
  285.07 11.3 17
  298.25 13.4 20
  320.84 50.7 77
  322.19 68.1 104
  323.30 11.1 17
  415.06 48.9 75
  416.25 6.6 10
  418.96 49.1 75
  420.23 30.0 46
  437.22 14.5 22
  481.40 16.1 25
  699.18 654.1 999
  700.06 320.7 490
  700.76 8.3 13
  755.12 8.9 14
//
