ACCESSION: MSBNK-Chubu_Univ-UT002761
RECORD_TITLE: Phosphatidylcholine 16:0-18:2; LC-ESI-ITFT; MS2; [M+CH3COO]-; RT: 19.79; Exp: 3
DATE: 2016.01.19 (Created 2010.05.07, modified 2011.08.03)
AUTHORS: Taguchi R, Graduate School of Medicine, The University of Tokyo
LICENSE: CC BY-NC-SA
PUBLICATION: Taguchi, R.; Ishikawa, M. Precise and Global Identification of Phospholipid Molecular Species by an Orbitrap Mass Spectrometer and Automated Search Engine Lipid Search. Journal of Chromatography A 2010, 1217 (25), 4229–39. DOI:10.1016/j.chroma.2010.04.034
CH$NAME: Phosphatidylcholine 16:0-18:2
CH$COMPOUND_CLASS: Natural Product; Glycerophospholipids; Glycerophosphocholines; Diacylglycerophosphocholines
CH$FORMULA: C42H80NO8P
CH$EXACT_MASS: 757.56216
CH$SMILES: C(COP([O-1])(=O)OCC(OC(=O)CCC=CCC=CCCCCCCCCCC)COC(=O)CCCCCCCCCCCCCCC)[N+1](C)(C)C
CH$IUPAC: InChI=1S/C42H80NO8P/c1-6-8-10-12-14-16-18-20-21-23-25-27-29-31-33-35-42(45)51-40(39-50-52(46,47)49-37-36-43(3,4)5)38-48-41(44)34-32-30-28-26-24-22-19-17-15-13-11-9-7-2/h23,25,29,31,40H,6-22,24,26-28,30,32-39H2,1-5H3/b25-23-,31-29-
CH$LINK: INCHIKEY PWJTWIQVMHNOLN-WGPKDLKGSA-N
SP$SCIENTIFIC_NAME: Mus musculus
SP$LINEAGE: cellular organisms; Eukaryota; Fungi/Metazoa group; Metazoa; Eumetazoa; Bilateria; Coelomata; Deuterostomia; Chordata; Craniata; Vertebrata; Gnathostomata; Teleostomi; Euteleostomi; Sarcopterygii; Tetrapoda; Amniota; Mammalia; Theria; Eutheria; Euarchontoglires; Glires; Rodentia; Sciurognathi; Muroidea; Muridae; Murinae; Mus
SP$LINK: NCBI-TAXONOMY 10090
SP$SAMPLE: brain
AC$INSTRUMENT: LC-10ADVPmicro HPLC, Shimadzu; LTQ Orbitrap, Thermo Scientific
AC$INSTRUMENT_TYPE: LC-ESI-ITFT
AC$MASS_SPECTROMETRY: MS_TYPE MS2
AC$MASS_SPECTROMETRY: ION_MODE NEGATIVE
AC$MASS_SPECTROMETRY: COLLISION_ENERGY 30%
AC$MASS_SPECTROMETRY: ION_SPRAY_VOLTAGE 3500 V
AC$MASS_SPECTROMETRY: IONIZATION ESI
AC$CHROMATOGRAPHY: COLUMN_NAME Develosil C30, Nomura Chemical
AC$CHROMATOGRAPHY: FLOW_GRADIENT  add 95/5 at 0 min, 70/30 at 40 min, 50/50 at 41 min, 50/50 at 90 min
AC$CHROMATOGRAPHY: FLOW_RATE  add 100 uL/min
AC$CHROMATOGRAPHY: RETENTION_TIME 19.86 min (in paper: 19.7 min)
AC$CHROMATOGRAPHY: SOLVENT A acetonitrile-methanol-water (19:19:2) with 0.1% acetic acid and 0.1% ammonium hydroxide (28%)
AC$CHROMATOGRAPHY: SOLVENT B 2-propanol with 0.1% acetic acid and 0.1% ammonium hydroxide (28%)
MS$FOCUSED_ION: PRECURSOR_M/Z 816.58
MS$FOCUSED_ION: PRECURSOR_TYPE [M+CH3COO]-
MS$DATA_PROCESSING: WHOLE Xcalibur ver-2.0
PK$SPLASH: splash10-0006-0000000900-73c2a566e14b657c1588
PK$ANNOTATION: m/z num type mass error(ppm) formula
  255.12 1 [fa(16:0)-H]- 255.2324052393 -439 C16H31O2-
  279.08 1 [fa(18:2)-H]- 279.2324052393 -545 C18H31O2-
  480.24 1 [lyso_PC(16:0,-)]- 480.3090143786 -143 C23H47NO7P-
  742.79 1 [PC(16:0,18:2)-CH3]- 742.5386799637 338 C41H77NO8P-
PK$NUM_PEAK: 23
PK$PEAK: m/z int. rel.int.
  255.12 324.3 5
  279.08 231.5 4
  281.28 23.6 1
  303.18 38.3 1
  308.26 33.7 1
  355.27 12.1 1
  391.18 23.6 1
  392.90 15.0 1
  465.38 36.5 1
  480.24 9.2 1
  506.23 15.4 1
  650.81 24.6 1
  700.27 28.2 1
  719.46 13.5 1
  740.36 114.5 2
  742.07 59009.6 999
  742.79 282.0 5
  756.08 75.8 1
  757.06 277.6 5
  757.72 34.5 1
  766.49 29.1 1
  783.05 13.6 1
  827.40 28.8 1
//
