ACCESSION: MSBNK-Chubu_Univ-UT001436
RECORD_TITLE: Phosphatidylethanolamine alkenyl 18:1-22:6; LC-ESI-ITFT; MS2; [M-H]-; RT: 19.51; Exp: 1
DATE: 2016.01.19 (Created 2010.05.07, modified 2011.08.03)
AUTHORS: Taguchi R, Graduate School of Medicine, The University of Tokyo
LICENSE: CC BY-NC-SA
PUBLICATION: Taguchi, R.; Ishikawa, M. Precise and Global Identification of Phospholipid Molecular Species by an Orbitrap Mass Spectrometer and Automated Search Engine Lipid Search. Journal of Chromatography A 2010, 1217 (25), 4229–39. DOI:10.1016/j.chroma.2010.04.034
CH$NAME: Phosphatidylethanolamine alkenyl 18:1-22:6
CH$COMPOUND_CLASS: Natural Product; Glycerophospholipids; Glycerophosphoethanolamines; 1Z-alkenyl,2-acylglycerophosphoethanolamines
CH$FORMULA: C45H76NO7P
CH$EXACT_MASS: 773.53594
CH$SMILES: C(=CCCC(OC(COC=CCC=CCCCCCCCCCCCCC)COP(O)(=O)OCCN)=O)CC=CCC=CCC=CCC=CCC=CCC
CH$IUPAC: InChI=1S/C45H76NO7P/c1-3-5-7-9-11-13-15-17-19-21-22-23-24-26-28-30-32-34-36-38-45(47)53-44(43-52-54(48,49)51-41-39-46)42-50-40-37-35-33-31-29-27-25-20-18-16-14-12-10-8-6-4-2/h5,7,11,13,17,19,22-23,26,28,31-34,37,40,44H,3-4,6,8-10,12,14-16,18,20-21,24-25,27,29-30,35-36,38-39,41-43,46H2,1-2H3,(H,48,49)/b7-5-,13-11-,19-17-,23-22-,28-26-,33-31-,34-32-,40-37+
CH$LINK: INCHIKEY MEWSEYMCACAAEE-YLACOYRISA-N
SP$SCIENTIFIC_NAME: Mus musculus
SP$LINEAGE: cellular organisms; Eukaryota; Fungi/Metazoa group; Metazoa; Eumetazoa; Bilateria; Coelomata; Deuterostomia; Chordata; Craniata; Vertebrata; Gnathostomata; Teleostomi; Euteleostomi; Sarcopterygii; Tetrapoda; Amniota; Mammalia; Theria; Eutheria; Euarchontoglires; Glires; Rodentia; Sciurognathi; Muroidea; Muridae; Murinae; Mus
SP$LINK: NCBI-TAXONOMY 10090
SP$SAMPLE: brain
AC$INSTRUMENT: LC-10ADVPmicro HPLC, Shimadzu; LTQ Orbitrap, Thermo Scientific
AC$INSTRUMENT_TYPE: LC-ESI-ITFT
AC$MASS_SPECTROMETRY: MS_TYPE MS2
AC$MASS_SPECTROMETRY: ION_MODE NEGATIVE
AC$MASS_SPECTROMETRY: COLLISION_ENERGY 30%
AC$MASS_SPECTROMETRY: ION_SPRAY_VOLTAGE 3500 V
AC$MASS_SPECTROMETRY: IONIZATION ESI
AC$CHROMATOGRAPHY: COLUMN_NAME Develosil C30, Nomura Chemical
AC$CHROMATOGRAPHY: FLOW_GRADIENT  add 95/5 at 0 min, 70/30 at 40 min, 50/50 at 41 min, 50/50 at 90 min
AC$CHROMATOGRAPHY: FLOW_RATE  add 100 uL/min
AC$CHROMATOGRAPHY: RETENTION_TIME 19.41 min (in paper: 19.5 min)
AC$CHROMATOGRAPHY: SOLVENT A acetonitrile-methanol-water (19:19:2) with 0.1% acetic acid and 0.1% ammonium hydroxide (28%)
AC$CHROMATOGRAPHY: SOLVENT B 2-propanol with 0.1% acetic acid and 0.1% ammonium hydroxide (28%)
MS$FOCUSED_ION: PRECURSOR_M/Z 772.53
MS$FOCUSED_ION: PRECURSOR_TYPE [M-H]-
MS$DATA_PROCESSING: WHOLE Xcalibur ver-2.0
PK$SPLASH: splash10-01t9-0048900000-877a2bae5761936ceb44
PK$ANNOTATION: m/z num type mass error(ppm) formula
  265.39 1 [fa(alkenyl-18:1)-H]- 265.2531406814 516 C18H33O-
  283.05 1 [fa(22:6)-H-CO2]- 283.2425759951 -679 C21H31-
  327.08 1 [fa(22:6)-H]- 327.2324052393 -465 C22H31O2-
  444.22 1 [lyso_PE(alkenyl-18:1,-)-H2O]- 444.287885006 -152 C23H43NO5P-
  462.12 1 [lyso_PE(alkenyl-18:1,-)]- 462.2984496923 -385 C23H45NO6P-
  506.20 1 [lyso_PE(-,22:6)-H2O]- 506.2671495639 -132 C27H41NO6P-
PK$NUM_PEAK: 30
PK$PEAK: m/z int. rel.int.
  226.81 504.5 3
  228.98 3311.5 18
  230.04 149.3 1
  231.17 338.7 2
  241.16 446.5 2
  249.22 1156.0 6
  259.19 662.9 4
  263.09 270.3 1
  265.39 1038.2 6
  266.26 307.9 2
  267.18 422.2 2
  281.18 6877.4 38
  283.05 80733.3 440
  284.02 6151.4 34
  309.06 889.8 5
  327.08 183156.6 999
  328.07 12298.9 67
  401.12 1833.5 10
  402.04 1471.4 8
  417.32 633.1 3
  419.06 343.2 2
  444.22 25618.7 140
  445.41 1047.9 6
  462.12 160305.6 874
  463.16 20899.4 114
  491.05 1472.2 8
  506.20 474.5 3
  507.26 382.8 2
  509.12 2088.3 11
  699.08 173.0 1
//
