ACCESSION: MSBNK-Chubu_Univ-UT002635
RECORD_TITLE: Phosphatidylethanolamine alkenyl 16:0-20:4; LC-ESI-ITFT; MS2; [M-H]-; RT: 22.33; Exp: 3
DATE: 2016.01.19 (Created 2010.05.07, modified 2011.08.03)
AUTHORS: Taguchi R, Graduate School of Medicine, The University of Tokyo
LICENSE: CC BY-NC-SA
PUBLICATION: Taguchi, R.; Ishikawa, M. Precise and Global Identification of Phospholipid Molecular Species by an Orbitrap Mass Spectrometer and Automated Search Engine Lipid Search. Journal of Chromatography A 2010, 1217 (25), 4229–39. DOI:10.1016/j.chroma.2010.04.034
CH$NAME: Phosphatidylethanolamine alkenyl 16:0-20:4
CH$COMPOUND_CLASS: Natural Product; Glycerophospholipids; Glycerophosphoethanolamines; 1Z-alkenyl,2-acylglycerophosphoethanolamines
CH$FORMULA: C41H74NO7P
CH$EXACT_MASS: 723.52029
CH$SMILES: C(CCCCCC)=CCC=CCC=CCC=CCCC(OC(COP(O)(=O)OCCN)COC=CCCCCCCCCCCCCCC)=O
CH$IUPAC: InChI=1S/C41H74NO7P/c1-3-5-7-9-11-13-15-17-19-20-21-22-24-26-28-30-32-34-41(43)49-40(39-48-50(44,45)47-37-35-42)38-46-36-33-31-29-27-25-23-18-16-14-12-10-8-6-4-2/h13,15,19-20,22,24,28,30,33,36,40H,3-12,14,16-18,21,23,25-27,29,31-32,34-35,37-39,42H2,1-2H3,(H,44,45)/b15-13-,20-19-,24-22-,30-28-,36-33+
CH$LINK: INCHIKEY QDRJMAHGAQYRIN-PKKQLAOCSA-N
SP$SCIENTIFIC_NAME: Mus musculus
SP$LINEAGE: cellular organisms; Eukaryota; Fungi/Metazoa group; Metazoa; Eumetazoa; Bilateria; Coelomata; Deuterostomia; Chordata; Craniata; Vertebrata; Gnathostomata; Teleostomi; Euteleostomi; Sarcopterygii; Tetrapoda; Amniota; Mammalia; Theria; Eutheria; Euarchontoglires; Glires; Rodentia; Sciurognathi; Muroidea; Muridae; Murinae; Mus
SP$LINK: NCBI-TAXONOMY 10090
SP$SAMPLE: liver
AC$INSTRUMENT: LC-10ADVPmicro HPLC, Shimadzu; LTQ Orbitrap, Thermo Scientific
AC$INSTRUMENT_TYPE: LC-ESI-ITFT
AC$MASS_SPECTROMETRY: MS_TYPE MS2
AC$MASS_SPECTROMETRY: ION_MODE NEGATIVE
AC$MASS_SPECTROMETRY: COLLISION_ENERGY 30%
AC$MASS_SPECTROMETRY: ION_SPRAY_VOLTAGE 3500 V
AC$MASS_SPECTROMETRY: IONIZATION ESI
AC$CHROMATOGRAPHY: COLUMN_NAME Develosil C30, Nomura Chemical
AC$CHROMATOGRAPHY: FLOW_GRADIENT  add 95/5 at 0 min, 70/30 at 40 min, 50/50 at 41 min, 50/50 at 90 min
AC$CHROMATOGRAPHY: FLOW_RATE  add 100 uL/min
AC$CHROMATOGRAPHY: RETENTION_TIME 22.43 min (in paper: 22.3 min)
AC$CHROMATOGRAPHY: SOLVENT A acetonitrile-methanol-water (19:19:2) with 0.1% acetic acid and 0.1% ammonium hydroxide (28%)
AC$CHROMATOGRAPHY: SOLVENT B 2-propanol with 0.1% acetic acid and 0.1% ammonium hydroxide (28%)
MS$FOCUSED_ION: PRECURSOR_M/Z 722.51
MS$FOCUSED_ION: PRECURSOR_TYPE [M-H]-
MS$DATA_PROCESSING: WHOLE Xcalibur ver-2.0
PK$SPLASH: splash10-0udi-0009300000-de82fedae876f3187cb0
PK$ANNOTATION: m/z num type mass error(ppm) formula
  239.11 1 [fa(alkenyl-16:0)-H]- 239.2374906172 -532 C16H31O-
  259.05 1 [fa(20:4)-H-CO2]- 259.2425759951 -742 C19H31-
  303.01 1 [fa(20:4)-H]- 303.2324052393 -732 C20H31O2-
  418.07 1 [lyso_PE(alkenyl-16:0,-)-H2O]- 418.2722349418 -483 C21H41NO5P-
  436.12 1 [lyso_PE(alkenyl-16:0,-)]- 436.2827996281 -372 C21H43NO6P-
PK$NUM_PEAK: 23
PK$PEAK: m/z int. rel.int.
  205.07 99.0 9
  205.92 12.1 1
  217.08 6.4 1
  218.88 6.3 1
  239.11 50.1 4
  255.08 7.6 1
  259.05 759.7 67
  260.08 7.0 1
  268.21 11.4 1
  285.19 38.2 3
  301.05 61.2 5
  303.01 11379.4 999
  304.08 385.7 34
  375.20 44.9 4
  393.01 8.8 1
  418.07 508.5 45
  418.80 23.1 2
  419.41 39.3 3
  436.12 4215.2 370
  437.15 202.8 18
  464.87 15.1 1
  483.18 7.6 1
  703.91 33.1 3
//
