ACCESSION: MSBNK-Chubu_Univ-UT002579
RECORD_TITLE: Phosphatidylethanolamine 16:1-18:2; LC-ESI-ITFT; MS2; [M-H]-; RT: 13.96; Exp: 3
DATE: 2016.01.19 (Created 2010.05.07, modified 2011.08.03)
AUTHORS: Taguchi R, Graduate School of Medicine, The University of Tokyo
LICENSE: CC BY-NC-SA
PUBLICATION: Taguchi, R.; Ishikawa, M. Precise and Global Identification of Phospholipid Molecular Species by an Orbitrap Mass Spectrometer and Automated Search Engine Lipid Search. Journal of Chromatography A 2010, 1217 (25), 4229–39. DOI:10.1016/j.chroma.2010.04.034
CH$NAME: Phosphatidylethanolamine 16:1-18:2
CH$COMPOUND_CLASS: Natural Product; Glycerophospholipids; Glycerophosphoethanolamines; Diacylglycerophosphoethanolamines
CH$FORMULA: C39H72NO8P
CH$EXACT_MASS: 713.49955
CH$SMILES: C(CCCCCC=CCC=CCCC(=O)OC(COP(OCCN)(O)=O)COC(=O)CCC=CCCCCCCCCCCC)CCCC
CH$IUPAC: InChI=1S/C39H72NO8P/c1-3-5-7-9-11-13-15-17-18-20-22-24-26-28-30-32-39(42)48-37(36-47-49(43,44)46-34-33-40)35-45-38(41)31-29-27-25-23-21-19-16-14-12-10-8-6-4-2/h20,22,25-28,37H,3-19,21,23-24,29-36,40H2,1-2H3,(H,43,44)/b22-20-,27-25-,28-26-
CH$LINK: INCHIKEY FRABUNWXDQTBFH-XTKKSKBQSA-N
SP$SCIENTIFIC_NAME: Mus musculus
SP$LINEAGE: cellular organisms; Eukaryota; Fungi/Metazoa group; Metazoa; Eumetazoa; Bilateria; Coelomata; Deuterostomia; Chordata; Craniata; Vertebrata; Gnathostomata; Teleostomi; Euteleostomi; Sarcopterygii; Tetrapoda; Amniota; Mammalia; Theria; Eutheria; Euarchontoglires; Glires; Rodentia; Sciurognathi; Muroidea; Muridae; Murinae; Mus
SP$LINK: NCBI-TAXONOMY 10090
SP$SAMPLE: liver
AC$INSTRUMENT: LC-10ADVPmicro HPLC, Shimadzu; LTQ Orbitrap, Thermo Scientific
AC$INSTRUMENT_TYPE: LC-ESI-ITFT
AC$MASS_SPECTROMETRY: MS_TYPE MS2
AC$MASS_SPECTROMETRY: ION_MODE NEGATIVE
AC$MASS_SPECTROMETRY: COLLISION_ENERGY 30%
AC$MASS_SPECTROMETRY: ION_SPRAY_VOLTAGE 3500 V
AC$MASS_SPECTROMETRY: IONIZATION ESI
AC$CHROMATOGRAPHY: COLUMN_NAME Develosil C30, Nomura Chemical
AC$CHROMATOGRAPHY: FLOW_GRADIENT  add 95/5 at 0 min, 70/30 at 40 min, 50/50 at 41 min, 50/50 at 90 min
AC$CHROMATOGRAPHY: FLOW_RATE  add 100 uL/min
AC$CHROMATOGRAPHY: RETENTION_TIME 14.21 min (in paper: 14 min)
AC$CHROMATOGRAPHY: SOLVENT A acetonitrile-methanol-water (19:19:2) with 0.1% acetic acid and 0.1% ammonium hydroxide (28%)
AC$CHROMATOGRAPHY: SOLVENT B 2-propanol with 0.1% acetic acid and 0.1% ammonium hydroxide (28%)
MS$FOCUSED_ION: PRECURSOR_M/Z 712.49
MS$FOCUSED_ION: PRECURSOR_TYPE [M-H]-
MS$DATA_PROCESSING: WHOLE Xcalibur ver-2.0
PK$SPLASH: splash10-004i-0090000000-d7b09b3f9b67866653f2
PK$ANNOTATION: m/z num type mass error(ppm) formula
  253.07 1 [fa(16:1)-H]- 253.2167551751 -579 C16H29O2-
  279.09 1 [fa(18:2)-H]- 279.2324052393 -509 C18H31O2-
  432.21 2 [lyso_PE(-,18:2)-CO2]- 432.287885006 -179 C22H43NO5P-
  432.21 2 [lyso_PE(16:1,-)-H2O]- 432.2514994997 -95 C21H39NO6P-
PK$NUM_PEAK: 8
PK$PEAK: m/z int. rel.int.
  253.07 393.5 299
  254.21 43.5 33
  260.93 14.6 11
  279.09 1312.6 999
  280.20 82.6 63
  388.53 11.2 9
  429.40 17.0 13
  432.21 8.9 7
//
