ACCESSION: MSBNK-Chubu_Univ-UT001390
RECORD_TITLE: Phosphatidylethanolamine 18:2-18:2; LC-ESI-ITFT; MS2; [M-H]-; RT: 14.87; Exp: 1
DATE: 2016.01.19 (Created 2010.05.07, modified 2011.08.03)
AUTHORS: Taguchi R, Graduate School of Medicine, The University of Tokyo
LICENSE: CC BY-NC-SA
PUBLICATION: Taguchi, R.; Ishikawa, M. Precise and Global Identification of Phospholipid Molecular Species by an Orbitrap Mass Spectrometer and Automated Search Engine Lipid Search. Journal of Chromatography A 2010, 1217 (25), 4229–39. DOI:10.1016/j.chroma.2010.04.034
CH$NAME: Phosphatidylethanolamine 18:2-18:2
CH$COMPOUND_CLASS: Natural Product; Glycerophospholipids; Glycerophosphoethanolamines; Diacylglycerophosphoethanolamines
CH$FORMULA: C41H74NO8P
CH$EXACT_MASS: 739.51520
CH$SMILES: C(CC=CCC=CCCC(=O)OCC(OC(CCC=CCC=CCCCCCCCCCC)=O)COP(O)(=O)OCCN)CCCCCCCC
CH$IUPAC: InChI=1S/C41H74NO8P/c1-3-5-7-9-11-13-15-17-19-21-23-25-27-29-31-33-40(43)47-37-39(38-49-51(45,46)48-36-35-42)50-41(44)34-32-30-28-26-24-22-20-18-16-14-12-10-8-6-4-2/h21-24,27-30,39H,3-20,25-26,31-38,42H2,1-2H3,(H,45,46)/b23-21-,24-22-,29-27-,30-28-
CH$LINK: INCHIKEY WDBJINMJHHHMJV-WRGXGLASSA-N
SP$SCIENTIFIC_NAME: Mus musculus
SP$LINEAGE: cellular organisms; Eukaryota; Fungi/Metazoa group; Metazoa; Eumetazoa; Bilateria; Coelomata; Deuterostomia; Chordata; Craniata; Vertebrata; Gnathostomata; Teleostomi; Euteleostomi; Sarcopterygii; Tetrapoda; Amniota; Mammalia; Theria; Eutheria; Euarchontoglires; Glires; Rodentia; Sciurognathi; Muroidea; Muridae; Murinae; Mus
SP$LINK: NCBI-TAXONOMY 10090
SP$SAMPLE: brain
AC$INSTRUMENT: LC-10ADVPmicro HPLC, Shimadzu; LTQ Orbitrap, Thermo Scientific
AC$INSTRUMENT_TYPE: LC-ESI-ITFT
AC$MASS_SPECTROMETRY: MS_TYPE MS2
AC$MASS_SPECTROMETRY: ION_MODE NEGATIVE
AC$MASS_SPECTROMETRY: COLLISION_ENERGY 30%
AC$MASS_SPECTROMETRY: ION_SPRAY_VOLTAGE 3500 V
AC$MASS_SPECTROMETRY: IONIZATION ESI
AC$CHROMATOGRAPHY: COLUMN_NAME Develosil C30, Nomura Chemical
AC$CHROMATOGRAPHY: FLOW_GRADIENT  add 95/5 at 0 min, 70/30 at 40 min, 50/50 at 41 min, 50/50 at 90 min
AC$CHROMATOGRAPHY: FLOW_RATE  add 100 uL/min
AC$CHROMATOGRAPHY: RETENTION_TIME 14.99 min (in paper: 14.9 min)
AC$CHROMATOGRAPHY: SOLVENT A acetonitrile-methanol-water (19:19:2) with 0.1% acetic acid and 0.1% ammonium hydroxide (28%)
AC$CHROMATOGRAPHY: SOLVENT B 2-propanol with 0.1% acetic acid and 0.1% ammonium hydroxide (28%)
MS$FOCUSED_ION: PRECURSOR_M/Z 738.51
MS$FOCUSED_ION: PRECURSOR_TYPE [M-H]-
MS$DATA_PROCESSING: WHOLE Xcalibur ver-2.0
PK$SPLASH: splash10-004i-0090100000-3d2d2211c114944570a3
PK$ANNOTATION: m/z num type mass error(ppm) formula
  279.17 1 [fa(18:2)-H]- 279.2324052393 -222 C18H31O2-
  458.00 2 [lyso_PE(-,18:2)-H2O]- 458.2671495639 -582 C23H41NO6P-
  458.00 2 [lyso_PE(18:2,-)-H2O]- 458.2671495639 -582 C23H41NO6P-
  476.08 2 [lyso_PE(-,18:2)]- 476.2777142502 -414 C23H43NO7P-
  476.08 2 [lyso_PE(18:2,-)]- 476.2777142502 -414 C23H43NO7P-
  694.46 1 [PE(18:2,18:2)-H-CO2]- 694.5175505911 -82 C40H73NO6P-
PK$NUM_PEAK: 11
PK$PEAK: m/z int. rel.int.
  253.39 18.6 51
  279.17 360.9 999
  280.28 7.3 20
  303.20 17.0 47
  305.10 20.8 58
  454.52 8.0 22
  458.00 5.2 14
  476.08 43.7 121
  501.72 9.1 25
  694.46 10.1 28
  718.97 9.0 25
//
