ACCESSION: MSBNK-Chubu_Univ-UT001936
RECORD_TITLE: Phosphatidylethanolamine lyso 18:2; LC-ESI-ITFT; MS2; [M-H]-; RT: 2.10; Exp: 2
DATE: 2016.01.19 (Created 2010.05.07, modified 2011.08.03)
AUTHORS: Taguchi R, Graduate School of Medicine, The University of Tokyo
LICENSE: CC BY-NC-SA
PUBLICATION: Taguchi, R.; Ishikawa, M. Precise and Global Identification of Phospholipid Molecular Species by an Orbitrap Mass Spectrometer and Automated Search Engine Lipid Search. Journal of Chromatography A 2010, 1217 (25), 4229–39. DOI:10.1016/j.chroma.2010.04.034
CH$NAME: Phosphatidylethanolamine lyso 18:2
CH$COMPOUND_CLASS: Natural Product; Glycerophospholipids; Glycerophosphoethanolamines; Monoacylglycerophosphoethanolamines
CH$FORMULA: C23H44NO7P
CH$EXACT_MASS: 477.28554
CH$SMILES: CCCCCCCCCCC=CCC=CCCC(=O)OC(CO)COP(O)(=O)OCCN
CH$IUPAC: InChI=1S/C23H44NO7P/c1-2-3-4-5-6-7-8-9-10-11-12-13-14-15-16-17-23(26)31-22(20-25)21-30-32(27,28)29-19-18-24/h11-12,14-15,22,25H,2-10,13,16-21,24H2,1H3,(H,27,28)/b12-11-,15-14-
CH$LINK: INCHIKEY DTTGTTCKWRAIFM-HDXUUTQWSA-N
SP$SCIENTIFIC_NAME: Mus musculus
SP$LINEAGE: cellular organisms; Eukaryota; Fungi/Metazoa group; Metazoa; Eumetazoa; Bilateria; Coelomata; Deuterostomia; Chordata; Craniata; Vertebrata; Gnathostomata; Teleostomi; Euteleostomi; Sarcopterygii; Tetrapoda; Amniota; Mammalia; Theria; Eutheria; Euarchontoglires; Glires; Rodentia; Sciurognathi; Muroidea; Muridae; Murinae; Mus
SP$LINK: NCBI-TAXONOMY 10090
SP$SAMPLE: liver
AC$INSTRUMENT: LC-10ADVPmicro HPLC, Shimadzu; LTQ Orbitrap, Thermo Scientific
AC$INSTRUMENT_TYPE: LC-ESI-ITFT
AC$MASS_SPECTROMETRY: MS_TYPE MS2
AC$MASS_SPECTROMETRY: ION_MODE NEGATIVE
AC$MASS_SPECTROMETRY: COLLISION_ENERGY 30%
AC$MASS_SPECTROMETRY: ION_SPRAY_VOLTAGE 3500 V
AC$MASS_SPECTROMETRY: IONIZATION ESI
AC$CHROMATOGRAPHY: COLUMN_NAME Develosil C30, Nomura Chemical
AC$CHROMATOGRAPHY: FLOW_GRADIENT  add 95/5 at 0 min, 70/30 at 40 min, 50/50 at 41 min, 50/50 at 90 min
AC$CHROMATOGRAPHY: FLOW_RATE  add 100 uL/min
AC$CHROMATOGRAPHY: RETENTION_TIME 2.02 min (in paper: 2.1 min)
AC$CHROMATOGRAPHY: SOLVENT A acetonitrile-methanol-water (19:19:2) with 0.1% acetic acid and 0.1% ammonium hydroxide (28%)
AC$CHROMATOGRAPHY: SOLVENT B 2-propanol with 0.1% acetic acid and 0.1% ammonium hydroxide (28%)
MS$FOCUSED_ION: PRECURSOR_M/Z 476.28
MS$FOCUSED_ION: PRECURSOR_TYPE [M-H]-
MS$DATA_PROCESSING: WHOLE Xcalibur ver-2.0
PK$SPLASH: splash10-004i-0090000000-36e5e295a941c39c7b93
PK$ANNOTATION: m/z num type mass error(ppm) formula
  196.11 1 [lyso_PE(lyso,-)-H2O]- 196.0374839788 370 C5H11NO5P-
  213.96 1 [lyso_PE(lyso,-)]- 214.0480486651 -410 C5H13NO6P-
  279.05 1 [fa(18:2)-H]- 279.2324052393 -652 C18H31O2-
PK$NUM_PEAK: 9
PK$PEAK: m/z int. rel.int.
  152.71 3.9 1
  196.11 19.9 2
  204.06 5.0 1
  213.96 136.6 12
  261.32 5.1 1
  279.05 11340.6 999
  279.82 43.3 4
  334.86 11.4 1
  402.88 15.2 1
//
