ACCESSION: MSBNK-Chubu_Univ-UT002507
RECORD_TITLE: Phosphatidylcholine 17:1-18:2; LC-ESI-ITFT; MS2; [M+CH3COO]-; RT: 16.00; Exp: 3
DATE: 2016.01.19 (Created 2010.05.07, modified 2011.08.03)
AUTHORS: Taguchi R, Graduate School of Medicine, The University of Tokyo
LICENSE: CC BY-NC-SA
PUBLICATION: Taguchi, R.; Ishikawa, M. Precise and Global Identification of Phospholipid Molecular Species by an Orbitrap Mass Spectrometer and Automated Search Engine Lipid Search. Journal of Chromatography A 2010, 1217 (25), 4229–39. DOI:10.1016/j.chroma.2010.04.034
CH$NAME: Phosphatidylcholine 17:1-18:2
CH$COMPOUND_CLASS: Natural Product; Glycerophospholipids; Glycerophosphocholines; Diacylglycerophosphocholines
CH$FORMULA: C43H80NO8P
CH$EXACT_MASS: 769.56216
CH$SMILES: C(COP(OCC(COC(=O)CCC=CCCCCCCCCCCCC)OC(=O)CCC=CCC=CCCCCCCCCCC)([O-1])=O)[N+1](C)(C)C
CH$IUPAC: InChI=1S/C43H80NO8P/c1-6-8-10-12-14-16-18-20-22-24-26-28-30-32-34-36-43(46)52-41(40-51-53(47,48)50-38-37-44(3,4)5)39-49-42(45)35-33-31-29-27-25-23-21-19-17-15-13-11-9-7-2/h24,26,29-32,41H,6-23,25,27-28,33-40H2,1-5H3/b26-24-,31-29-,32-30-
CH$LINK: INCHIKEY FNRBLPPAKRRBCG-QGRKPBPISA-N
SP$SCIENTIFIC_NAME: Mus musculus
SP$LINEAGE: cellular organisms; Eukaryota; Fungi/Metazoa group; Metazoa; Eumetazoa; Bilateria; Coelomata; Deuterostomia; Chordata; Craniata; Vertebrata; Gnathostomata; Teleostomi; Euteleostomi; Sarcopterygii; Tetrapoda; Amniota; Mammalia; Theria; Eutheria; Euarchontoglires; Glires; Rodentia; Sciurognathi; Muroidea; Muridae; Murinae; Mus
SP$LINK: NCBI-TAXONOMY 10090
SP$SAMPLE: liver
AC$INSTRUMENT: LC-10ADVPmicro HPLC, Shimadzu; LTQ Orbitrap, Thermo Scientific
AC$INSTRUMENT_TYPE: LC-ESI-ITFT
AC$MASS_SPECTROMETRY: MS_TYPE MS2
AC$MASS_SPECTROMETRY: ION_MODE NEGATIVE
AC$MASS_SPECTROMETRY: COLLISION_ENERGY 30%
AC$MASS_SPECTROMETRY: ION_SPRAY_VOLTAGE 3500 V
AC$MASS_SPECTROMETRY: IONIZATION ESI
AC$CHROMATOGRAPHY: COLUMN_NAME Develosil C30, Nomura Chemical
AC$CHROMATOGRAPHY: FLOW_GRADIENT  add 95/5 at 0 min, 70/30 at 40 min, 50/50 at 41 min, 50/50 at 90 min
AC$CHROMATOGRAPHY: FLOW_RATE  add 100 uL/min
AC$CHROMATOGRAPHY: RETENTION_TIME 16.26 min (in paper: 16 min)
AC$CHROMATOGRAPHY: SOLVENT A acetonitrile-methanol-water (19:19:2) with 0.1% acetic acid and 0.1% ammonium hydroxide (28%)
AC$CHROMATOGRAPHY: SOLVENT B 2-propanol with 0.1% acetic acid and 0.1% ammonium hydroxide (28%)
MS$FOCUSED_ION: PRECURSOR_M/Z 828.57
MS$FOCUSED_ION: PRECURSOR_TYPE [M+CH3COO]-
MS$DATA_PROCESSING: WHOLE Xcalibur ver-2.0
PK$SPLASH: splash10-0udi-0000000900-7a52fc54e24c44c4a2c8
PK$ANNOTATION: m/z num type mass error(ppm) formula
  267.14 1 [fa(17:1)-H]- 267.2324052393 -345 C17H31O2-
  279.01 1 [fa(18:2)-H]- 279.2324052393 -795 C18H31O2-
PK$NUM_PEAK: 18
PK$PEAK: m/z int. rel.int.
  255.38 10.3 3
  261.69 4.7 1
  267.14 5.6 2
  279.01 16.1 5
  281.36 17.1 5
  391.39 11.6 3
  462.75 8.7 2
  517.98 13.2 4
  630.99 14.9 4
  636.50 7.5 2
  740.56 66.6 19
  741.22 32.0 9
  745.97 6.3 2
  754.12 3513.9 999
  755.08 16.8 5
  769.54 18.9 5
  771.10 4.7 1
  777.96 10.6 3
//
