ACCESSION: MSBNK-Chubu_Univ-UT001447
RECORD_TITLE: Phosphatidylethanolamine alkyl 18:0-18:1; LC-ESI-ITFT; MS2; [M-H]-; RT: 41.66; Exp: 1
DATE: 2016.01.19 (Created 2010.05.07, modified 2011.08.03)
AUTHORS: Taguchi R, Graduate School of Medicine, The University of Tokyo
LICENSE: CC BY-NC-SA
PUBLICATION: Taguchi, R.; Ishikawa, M. Precise and Global Identification of Phospholipid Molecular Species by an Orbitrap Mass Spectrometer and Automated Search Engine Lipid Search. Journal of Chromatography A 2010, 1217 (25), 4229–39. DOI:10.1016/j.chroma.2010.04.034
CH$NAME: Phosphatidylethanolamine alkyl 18:0-18:1
CH$COMPOUND_CLASS: Natural Product; Glycerophospholipids; Glycerophosphoethanolamines; 1-alkyl,2-acylglycerophosphoethanolamines
CH$FORMULA: C41H82NO7P
CH$EXACT_MASS: 731.58289
CH$SMILES: C(CCCCCCCCCCCOCC(OC(=O)CCC=CCCCCCCCCCCCCC)COP(O)(=O)OCCN)CCCCCC
CH$IUPAC: InChI=1S/C41H82NO7P/c1-3-5-7-9-11-13-15-17-19-21-23-25-27-29-31-33-36-46-38-40(39-48-50(44,45)47-37-35-42)49-41(43)34-32-30-28-26-24-22-20-18-16-14-12-10-8-6-4-2/h28,30,40H,3-27,29,31-39,42H2,1-2H3,(H,44,45)/b30-28-
CH$LINK: INCHIKEY LULOMARGYGRZLR-HYOGKJQXSA-N
SP$SCIENTIFIC_NAME: Mus musculus
SP$LINEAGE: cellular organisms; Eukaryota; Fungi/Metazoa group; Metazoa; Eumetazoa; Bilateria; Coelomata; Deuterostomia; Chordata; Craniata; Vertebrata; Gnathostomata; Teleostomi; Euteleostomi; Sarcopterygii; Tetrapoda; Amniota; Mammalia; Theria; Eutheria; Euarchontoglires; Glires; Rodentia; Sciurognathi; Muroidea; Muridae; Murinae; Mus
SP$LINK: NCBI-TAXONOMY 10090
SP$SAMPLE: brain
AC$INSTRUMENT: LC-10ADVPmicro HPLC, Shimadzu; LTQ Orbitrap, Thermo Scientific
AC$INSTRUMENT_TYPE: LC-ESI-ITFT
AC$MASS_SPECTROMETRY: MS_TYPE MS2
AC$MASS_SPECTROMETRY: ION_MODE NEGATIVE
AC$MASS_SPECTROMETRY: COLLISION_ENERGY 30%
AC$MASS_SPECTROMETRY: ION_SPRAY_VOLTAGE 3500 V
AC$MASS_SPECTROMETRY: IONIZATION ESI
AC$CHROMATOGRAPHY: COLUMN_NAME Develosil C30, Nomura Chemical
AC$CHROMATOGRAPHY: FLOW_GRADIENT  add 95/5 at 0 min, 70/30 at 40 min, 50/50 at 41 min, 50/50 at 90 min
AC$CHROMATOGRAPHY: FLOW_RATE  add 100 uL/min
AC$CHROMATOGRAPHY: RETENTION_TIME 41.88 min (in paper: 41.7 min)
AC$CHROMATOGRAPHY: SOLVENT A acetonitrile-methanol-water (19:19:2) with 0.1% acetic acid and 0.1% ammonium hydroxide (28%)
AC$CHROMATOGRAPHY: SOLVENT B 2-propanol with 0.1% acetic acid and 0.1% ammonium hydroxide (28%)
MS$FOCUSED_ION: PRECURSOR_M/Z 730.57
MS$FOCUSED_ION: PRECURSOR_TYPE [M-H]-
MS$DATA_PROCESSING: WHOLE Xcalibur ver-2.0
PK$SPLASH: splash10-001i-0090300000-5db1f626d8cb82d7c314
PK$ANNOTATION: m/z num type mass error(ppm) formula
  281.10 1 [fa(18:1)-H]- 281.2480553035 -525 C18H33O2-
  448.15 1 [lyso_PE(alkyl-18:0,-)-H2O]- 448.3191851344 -376 C23H47NO5P-
  466.18 1 [lyso_PE(alkyl-18:0,-)]- 466.3297498207 -320 C23H49NO6P-
  730.48 1 [PE(alkyl-18:0,18:1)-H]- 730.57506547 -129 C41H81NO7P-
PK$NUM_PEAK: 13
PK$PEAK: m/z int. rel.int.
  281.10 3899.9 999
  282.14 531.0 136
  309.04 28.0 7
  310.20 10.8 3
  405.13 41.2 11
  438.08 14.4 4
  448.15 198.7 51
  449.38 9.1 2
  466.18 1108.7 284
  467.17 199.0 51
  484.61 8.5 2
  659.97 9.1 2
  730.48 12.5 3
//
