ACCESSION: MSBNK-MSSJ-MSJ02833
RECORD_TITLE: Chlorxuron; LC-ESI-QTOF; MS2; [M-H]-; CID; CE 50V
DATE: 2023.10.22
AUTHORS: Atsushi Yamamoto, Faculty of Environmental Studies, Tottori University of Environmental Studies, 1-1, Wakabadai-kita, Tottori City, Tottori 689-1111, Japan.
LICENSE: CC BY
COPYRIGHT: Atsushi Yamamoto, Faculty of Environmental Studies, Tottori University of Environmental Studies, 1-1, Wakabadai-kita, Tottori City, Tottori 689-1111, Japan.
COMMENT: This record was created by the financial support of MEXT/JSPS KAKENHI Grant Number 23HP8017 to the Mass Spectrometry Society of Japan.
CH$NAME: Chlorxuron
CH$COMPOUND_CLASS: Non-natural product
CH$FORMULA: C15H15ClN2O2
CH$EXACT_MASS: 290.082205
CH$SMILES: CN(C)C(=O)NC1=CC=C(C=C1)OC2=CC=C(C=C2)Cl
CH$IUPAC: InChI=1S/C15H15ClN2O2/c1-18(2)15(19)17-12-5-9-14(10-6-12)20-13-7-3-11(16)4-8-13/h3-10H,1-2H3,(H,17,19)
CH$LINK: CAS 1982-47-4
CH$LINK: CHEMSPIDER 15299
CH$LINK: INCHIKEY IVUXTESCPZUGJC-UHFFFAOYSA-N
CH$LINK: PUBCHEM CID:16115
AC$INSTRUMENT: X500R QTOF (AB Sciex LLC, MA, USA) coupled to ExionLC AD (AB Sciex LLC, MA, USA).
AC$INSTRUMENT_TYPE: LC-ESI-QTOF
AC$MASS_SPECTROMETRY: MS_TYPE MS2
AC$MASS_SPECTROMETRY: ION_MODE NEGATIVE
AC$MASS_SPECTROMETRY: COLLISION_ENERGY 50 V
AC$MASS_SPECTROMETRY: COLLISION_GAS N2
AC$MASS_SPECTROMETRY: FRAGMENTATION_MODE CID
AC$MASS_SPECTROMETRY: IONIZATION ESI
AC$CHROMATOGRAPHY: COLUMN_NAME TSKgel ODS-100S 5 um, 2.1 mm × 250 mm, TOSOH
AC$CHROMATOGRAPHY: FLOW_GRADIENT 95/5 at 0 min, 95/5 at 3 min, 0/100 at 13 min, 0/100 at 23 min, 95/5 at 23.1 min, 95/5 at 28 min
AC$CHROMATOGRAPHY: FLOW_RATE 200 ul/min
AC$CHROMATOGRAPHY: RETENTION_TIME 15.0 min
AC$CHROMATOGRAPHY: SOLVENT A water with 20 mM formic acid aquatic solution
AC$CHROMATOGRAPHY: SOLVENT B methanol with 20 mM Formic acid methanolic solution
MS$FOCUSED_ION: PRECURSOR_M/Z 289.074928
MS$FOCUSED_ION: PRECURSOR_TYPE [M-H]-
PK$SPLASH: splash10-0089-1900000000-a571fee870fce771a381
PK$ANNOTATION: m/z rel.int. formula exact_mass error(ppm) SMILES_of_ion HR_rules
  41.9985 216 [CH3NO-3H]- 41.998539 0(0.92) O=CN True
  93.0344 27 [C6H6O-H]- 93.034586 0(2) OC=1C=CC=CC1 True
  106.0296 201 [C6H7NO-3H]- 106.029838 0(2.25) OC1=CC=C(N)C=C1 True
  118.0297 113 [C7H7NO-3H]- 118.029838 0(1.17) O=CNC=1C=CC=CC1 True
  120.0453 622 [C7H7NO-H]- 120.045488 0(1.57) O=CNC=1C=CC=CC1 True
  126.9954 73 [C6H5ClO-H]- 126.995623 0(1.75) ClC1=CC=C(O)C=C1 True
  134.0246 999 [C7H7NO2-3H]- 134.024757 0(1.17) O=CNC1=CC=C(O)C=C1 True
PK$NUM_PEAK: 10
PK$PEAK: m/z int. rel.int.
  34.9693 3.3 28
  41.9985 26.0 216
  78.0348 11.5 96
  93.0344 3.3 27
  106.0296 24.2 201
  118.0297 13.7 113
  120.0453 74.9 622
  126.9954 8.8 73
  134.0246 120.3 999
  134.0608 17.3 143
//
