ACCESSION: MSBNK-MSSJ-MSJ00511
RECORD_TITLE: 2-(4-Fluorophenyl)ethylamine; LC-ESI-QQ; MS2; POSITIVE; [M+H]+; CID; 20 V
DATE: 2021.03.25
AUTHORS: Daiki Asakawa, National Institute of Advanced Industrial Science and Technology, 1-1-1 Umezono, Tsukuba, Ibaraki 305-8568, Japan.
LICENSE: CC BY
COPYRIGHT: Daiki Asakawa, National Institute of Advanced Industrial Science and Technology, 1-1-1 Umezono, Tsukuba, Ibaraki 305-8568, Japan.
PUBLICATION: Daiki Asakawa, Hajime Mizuno, Eiji Sugiyama, and Kenichiro Todoroki, Anal. Chem., 92 (17), 12033-12039 (2020). [DOI: 10.1021/acs.analchem.0c02667]
COMMENT: This record was created by the financial support of MEXT/JSPS KAKENHI Grant Number 20HP8016 to the Mass Spectrometry Society of Japan.
CH$NAME: 2-(4-Fluorophenyl)ethylamine
CH$COMPOUND_CLASS: Non-natural product; Phenethylamine
CH$FORMULA: C8H10FN
CH$EXACT_MASS: 139.07972
CH$SMILES: C1=CC(=CC=C1CCN)F
CH$IUPAC: InChI=1S/C8H10FN/c9-8-3-1-7(2-4-8)5-6-10/h1-4H,5-6,10H2
CH$LINK: CAS 1583-88-6
CH$LINK: CHEMSPIDER 4492
CH$LINK: INCHIKEY CKLFJWXRWIQYOC-UHFFFAOYSA-N
CH$LINK: PUBCHEM CID:4653
AC$INSTRUMENT: Xevo TQS micro (Waters, MA, USA) coupled to ACQUITY UPLC H-Class (Waters, MA, USA)
AC$INSTRUMENT_TYPE: LC-ESI-QQ
AC$MASS_SPECTROMETRY: MS_TYPE MS2
AC$MASS_SPECTROMETRY: ION_MODE POSITIVE
AC$MASS_SPECTROMETRY: COLLISION_ENERGY 20 V
AC$MASS_SPECTROMETRY: FRAGMENTATION_MODE CID
AC$MASS_SPECTROMETRY: IONIZATION ESI
AC$CHROMATOGRAPHY: COLUMN_NAME Acquity UPLC BEH AMIDE column (1.7 µm, 2.1 x 150 mm; Waters, MA, USA)
AC$CHROMATOGRAPHY: COLUMN_TEMPERATURE 40 C
AC$CHROMATOGRAPHY: FLOW_GRADIENT 0-2 min, 100% MPB; 2-2.5 min, 90-70% MPB; 2.5-3 min, 70% MPB; 3-5 min, 100% MPB
AC$CHROMATOGRAPHY: FLOW_RATE 0.4 mL/min
AC$CHROMATOGRAPHY: SOLVENT A consisted of 95:5 water:acetonitrile containing either 100 mM ammonium formate buffered to pH 3.0
AC$CHROMATOGRAPHY: SOLVENT MPB consisted of 15:85 water:acetonitrile containing 100 mM ammonium formate buffered to pH 3.0
MS$FOCUSED_ION: PRECURSOR_M/Z 140.087000
MS$FOCUSED_ION: PRECURSOR_TYPE [M+H]+
PK$SPLASH: splash10-0udi-2900000000-b88dc906415c4f269d32
PK$NUM_PEAK: 11
PK$PEAK: m/z int. rel.int.
  76.8 85.7 122
  77.0 126.2 179
  97.0 9.8 14
  97.3 3.2 5
  100.9 3.6 5
  101.7 4.4 6
  101.9 3.5 5
  102.1 5.5 8
  103.0 704.6 999
  123.0 148.8 211
  123.3 52.0 74
//
