ACCESSION: MSBNK-MSSJ-MSJ00980
RECORD_TITLE: Malonylglycitin; ESI-QTOF; MS2; POSITIVE; [M+H]+; CID; 10 V
DATE: 2021.10.16
AUTHORS: Atsushi Yamamoto, Faculty of Environmental Studies, Tottori University of Environmental Studies, 1-1, Wakabadai-kita, Tottori City, Tottori 689-1111, Japan.
LICENSE: CC BY
COPYRIGHT: Atsushi Yamamoto, Faculty of Environmental Studies, Tottori University of Environmental Studies, 1-1, Wakabadai-kita, Tottori City, Tottori 689-1111, Japan.
COMMENT: The sample was injected by direct infusion.
COMMENT: This record was created by the financial support of MEXT/JSPS KAKENHI Grant Number 21HP8020 to the Mass Spectrometry Society of Japan.
CH$NAME: Malonylglycitin
CH$COMPOUND_CLASS: 7-hydroxyisoflavone
CH$FORMULA: C25H24O13
CH$EXACT_MASS: 532.12169
CH$SMILES: COC1=C(C=C2C(=C1)C(=O)C(=CO2)C3=CC=C(C=C3)O)O[C@H]4[C@@H]([C@H]([C@@H]([C@H](O4)COC(=O)CC(=O)O)O)O)O
CH$IUPAC: InChI=1S/C25H24O13/c1-34-16-6-13-15(35-9-14(21(13)30)11-2-4-12(26)5-3-11)7-17(16)37-25-24(33)23(32)22(31)18(38-25)10-36-20(29)8-19(27)28/h2-7,9,18,22-26,31-33H,8,10H2,1H3,(H,27,28)/t18-,22-,23+,24-,25-/m1/s1
CH$LINK: CAS 137705-39-6
CH$LINK: CHEBI CHEBI:80374
CH$LINK: CHEMSPIDER 30777345
CH$LINK: INCHIKEY OWMHCYFEIJPHFB-GOZZSVHWSA-N
CH$LINK: PUBCHEM CID:23724657
AC$INSTRUMENT: X500R QTOF (AB Sciex LLC, USA)
AC$INSTRUMENT_TYPE: ESI-QTOF
AC$MASS_SPECTROMETRY: MS_TYPE MS2
AC$MASS_SPECTROMETRY: ION_MODE POSITIVE
AC$MASS_SPECTROMETRY: COLLISION_ENERGY 10 V
AC$MASS_SPECTROMETRY: FRAGMENTATION_MODE CID
AC$MASS_SPECTROMETRY: IONIZATION ESI
MS$FOCUSED_ION: PRECURSOR_M/Z 533.12897
MS$FOCUSED_ION: PRECURSOR_TYPE [M+H]+
PK$SPLASH: splash10-001i-0000090000-6edf5dbd3effd528baf4
PK$NUM_PEAK: 3
PK$PEAK: m/z int. rel.int.
  285.0762 0.35659 72
  501.0481 0.47673 97
  533.1291 4.927 999
//
