ACCESSION: MSBNK-MSSJ-MSJ00478
RECORD_TITLE: Tetrabromobisphenol A; ESI-QTOF; MS2; NEGATIVE; [M-H]-; CID; 30 V
DATE: 2021.02.17
AUTHORS: Atsushi Yamamoto, Faculty of Environmental Studies, Tottori University of Environmental Studies, 1-1, Wakabadai-kita, Tottori City, Tottori 689-1111, Japan.
LICENSE: CC BY
COPYRIGHT: Atsushi Yamamoto, Faculty of Environmental Studies, Tottori University of Environmental Studies, 1-1, Wakabadai-kita, Tottori City, Tottori 689-1111, Japan.
COMMENT: The sample was injected by direct infusion. The precursor ion is the principal ion.
COMMENT: This record was created by the financial support of MEXT/JSPS KAKENHI Grant Number 20HP8016 to the Mass Spectrometry Society of Japan.
CH$NAME: Tetrabromobisphenol A
CH$COMPOUND_CLASS: Non-natural product; Bromobisphenol
CH$FORMULA: C15H12Br4O2
CH$EXACT_MASS: 539.75708
CH$SMILES: CC(C)(C1=CC(=C(C(=C1)Br)O)Br)C2=CC(=C(C(=C2)Br)O)Br
CH$IUPAC: InChI=1S/C15H12Br4O2/c1-15(2,7-3-9(16)13(20)10(17)4-7)8-5-11(18)14(21)12(19)6-8/h3-6,20-21H,1-2H3
CH$LINK: CAS 79-94-7
CH$LINK: CHEBI CHEBI:33217
CH$LINK: CHEMSPIDER 6366
CH$LINK: INCHIKEY VEORPZCZECFIRK-UHFFFAOYSA-N
CH$LINK: PUBCHEM CID:6618
AC$INSTRUMENT: X500R QTOF (AB Sciex LLC, USA)
AC$INSTRUMENT_TYPE: ESI-QTOF
AC$MASS_SPECTROMETRY: MS_TYPE MS2
AC$MASS_SPECTROMETRY: ION_MODE NEGATIVE
AC$MASS_SPECTROMETRY: COLLISION_ENERGY 30 V
AC$MASS_SPECTROMETRY: FRAGMENTATION_MODE CID
AC$MASS_SPECTROMETRY: IONIZATION ESI
MS$FOCUSED_ION: PRECURSOR_M/Z 542.74571
MS$FOCUSED_ION: PRECURSOR_TYPE [M-H]-
PK$SPLASH: splash10-0006-0000090000-9396d9d2989ec8f11d3a
PK$NUM_PEAK: 3
PK$PEAK: m/z int. rel.int.
  78.9195 10.3 14
  80.9175 10.7 15
  542.7502 713.9 999
//
