ACCESSION: MSBNK-MSSJ-MSJ02889
RECORD_TITLE: Carpropamid; LC-ESI-QTOF; MS2; [M+H]+; CID; CE 30V
DATE: 2023.10.22
AUTHORS: Atsushi Yamamoto, Faculty of Environmental Studies, Tottori University of Environmental Studies, 1-1, Wakabadai-kita, Tottori City, Tottori 689-1111, Japan.
LICENSE: CC BY
COPYRIGHT: Atsushi Yamamoto, Faculty of Environmental Studies, Tottori University of Environmental Studies, 1-1, Wakabadai-kita, Tottori City, Tottori 689-1111, Japan.
COMMENT: This record was created by the financial support of MEXT/JSPS KAKENHI Grant Number 23HP8017 to the Mass Spectrometry Society of Japan.
CH$NAME: Carpropamid
CH$COMPOUND_CLASS: Non-natural product
CH$FORMULA: C15H18Cl3NO
CH$EXACT_MASS: 333.045397
CH$SMILES: CCC1(C(C1(Cl)Cl)C)C(=O)NC(C)C2=CC=C(C=C2)Cl
CH$IUPAC: InChI=1S/C15H18Cl3NO/c1-4-14(10(3)15(14,17)18)13(20)19-9(2)11-5-7-12(16)8-6-11/h5-10H,4H2,1-3H3,(H,19,20)
CH$LINK: CAS 104030-54-8
CH$LINK: CHEMSPIDER 135588
CH$LINK: INCHIKEY RXDMAYSSBPYBFW-UHFFFAOYSA-N
CH$LINK: PUBCHEM CID:153847
AC$INSTRUMENT: X500R QTOF (AB Sciex LLC, MA, USA) coupled to ExionLC AD (AB Sciex LLC, MA, USA).
AC$INSTRUMENT_TYPE: LC-ESI-QTOF
AC$MASS_SPECTROMETRY: MS_TYPE MS2
AC$MASS_SPECTROMETRY: ION_MODE POSITIVE
AC$MASS_SPECTROMETRY: COLLISION_ENERGY 30 V
AC$MASS_SPECTROMETRY: COLLISION_GAS N2
AC$MASS_SPECTROMETRY: FRAGMENTATION_MODE CID
AC$MASS_SPECTROMETRY: IONIZATION ESI
AC$CHROMATOGRAPHY: COLUMN_NAME TSKgel ODS-100S 5 um, 2.1 mm × 250 mm, TOSOH
AC$CHROMATOGRAPHY: FLOW_GRADIENT 95/5 at 0 min, 95/5 at 3 min, 0/100 at 13 min, 0/100 at 23 min, 95/5 at 23.1 min, 95/5 at 28 min
AC$CHROMATOGRAPHY: FLOW_RATE 200 ul/min
AC$CHROMATOGRAPHY: RETENTION_TIME 15.5 min
AC$CHROMATOGRAPHY: SOLVENT A water with 20 mM formic acid aquatic solution
AC$CHROMATOGRAPHY: SOLVENT B methanol with 20 mM Formic acid methanolic solution
MS$FOCUSED_ION: PRECURSOR_M/Z 334.052674
MS$FOCUSED_ION: PRECURSOR_TYPE [M+H]+
PK$SPLASH: splash10-000i-1900000000-75d1ff0d9ec4471ffec2
PK$ANNOTATION: m/z rel.int. formula exact_mass error(ppm) SMILES_of_ion HR_rules
  81.0695 87 [C6H12-3H]+ 81.069879 0(4.67) CCC1CC1C True
  89.015 63 [C4H7Cl-H]+ 89.015255 0(2.86) ClC1CC1C True
  103.0539 391 [C8H10-3H]+ 103.054223 0(3.14) C=1C=CC(=CC1)CC True
  124.0754 193 [C7H13NO-3H]+ 124.075693 0(2.36) O=C(N)C1(CC)CC1C True
  139.0303 999 [C8H9Cl-H]+ 139.030903 0.001(4.33) ClC1=CC=C(C=C1)CC True
  160.0521 254 [C7H12ClNO-H]+ 160.052372 0(1.7) O=C(N)C1(CC)C(Cl)C1C True
  196.0291 186 [C7H11Cl2NO+H]+ 196.029051 0(0.25) O=C(N)C1(CC)C(C)C1(Cl)Cl True
PK$NUM_PEAK: 9
PK$PEAK: m/z int. rel.int.
  81.0695 30.8 87
  89.015 22.3 63
  96.0805 46.2 131
  103.0539 138.2 391
  124.0754 68.0 193
  132.0572 59.4 168
  139.0303 353.0 999
  160.0521 89.9 254
  196.0291 65.9 186
//
