ACCESSION: MSBNK-MSSJ-MSJ00306
RECORD_TITLE: Pachymic acid; ESI-QTOF; MS2; NEGATIVE; [M-H]-; CID; 40 V
DATE: 2020.10.18
AUTHORS: Atsushi Yamamoto, Faculty of Environmental Studies, Tottori University of Environmental Studies, 1-1, Wakabadai-kita, Tottori City, Tottori 689-1111, Japan.
LICENSE: CC BY
COPYRIGHT: Atsushi Yamamoto, Faculty of Environmental Studies, Tottori University of Environmental Studies, 1-1, Wakabadai-kita, Tottori City, Tottori 689-1111, Japan.
COMMENT: The sample was injected by direct infusion.
COMMENT: This record was created by the financial support of MEXT/JSPS KAKENHI Grant Number 20HP8016 to the Mass Spectrometry Society of Japan.
CH$NAME: Pachymic acid
CH$COMPOUND_CLASS: Non-natural product; Triterpenoid
CH$FORMULA: C33H52O5
CH$EXACT_MASS: 528.38148
CH$SMILES: CC(C)C(=C)CC[C@H]([C@H]1[C@@H](C[C@@]2([C@@]1(CCC3=C2CC[C@@H]4[C@@]3(CC[C@@H](C4(C)C)OC(=O)C)C)C)C)O)C(=O)O
CH$IUPAC: InChI=1S/C33H52O5/c1-19(2)20(3)10-11-22(29(36)37)28-25(35)18-33(9)24-12-13-26-30(5,6)27(38-21(4)34)15-16-31(26,7)23(24)14-17-32(28,33)8/h19,22,25-28,35H,3,10-18H2,1-2,4-9H3,(H,36,37)/t22-,25-,26+,27+,28+,31-,32-,33+/m1/s1
CH$LINK: CAS 29070-92-6
CH$LINK: CHEBI CHEBI:80885
CH$LINK: CHEMSPIDER 4588502
CH$LINK: INCHIKEY VDYCLYGKCGVBHN-DRCQUEPLSA-N
CH$LINK: PUBCHEM CID:5484385
AC$INSTRUMENT: X500R QTOF (AB Sciex LLC, USA)
AC$INSTRUMENT_TYPE: ESI-QTOF
AC$MASS_SPECTROMETRY: MS_TYPE MS2
AC$MASS_SPECTROMETRY: ION_MODE NEGATIVE
AC$MASS_SPECTROMETRY: COLLISION_ENERGY 40 V
AC$MASS_SPECTROMETRY: FRAGMENTATION_MODE CID
AC$MASS_SPECTROMETRY: IONIZATION ESI
MS$FOCUSED_ION: PRECURSOR_M/Z 527.374198
MS$FOCUSED_ION: PRECURSOR_TYPE [M-H]-
PK$SPLASH: splash10-00or-0000690000-03df5e53898d67f507dd
PK$NUM_PEAK: 17
PK$PEAK: m/z int. rel.int.
  43.0186 3.775 9
  59.0134 13.223 31
  97.0658 2.246 5
  193.1599 5.097 12
  221.191 21.382 50
  317.2131 6.99 16
  413.2706 9.102 21
  431.2811 14.245 33
  449.3429 8.582 20
  465.3367 173.276 402
  467.353 102.108 237
  481.3695 32.395 75
  483.3843 19.467 45
  525.3597 23.622 55
  527.3712 430.215 999
  528.3824 23.733 55
  528.477 6.278 15
//
