ACCESSION: MSBNK-MSSJ-MSJ01531
RECORD_TITLE: Oxazepam; LC-ESI-QQ; MS2; ESI; POSITIVE; CE 30 V; [M+H]+
DATE: 2023.03.24
AUTHORS: Koji Yamaguchi, Department of Legal Medicine, Nippon Medical School, 1715 Kamagari, Inzai-shi, Chiba 270-1694, Japan.
LICENSE: CC BY
COPYRIGHT: Koji Yamaguchi, Department of Legal Medicine, Nippon Medical School, 1715 Kamagari, Inzai-shi, Chiba 270-1694, Japan.
COMMENT: Original data are in the 20230324_Revised.xlsx file.
COMMENT: This record was created by the financial support of MEXT/JSPS KAKENHI Grant Number 23HP8017 to the Mass Spectrometry Society of Japan.
CH$NAME: Oxazepam
CH$COMPOUND_CLASS: Non-natural product
CH$FORMULA: C15H11ClN2O2
CH$EXACT_MASS: 286.05090
CH$SMILES: C1=CC=C(C=C1)C2=NC(C(=O)NC3=C2C=C(C=C3)Cl)O
CH$IUPAC: InChI=1S/C15H11ClN2O2/c16-10-6-7-12-11(8-10)13(9-4-2-1-3-5-9)18-15(20)14(19)17-12/h1-8,15,20H,(H,17,19)
CH$LINK: CAS 604-75-1
CH$LINK: CHEMSPIDER 4455
CH$LINK: INCHIKEY ADIMAYPTOBDMTL-UHFFFAOYSA-N
CH$LINK: PUBCHEM CID:4616
AC$INSTRUMENT: LCMS-8040 coupled to Nexera XR, Shimadzu, Kyoto, Japan.
AC$INSTRUMENT_TYPE: LC-ESI-QQ
AC$MASS_SPECTROMETRY: MS_TYPE MS2
AC$MASS_SPECTROMETRY: ION_MODE POSITIVE
AC$MASS_SPECTROMETRY: COLLISION_ENERGY 30 V
AC$MASS_SPECTROMETRY: IONIZATION ESI
AC$CHROMATOGRAPHY: COLUMN_NAME InertSustain C18 ID 2.1 microm, 2.1 x 100 mm (GL Science, Tokyo, Japan).
AC$CHROMATOGRAPHY: FLOW_GRADIENT 90/10 at 0 min, linear gradient from 90/10 to 2/98 at 0-9 min, 2/98 at 9-12 min, linear gradient from 2/98 to 90/10 at 12-12.1 min, 90/10 at 12.1-15 min.
AC$CHROMATOGRAPHY: FLOW_RATE 200 microL/min
AC$CHROMATOGRAPHY: RETENTION_TIME 8.957 min
AC$CHROMATOGRAPHY: SOLVENT A water with 10 mM ammonium formate
AC$CHROMATOGRAPHY: SOLVENT B methanol
MS$FOCUSED_ION: PRECURSOR_M/Z 287.05818
MS$FOCUSED_ION: PRECURSOR_TYPE [M+H]+
PK$SPLASH: splash10-0006-1590000000-3952f756725177877d83
PK$NUM_PEAK: 21
PK$PEAK: m/z int. rel.int.
  39 816 33
  57 326 13
  77 816 33
  93 1985 82
  104 7308 300
  118 407 17
  128 2122 87
  129 1559 64
  138 1974 81
  149 407 17
  153 4472 184
  163 2733 112
  166 2346 96
  214 1949 80
  229 1878 77
  231 2939 121
  241 24333 999
  257 816 33
  268 816 33
  269 1878 77
  287 816 33
//
