ACCESSION: MSBNK-MSSJ-MSJ02197
RECORD_TITLE: 1,6-Di(Cyanoguanidino)hexane; ESI-QTOF; MS2; ESI; POSITIVE; [M+H]+; CE 10 V
DATE: 2021.10.06
AUTHORS: Atsushi Yamamoto, Faculty of Environmental Studies, Tottori University of Environmental Studies, 1-1, Wakabadai-kita, Tottori City, Tottori 689-1111, Japan.
LICENSE: CC BY
COPYRIGHT: Atsushi Yamamoto, Faculty of Environmental Studies, Tottori University of Environmental Studies, 1-1, Wakabadai-kita, Tottori City, Tottori 689-1111, Japan.
COMMENT: This record was created by the financial support of MEXT/JSPS KAKENHI Grant Number 22HP8019 to the Mass Spectrometry Society of Japan.
COMMENT: The sample was injected by direct infusion.
CH$NAME: 1,6-Di(Cyanoguanidino)hexane
CH$COMPOUND_CLASS: Non-natural product
CH$FORMULA: C10H18N8
CH$EXACT_MASS: 250.16541
CH$SMILES: N#CNC(=N)NCCCCCCNC(=N)NC#N
CH$IUPAC: InChI=1S/C10H18N8/c11-7-17-9(13)15-5-3-1-2-4-6-16-10(14)18-8-12/h1-6H2,(H3,13,15,17)(H3,14,16,18)
CH$LINK: CAS 15894-70-9
CH$LINK: CHEMSPIDER 76812
CH$LINK: INCHIKEY YXZZOMVBHPCKMM-UHFFFAOYSA-N
CH$LINK: PUBCHEM CID:85172
AC$INSTRUMENT: X500R QTOF (AB Sciex LLC, USA)
AC$INSTRUMENT_TYPE: ESI-QTOF
AC$MASS_SPECTROMETRY: MS_TYPE MS2
AC$MASS_SPECTROMETRY: ION_MODE POSITIVE
AC$MASS_SPECTROMETRY: COLLISION_ENERGY 10 V
AC$MASS_SPECTROMETRY: IONIZATION ESI
MS$FOCUSED_ION: PRECURSOR_M/Z 251.17269
MS$FOCUSED_ION: PRECURSOR_TYPE [M+H]+
PK$SPLASH: splash10-0udi-0090000000-6034e677508a7a739444
PK$ANNOTATION: m/z rel.int. formula exact_mass error(ppm) SMILES_of_ion HR_rules
  209.1509 229 [C9H18N6-H]+ 209.150913 0(0.06) N#CNC(=N)NCCCCCCNC=N True
  251.1704 999 [C10H18N8+H]+ 251.172712 0.002(9.21) N#CNC(=N)NCCCCCCNC(=N)NC#N True
PK$NUM_PEAK: 2
PK$PEAK: m/z int. rel.int.
  209.1509 22.9119 229
  251.1704 100 999
//
