ACCESSION: MSBNK-MSSJ-MSJ00342
RECORD_TITLE: p-Cresol sulfate; ESI-QTOF; MS2; NEGATIVE; [M-H]-; CID; 60 V
DATE: 2020.11.28
AUTHORS: Atsushi Yamamoto, Faculty of Environmental Studies, Tottori University of Environmental Studies, 1-1, Wakabadai-kita, Tottori City, Tottori 689-1111, Japan.
LICENSE: CC BY
COPYRIGHT: Atsushi Yamamoto, Faculty of Environmental Studies, Tottori University of Environmental Studies, 1-1, Wakabadai-kita, Tottori City, Tottori 689-1111, Japan.
COMMENT: The sample was injected by direct infusion.
COMMENT: This record was created by the financial support of MEXT/JSPS KAKENHI Grant Number 20HP8016 to the Mass Spectrometry Society of Japan.
CH$NAME: p-Cresol sulfate
CH$COMPOUND_CLASS: Non-natural product; Aryl sulfate
CH$FORMULA: C7H8O4S
CH$EXACT_MASS: 188.01433
CH$SMILES: CC1=CC=C(C=C1)OS(=O)(=O)O
CH$IUPAC: InChI=1S/C7H8O4S/c1-6-2-4-7(5-3-6)11-12(8,9)10/h2-5H,1H3,(H,8,9,10)
CH$LINK: CAS 3233-58-7
CH$LINK: CHEBI CHEBI:82914
CH$LINK: CHEMSPIDER 3806481
CH$LINK: INCHIKEY WGNAKZGUSRVWRH-UHFFFAOYSA-N
CH$LINK: PUBCHEM CID:4615423
AC$INSTRUMENT: X500R QTOF (AB Sciex LLC, USA)
AC$INSTRUMENT_TYPE: ESI-QTOF
AC$MASS_SPECTROMETRY: MS_TYPE MS2
AC$MASS_SPECTROMETRY: ION_MODE NEGATIVE
AC$MASS_SPECTROMETRY: COLLISION_ENERGY 60 V
AC$MASS_SPECTROMETRY: FRAGMENTATION_MODE CID
AC$MASS_SPECTROMETRY: IONIZATION ESI
MS$FOCUSED_ION: PRECURSOR_M/Z 187.007054
MS$FOCUSED_ION: PRECURSOR_TYPE [M-H]-
PK$SPLASH: splash10-0a6r-9700000000-d051e399e37e135eadec
PK$NUM_PEAK: 8
PK$PEAK: m/z int. rel.int.
  77.0384 175.936 597
  79.0547 17.565 60
  79.9557 284.414 965
  80.9647 13.143 45
  92.0254 154.274 523
  105.0333 127.453 432
  106.0411 124.449 422
  107.0484 294.436 999
//
