ACCESSION: MSBNK-MSSJ-MSJ02830
RECORD_TITLE: Chlorxuron; LC-ESI-QTOF; MS2; [M-H]-; CID; CE 20V
DATE: 2023.10.22
AUTHORS: Atsushi Yamamoto, Faculty of Environmental Studies, Tottori University of Environmental Studies, 1-1, Wakabadai-kita, Tottori City, Tottori 689-1111, Japan.
LICENSE: CC BY
COPYRIGHT: Atsushi Yamamoto, Faculty of Environmental Studies, Tottori University of Environmental Studies, 1-1, Wakabadai-kita, Tottori City, Tottori 689-1111, Japan.
COMMENT: This record was created by the financial support of MEXT/JSPS KAKENHI Grant Number 23HP8017 to the Mass Spectrometry Society of Japan.
CH$NAME: Chlorxuron
CH$COMPOUND_CLASS: Non-natural product
CH$FORMULA: C15H15ClN2O2
CH$EXACT_MASS: 290.082205
CH$SMILES: CN(C)C(=O)NC1=CC=C(C=C1)OC2=CC=C(C=C2)Cl
CH$IUPAC: InChI=1S/C15H15ClN2O2/c1-18(2)15(19)17-12-5-9-14(10-6-12)20-13-7-3-11(16)4-8-13/h3-10H,1-2H3,(H,17,19)
CH$LINK: CAS 1982-47-4
CH$LINK: CHEMSPIDER 15299
CH$LINK: INCHIKEY IVUXTESCPZUGJC-UHFFFAOYSA-N
CH$LINK: PUBCHEM CID:16115
AC$INSTRUMENT: X500R QTOF (AB Sciex LLC, MA, USA) coupled to ExionLC AD (AB Sciex LLC, MA, USA).
AC$INSTRUMENT_TYPE: LC-ESI-QTOF
AC$MASS_SPECTROMETRY: MS_TYPE MS2
AC$MASS_SPECTROMETRY: ION_MODE NEGATIVE
AC$MASS_SPECTROMETRY: COLLISION_ENERGY 20 V
AC$MASS_SPECTROMETRY: COLLISION_GAS N2
AC$MASS_SPECTROMETRY: FRAGMENTATION_MODE CID
AC$MASS_SPECTROMETRY: IONIZATION ESI
AC$CHROMATOGRAPHY: COLUMN_NAME TSKgel ODS-100S 5 um, 2.1 mm × 250 mm, TOSOH
AC$CHROMATOGRAPHY: FLOW_GRADIENT 95/5 at 0 min, 95/5 at 3 min, 0/100 at 13 min, 0/100 at 23 min, 95/5 at 23.1 min, 95/5 at 28 min
AC$CHROMATOGRAPHY: FLOW_RATE 200 ul/min
AC$CHROMATOGRAPHY: RETENTION_TIME 15.0 min
AC$CHROMATOGRAPHY: SOLVENT A water with 20 mM formic acid aquatic solution
AC$CHROMATOGRAPHY: SOLVENT B methanol with 20 mM Formic acid methanolic solution
MS$FOCUSED_ION: PRECURSOR_M/Z 289.074928
MS$FOCUSED_ION: PRECURSOR_TYPE [M-H]-
PK$SPLASH: splash10-000i-0190000000-bfbad48ac1956873edf0
PK$ANNOTATION: m/z rel.int. formula exact_mass error(ppm) SMILES_of_ion HR_rules
  41.9985 9 [CH3NO-3H]- 41.998539 0(0.92) O=CN True
  134.0248 21 [C7H7NO2-3H]- 134.024757 0(0.32) O=CNC1=CC=C(O)C=C1 True
  163.0515 21 [C8H10N2O2-3H]- 163.051307 0(1.18) O=C(NC1=CC=C(O)C=C1)NC True
  244.017 308 [C13H10ClNO2-3H]- 244.017082 0(0.34) O=CNC1=CC=C(OC2=CC=C(Cl)C=C2)C=C1 True
  289.0745 999 [C15H15ClN2O2-H]- 289.074938 0(1.51) O=C(NC1=CC=C(OC2=CC=C(Cl)C=C2)C=C1)N(C)C True
PK$NUM_PEAK: 6
PK$PEAK: m/z int. rel.int.
  41.9985 5.5 9
  134.0248 12.4 21
  163.0515 12.2 21
  178.0749 61.8 104
  244.017 182.6 308
  289.0745 592.2 999
//
