ACCESSION: MSBNK-MSSJ-MSJ02783
RECORD_TITLE: Tebuthiuron; LC-ESI-QTOF; MS2; [M+H]+; CID; CE 40V
DATE: 2023.10.22
AUTHORS: Atsushi Yamamoto, Faculty of Environmental Studies, Tottori University of Environmental Studies, 1-1, Wakabadai-kita, Tottori City, Tottori 689-1111, Japan.
LICENSE: CC BY
COPYRIGHT: Atsushi Yamamoto, Faculty of Environmental Studies, Tottori University of Environmental Studies, 1-1, Wakabadai-kita, Tottori City, Tottori 689-1111, Japan.
COMMENT: This record was created by the financial support of MEXT/JSPS KAKENHI Grant Number 23HP8017 to the Mass Spectrometry Society of Japan.
CH$NAME: Tebuthiuron
CH$COMPOUND_CLASS: Non-natural product
CH$FORMULA: C9H16N4OS
CH$EXACT_MASS: 228.104482
CH$SMILES: CC(C)(C)C1=NN=C(S1)N(C)C(=O)NC
CH$IUPAC: InChI=1S/C9H16N4OS/c1-9(2,3)6-11-12-8(15-6)13(5)7(14)10-4/h1-5H3,(H,10,14)
CH$LINK: CAS 34014-18-1
CH$LINK: CHEMSPIDER 5190
CH$LINK: INCHIKEY HBPDKDSFLXWOAE-UHFFFAOYSA-N
CH$LINK: PUBCHEM CID:5383
AC$INSTRUMENT: X500R QTOF (AB Sciex LLC, MA, USA) coupled to ExionLC AD (AB Sciex LLC, MA, USA).
AC$INSTRUMENT_TYPE: LC-ESI-QTOF
AC$MASS_SPECTROMETRY: MS_TYPE MS2
AC$MASS_SPECTROMETRY: ION_MODE POSITIVE
AC$MASS_SPECTROMETRY: COLLISION_ENERGY 40 V
AC$MASS_SPECTROMETRY: COLLISION_GAS N2
AC$MASS_SPECTROMETRY: FRAGMENTATION_MODE CID
AC$MASS_SPECTROMETRY: IONIZATION ESI
AC$CHROMATOGRAPHY: COLUMN_NAME TSKgel ODS-100S 5 um, 2.1 mm × 250 mm, TOSOH
AC$CHROMATOGRAPHY: FLOW_GRADIENT 95/5 at 0 min, 95/5 at 3 min, 0/100 at 13 min, 0/100 at 23 min, 95/5 at 23.1 min, 95/5 at 28 min
AC$CHROMATOGRAPHY: FLOW_RATE 200 ul/min
AC$CHROMATOGRAPHY: RETENTION_TIME 13.4 min
AC$CHROMATOGRAPHY: SOLVENT A water with 20 mM formic acid aquatic solution
AC$CHROMATOGRAPHY: SOLVENT B methanol with 20 mM Formic acid methanolic solution
MS$FOCUSED_ION: PRECURSOR_M/Z 229.111759
MS$FOCUSED_ION: PRECURSOR_TYPE [M+H]+
PK$SPLASH: splash10-0avi-4900000000-f638fc4b7b0c53877f35
PK$ANNOTATION: m/z rel.int. formula exact_mass error(ppm) SMILES_of_ion HR_rules
  41.0383 43 [C3H8-3H]+ 41.038575 0(6.71) CCC True
  43.0289 79 [CH4N2-H]+ 43.029075 0(4.07) N=CN True
  57.0446 256 [C2H6N2-H]+ 57.044723 0(2.16) N=CNC True
  62.0056 278 [CH3NS+H]+ 62.005896 0(4.77) N=CS True
  74.0057 371 [C2H7NS-3H]+ 74.005899 0(2.69) SCNC True
  89.0167 312 [C2H6N2S-H]+ 89.016796 0(1.08) N=C(S)NC True
  101.0418 63 [C5H12S-3H]+ 101.041948 0(1.46) SCC(C)(C)C True
  116.0273 999 [C3H5N3S+H]+ 116.027693 0(3.38) N=1N=C(SC1)NC True
  142.0433 306 [C5H9N3S-H]+ 142.043338 0(0.27) N=1N=C(SC1N)C(C)C True
  156.059 239 [C6H11N3S-H]+ 156.058994 0(0.04) N=1N=C(SC1N)C(C)(C)C True
  157.0666 596 [C6H11N3S]+ 157.066819 0(1.39) N=1N=C(SC1N)C(C)(C)C False
  172.0899 824 [C7H13N3S+H]+ 172.0903 0(2.32) N=1N=C(SC1NC)C(C)(C)C True
PK$NUM_PEAK: 13
PK$PEAK: m/z int. rel.int.
  41.0383 12.4 43
  43.0289 22.7 79
  57.0446 73.9 256
  57.0693 35.4 123
  62.0056 80.3 278
  74.0057 107.1 371
  89.0167 90.1 312
  101.0418 18.1 63
  116.0273 288.2 999
  142.0433 88.1 306
  156.059 68.9 239
  157.0666 172.0 596
  172.0899 237.6 824
//
