ACCESSION: MSBNK-MSSJ-MSJ00146
RECORD_TITLE: Fucoxanthin; LC-ESI-QTOF; MS2; POSITIVE; ESI; [M+H]+; COLLISION_ENERGY 10 V
DATE: 2019.05.15
AUTHORS: Takashi Maoka, Research Institute for Production Development, Kyoto 606-0805, Japan.
LICENSE: CC BY
COPYRIGHT: Takashi Maoka, Research Institute for Production Development, Kyoto 606-0805, Japan.
PUBLICATION: Takashi Maoka, Structural studies of carotenoids in plants, animals, and food products, in Chapter 7, Carotenoids Nutrition, Analysis and Technology, Edited by Agnieska Kaezor and Malgorzata Baranska, Wiley Blackwell, UK, pp. 103-129, (2016).
COMMENT: Window width to select the precursor ion was 3 Da.
COMMENT: This record was created by the financial support of MEXT/JSPS KAKENHI Grant Number 19HP8024 to the Mass Spectrometry Society of Japan.
CH$NAME: Fucoxanthin
CH$COMPOUND_CLASS: Natural product; carotenoids, Xanthophyll
CH$FORMULA: C42H58O6
CH$EXACT_MASS: 658.42334
CH$SMILES: C/C(=C\C=C\C=C(/C)\C=C\C=C(/C)\C(=O)C[C@]12[C@](O1)(C[C@H](CC2(C)C)O)C)/C=C/C=C(\C)/C=C=C3[C@](C[C@H](CC3(C)C)OC(=O)C)(C)O
CH$IUPAC: InChI=1S/C42H58O6/c1-29(18-14-19-31(3)22-23-37-38(6,7)26-35(47-33(5)43)27-40(37,10)46)16-12-13-17-30(2)20-15-21-32(4)36(45)28-42-39(8,9)24-34(44)25-41(42,11)48-42/h12-22,34-35,44,46H,24-28H2,1-11H3/b13-12+,18-14+,20-15+,29-16+,30-17+,31-19+,32-21+/t23?,34-,35-,40+,41+,42-/m0/s1
CH$LINK: CHEMSPIDER 4444651
CH$LINK: INCHIKEY SJWWTRQNNRNTPU-ABBNZJFMSA-N
CH$LINK: LIPIDBANK VCA0003
CH$LINK: PUBCHEM CID:5281239
AC$INSTRUMENT: Xevo G2-S QtOF, Waters (USA) coupled to ACQUITY UPLC, Waters (USA).
AC$INSTRUMENT_TYPE: LC-ESI-QTOF
AC$MASS_SPECTROMETRY: MS_TYPE MS2
AC$MASS_SPECTROMETRY: ION_MODE POSITIVE
AC$MASS_SPECTROMETRY: COLLISION_ENERGY 10 V
AC$MASS_SPECTROMETRY: COLLISION_GAS Ar
AC$MASS_SPECTROMETRY: IONIZATION ESI
AC$CHROMATOGRAPHY: COLUMN_NAME BEH C18, I.D. 2.1 mm, length 100 mm, thickness 1.7 micrometer.
AC$CHROMATOGRAPHY: FLOW_GRADIENT A CH3CN:H2O (85:15) and B CH3CN:CH3OH (65:35). A 100% for 8 min, then B 100% at the 9.4 mL/min linear gradient.
MS$FOCUSED_ION: ION_TYPE [M+H]+
MS$FOCUSED_ION: PRECURSOR_M/Z 659.43062
PK$SPLASH: splash10-0a4i-0000009000-3e1dd75dbbb568a64672
PK$NUM_PEAK: 14
PK$PEAK: m/z int. rel.int.
  109.100 1438 16
  149.095 1140 13
  563.386 1077 12
  567.368 2729 30
  581.398 5362 60
  582.402 1852 21
  641.419 8596 96
  642.423 3355 37
  658.421 9578 107
  659.430 89830 999
  659.487 919 10
  660.433 35440 394
  661.372 1251 14
  661.437 8770 98
//
