ACCESSION: MSBNK-MSSJ-MSJ02920
RECORD_TITLE: Thiodicarb; LC-ESI-QTOF; MS2; [M+H]+; CID; CE 60V
DATE: 2023.10.22
AUTHORS: Atsushi Yamamoto, Faculty of Environmental Studies, Tottori University of Environmental Studies, 1-1, Wakabadai-kita, Tottori City, Tottori 689-1111, Japan.
LICENSE: CC BY
COPYRIGHT: Atsushi Yamamoto, Faculty of Environmental Studies, Tottori University of Environmental Studies, 1-1, Wakabadai-kita, Tottori City, Tottori 689-1111, Japan.
COMMENT: This record was created by the financial support of MEXT/JSPS KAKENHI Grant Number 23HP8017 to the Mass Spectrometry Society of Japan.
CH$NAME: Thiodicarb
CH$COMPOUND_CLASS: Non-natural product
CH$FORMULA: C10H18N4O4S3
CH$EXACT_MASS: 354.049019
CH$SMILES: C/C(=N\OC(=O)N(SN(C(=O)O/N=C(/SC)\C)C)C)/SC
CH$IUPAC: InChI=1S/C10H18N4O4S3/c1-7(19-5)11-17-9(15)13(3)21-14(4)10(16)18-12-8(2)20-6/h1-6H3/b11-7+,12-8+
CH$LINK: CAS 59669-26-0
CH$LINK: CHEMSPIDER 7875353
CH$LINK: INCHIKEY XDOTVMNBCQVZKG-MKICQXMISA-N
CH$LINK: PUBCHEM CID:9601227
AC$INSTRUMENT: X500R QTOF (AB Sciex LLC, MA, USA) coupled to ExionLC AD (AB Sciex LLC, MA, USA).
AC$INSTRUMENT_TYPE: LC-ESI-QTOF
AC$MASS_SPECTROMETRY: MS_TYPE MS2
AC$MASS_SPECTROMETRY: ION_MODE POSITIVE
AC$MASS_SPECTROMETRY: COLLISION_ENERGY 60 V
AC$MASS_SPECTROMETRY: COLLISION_GAS N2
AC$MASS_SPECTROMETRY: FRAGMENTATION_MODE CID
AC$MASS_SPECTROMETRY: IONIZATION ESI
AC$CHROMATOGRAPHY: COLUMN_NAME TSKgel ODS-100S 5 um, 2.1 mm × 250 mm, TOSOH
AC$CHROMATOGRAPHY: FLOW_GRADIENT 95/5 at 0 min, 95/5 at 3 min, 0/100 at 13 min, 0/100 at 23 min, 95/5 at 23.1 min, 95/5 at 28 min
AC$CHROMATOGRAPHY: FLOW_RATE 200 ul/min
AC$CHROMATOGRAPHY: RETENTION_TIME 13.2 min
AC$CHROMATOGRAPHY: SOLVENT A water with 20 mM formic acid aquatic solution
AC$CHROMATOGRAPHY: SOLVENT B methanol with 20 mM Formic acid methanolic solution
MS$FOCUSED_ION: PRECURSOR_M/Z 355.056296
MS$FOCUSED_ION: PRECURSOR_TYPE [M+H]+
PK$SPLASH: splash10-000i-9000000000-09c7eb69a4883d3daf88
PK$ANNOTATION: m/z rel.int. formula exact_mass error(ppm) SMILES_of_ion HR_rules
  42.0337 138 [C2H5N-H]+ 42.033825 0(2.96) N=CC True
  44.9793 84 [CH4S-3H]+ 44.979349 0(1.08) SC True
  46.9949 231 [CH4S-H]+ 46.994999 0(2.1) SC True
  59.9902 73 [CH3NS-H]+ 59.990245 0(0.76) N=CS True
  62.0058 162 [CH3NS+H]+ 62.005896 0(1.54) N=CS True
  72.9981 318 [C2H5NS-2H]+ 72.998068 0(0.43) N=C(S)C False
  88.0214 999 [C3H7NS-H]+ 88.021549 0(1.69) N=C(SC)C True
PK$NUM_PEAK: 9
PK$PEAK: m/z int. rel.int.
  42.0337 21.0 138
  44.9793 12.8 84
  46.9949 35.1 231
  56.0495 13.9 91
  59.9902 11.1 73
  62.0058 24.7 162
  72.9981 48.3 318
  78.9671 26.1 172
  88.0214 151.9 999
//
