ACCESSION: MSBNK-MSSJ-MSJ02505
RECORD_TITLE: Cinosulfuron; LC-ESI-QTOF; MS2; [M+H]+; CID; CE 60V
DATE: 2023.04.05
AUTHORS: Atsushi Yamamoto, Faculty of Environmental Studies, Tottori University of Environmental Studies, 1-1, Wakabadai-kita, Tottori City, Tottori 689-1111, Japan.
LICENSE: CC BY
COPYRIGHT: Atsushi Yamamoto, Faculty of Environmental Studies, Tottori University of Environmental Studies, 1-1, Wakabadai-kita, Tottori City, Tottori 689-1111, Japan.
COMMENT: This record was created by the financial support of MEXT/JSPS KAKENHI Grant Number 23HP8017 to the Mass Spectrometry Society of Japan.
CH$NAME: Cinosulfuron
CH$COMPOUND_CLASS: Non-natural product
CH$FORMULA: C15H19N5O7S
CH$EXACT_MASS: 413.100519
CH$SMILES: COCCOC1=CC=CC=C1S(=O)(=O)NC(=O)NC2=NC(=NC(=N2)OC)OC
CH$IUPAC: InChI=1S/C15H19N5O7S/c1-24-8-9-27-10-6-4-5-7-11(10)28(22,23)20-13(21)16-12-17-14(25-2)19-15(18-12)26-3/h4-7H,8-9H2,1-3H3,(H2,16,17,18,19,20,21)
CH$LINK: CAS 94593-91-6
CH$LINK: CHEMSPIDER 83438
CH$LINK: INCHIKEY WMLPCIHUFDKWJU-UHFFFAOYSA-N
CH$LINK: PUBCHEM CID:92420
AC$INSTRUMENT: X500R QTOF (AB Sciex LLC, MA, USA) coupled to ExionLC AD (AB Sciex LLC, MA, USA).
AC$INSTRUMENT_TYPE: LC-ESI-QTOF
AC$MASS_SPECTROMETRY: MS_TYPE MS2
AC$MASS_SPECTROMETRY: ION_MODE POSITIVE
AC$MASS_SPECTROMETRY: COLLISION_ENERGY 60 V
AC$MASS_SPECTROMETRY: COLLISION_GAS N2
AC$MASS_SPECTROMETRY: FRAGMENTATION_MODE CID
AC$MASS_SPECTROMETRY: IONIZATION ESI
AC$CHROMATOGRAPHY: COLUMN_NAME AQ-C18HP 3 microm, 2.1 mm × 150 mm (GL Science, Tokyo, Japan).
AC$CHROMATOGRAPHY: FLOW_GRADIENT 90/10 at 0 min, 90/10 at 8 min, 0/100 at 23 min, 0/100 at 30 min, 90/10 at 30.1 min, 90/10 at 40 min
AC$CHROMATOGRAPHY: FLOW_RATE 200 microL/min
AC$CHROMATOGRAPHY: RETENTION_TIME 28.9 min
AC$CHROMATOGRAPHY: SOLVENT A water with 2 mM Ammonium bicarbonate
AC$CHROMATOGRAPHY: SOLVENT B methanol with 2 mM Ammmonium bicarbonate
MS$FOCUSED_ION: PRECURSOR_M/Z 414.107796
MS$FOCUSED_ION: PRECURSOR_TYPE [M+H]+
PK$SPLASH: splash10-001l-9700000000-6fe998b940d16513fa87
PK$ANNOTATION: m/z rel.int. formula exact_mass error(ppm) SMILES_of_ion HR_rules
  43.029 69 [CH4N2-H]+ 43.029075 0(1.75) N=CN True
  45.0336 76 [C2H6O-H]+ 45.033493 0(2.38) O(C)C True
  57.0445 223 [C2H4N2+H]+ 57.044725 0(3.95) N=CN=C True
  58.0288 62 [C2H5NO-H]+ 58.02874 0(1.04) N=COC True
  59.0492 94 [C3H8O-H]+ 59.049141 0(1.01) O(C)CC True
  69.0083 153 [C2H4N2O-3H]+ 69.00834 0(0.58) O=CNC=N True
  72.0445 65 [C3H7NO-H]+ 72.044391 0(1.51) N(=COC)C True
  77.0389 93 [C6H6-H]+ 77.038578 0(4.18) C=1C=CC=CC1 True
  83.024 999 [C3H6N2O-3H]+ 83.023988 0(0.14) N=CN=COC True
  101.0345 105 [C3H6N2O2-H]+ 101.034557 0(0.56) N=C(O)N=COC True
  141.0006 192 [C6H6O2S-H]+ 141.000476 0(0.88) O=S(=O)C=1C=CC=CC1 True
  157.0721 186 [C5H8N4O2+H]+ 157.072004 0(0.61) N=1C(=NC(=NC1OC)N)OC True
  183.0113 172 [C8H10O3S-3H]+ 183.011041 0(1.42) O=S(=O)C=1C=CC=CC1OCC True
  183.0512 262 [C6H8N4O3-H]+ 183.051273 0(0.4) O=CNC=1N=C(N=C(N1)OC)OC True
PK$NUM_PEAK: 22
PK$PEAK: m/z int. rel.int.
  43.029 1.0 69
  45.0336 1.1 76
  57.0445 3.3 223
  58.0288 0.9 62
  59.0492 1.4 94
  65.0384 2.1 143
  69.0083 2.3 153
  72.0445 1.0 65
  77.0389 1.4 93
  83.024 14.8 999
  91.0541 6.8 457
  97.0107 7.9 531
  101.0345 1.6 105
  109.0104 1.3 86
  113.0056 8.4 570
  121.0286 6.3 423
  125.0055 3.2 216
  137.0054 4.0 273
  141.0006 2.8 192
  157.0721 2.8 186
  183.0113 2.5 172
  183.0512 3.9 262
//
