ACCESSION: MSBNK-MSSJ-MSJ02764
RECORD_TITLE: Chloridazon; LC-ESI-QTOF; MS2; [M+H]+; CID; CE 60V
DATE: 2023.10.22
AUTHORS: Atsushi Yamamoto, Faculty of Environmental Studies, Tottori University of Environmental Studies, 1-1, Wakabadai-kita, Tottori City, Tottori 689-1111, Japan.
LICENSE: CC BY
COPYRIGHT: Atsushi Yamamoto, Faculty of Environmental Studies, Tottori University of Environmental Studies, 1-1, Wakabadai-kita, Tottori City, Tottori 689-1111, Japan.
COMMENT: This record was created by the financial support of MEXT/JSPS KAKENHI Grant Number 23HP8017 to the Mass Spectrometry Society of Japan.
CH$NAME: Chloridazon
CH$COMPOUND_CLASS: Non-natural product
CH$FORMULA: C10H8ClN3O
CH$EXACT_MASS: 221.03559
CH$SMILES: C1=CC=C(C=C1)N2C(=O)C(=C(C=N2)N)Cl
CH$IUPAC: InChI=1S/C10H8ClN3O/c11-9-8(12)6-13-14(10(9)15)7-4-2-1-3-5-7/h1-6H,12H2
CH$LINK: CAS 1698-60-8
CH$LINK: CHEMSPIDER 14790
CH$LINK: INCHIKEY WYKYKTKDBLFHCY-UHFFFAOYSA-N
CH$LINK: PUBCHEM CID:15546
AC$INSTRUMENT: X500R QTOF (AB Sciex LLC, MA, USA) coupled to ExionLC AD (AB Sciex LLC, MA, USA).
AC$INSTRUMENT_TYPE: LC-ESI-QTOF
AC$MASS_SPECTROMETRY: MS_TYPE MS2
AC$MASS_SPECTROMETRY: ION_MODE POSITIVE
AC$MASS_SPECTROMETRY: COLLISION_ENERGY 60 V
AC$MASS_SPECTROMETRY: COLLISION_GAS N2
AC$MASS_SPECTROMETRY: FRAGMENTATION_MODE CID
AC$MASS_SPECTROMETRY: IONIZATION ESI
AC$CHROMATOGRAPHY: COLUMN_NAME TSKgel ODS-100S 5 um, 2.1 mm × 250 mm, TOSOH
AC$CHROMATOGRAPHY: FLOW_GRADIENT 95/5 at 0 min, 95/5 at 3 min, 0/100 at 13 min, 0/100 at 23 min, 95/5 at 23.1 min, 95/5 at 28 min
AC$CHROMATOGRAPHY: FLOW_RATE 200 ul/min
AC$CHROMATOGRAPHY: RETENTION_TIME 11.7 min
AC$CHROMATOGRAPHY: SOLVENT A water with 20 mM formic acid aquatic solution
AC$CHROMATOGRAPHY: SOLVENT B methanol with 20 mM Formic acid methanolic solution
MS$FOCUSED_ION: PRECURSOR_M/Z 222.042867
MS$FOCUSED_ION: PRECURSOR_TYPE [M+H]+
PK$SPLASH: splash10-0fvr-9100000000-946cc43fc5bdabfbadad
PK$ANNOTATION: m/z rel.int. formula exact_mass error(ppm) SMILES_of_ion HR_rules
  39.0228 195 [C3H6-3H]+ 39.022928 0(3.27) C=CC True
  55.0289 64 [C2H6N2-3H]+ 55.029073 0(3.15) N=CCN True
  73.9791 89 [C2H4ClN-3H]+ 73.979204 0(1.4) ClC=CN True
  77.0385 999 [C6H6-H]+ 77.038578 0(1.01) C=1C=CC=CC1 True
  87.9947 318 [C3H4ClN-H]+ 87.994854 0(1.75) ClC=CC=N True
  92.0493 162 [C6H7N-H]+ 92.049472 0(1.87) NC=1C=CC=CC1 True
  93.0572 175 [C6H7N]+ 93.057297 0(1.05) NC=1C=CC=CC1 False
  100.99 178 [C3H5ClN2-3H]+ 100.990098 0(0.97) ClC=C(N)C=N True
  146.0116 85 [C4H4ClN3O+H]+ 146.011564 0(0.25) O=C1NN=CC(N)=C1Cl True
PK$NUM_PEAK: 16
PK$PEAK: m/z int. rel.int.
  39.0228 17.1 195
  50.0148 4.5 51
  51.0228 39.4 450
  55.0289 5.6 64
  65.0383 52.4 599
  66.0211 20.1 229
  73.9791 7.8 89
  77.0385 87.5 999
  87.9947 27.8 318
  92.0493 14.2 162
  93.0572 15.3 175
  95.0489 7.5 85
  100.99 15.6 178
  104.0493 9.2 105
  105.0445 7.8 89
  146.0116 7.4 85
//
