ACCESSION: MSBNK-MSSJ-MSJ02144
RECORD_TITLE: Ditolylguanidine; ESI-QTOF; MS2; ESI; NEGATIVE; [M-H]-; CE 30 V
DATE: 2021.10.06
AUTHORS: Atsushi Yamamoto, Faculty of Environmental Studies, Tottori University of Environmental Studies, 1-1, Wakabadai-kita, Tottori City, Tottori 689-1111, Japan.
LICENSE: CC BY
COPYRIGHT: Atsushi Yamamoto, Faculty of Environmental Studies, Tottori University of Environmental Studies, 1-1, Wakabadai-kita, Tottori City, Tottori 689-1111, Japan.
COMMENT: This record was created by the financial support of MEXT/JSPS KAKENHI Grant Number 22HP8019 to the Mass Spectrometry Society of Japan.
COMMENT: The sample was injected by direct infusion.
CH$NAME: Ditolylguanidine
CH$COMPOUND_CLASS: Non-natural product
CH$FORMULA: C15H17N3
CH$EXACT_MASS: 239.142248
CH$SMILES: CC1=CC=CC=C1NC(=NC2=CC=CC=C2C)N
CH$IUPAC: InChI=1S/C15H17N3/c1-11-7-3-5-9-13(11)17-15(16)18-14-10-6-4-8-12(14)2/h3-10H,1-2H3,(H3,16,17,18)
CH$LINK: CAS 97-39-2
CH$LINK: CHEMSPIDER 7056
CH$LINK: INCHIKEY OPNUROKCUBTKLF-UHFFFAOYSA-N
CH$LINK: PUBCHEM CID:7333
AC$INSTRUMENT: X500R QTOF (AB Sciex LLC, USA)
AC$INSTRUMENT_TYPE: ESI-QTOF
AC$MASS_SPECTROMETRY: MS_TYPE MS2
AC$MASS_SPECTROMETRY: ION_MODE NEGATIVE
AC$MASS_SPECTROMETRY: COLLISION_ENERGY 30 V
AC$MASS_SPECTROMETRY: IONIZATION ESI
MS$FOCUSED_ION: PRECURSOR_M/Z 238.13496
MS$FOCUSED_ION: PRECURSOR_TYPE [M-H]-
PK$SPLASH: splash10-001i-0900000000-70fe8818754b82c62cc8
PK$ANNOTATION: m/z rel.int. formula exact_mass error(ppm) SMILES_of_ion HR_rules
  106.0652 169 [C7H9N-H]- 106.066225 0.001(9.67) NC=1C=CC=CC1C True
  131.0604 999 [C8H8N2-H]- 131.061463 0.001(8.11) C1C2=CC=CC=C2NC=N1 True
PK$NUM_PEAK: 3
PK$PEAK: m/z int. rel.int.
  106.0652 16.9027 169
  131.0604 100 999
  158.9242 3.1551 32
//
