ACCESSION: MSBNK-MSSJ-MSJ01581
RECORD_TITLE: Clotiazepam; LC-ESI-QQ; MS2; ESI; POSITIVE; CE 50 V; [M+H]+
DATE: 2023.03.24
AUTHORS: Koji Yamaguchi, Department of Legal Medicine, Nippon Medical School, 1715 Kamagari, Inzai-shi, Chiba 270-1694, Japan.
LICENSE: CC BY
COPYRIGHT: Koji Yamaguchi, Department of Legal Medicine, Nippon Medical School, 1715 Kamagari, Inzai-shi, Chiba 270-1694, Japan.
COMMENT: Original data are in the 20230324-3.xlsx file.
COMMENT: This record was created by the financial support of MEXT/JSPS KAKENHI Grant Number 23HP8017 to the Mass Spectrometry Society of Japan.
CH$NAME: Clotiazepam
CH$COMPOUND_CLASS: Non-natural product
CH$FORMULA: C16H15ClN2OS
CH$EXACT_MASS: 318.05935
CH$SMILES: CCC1=CC2=C(S1)N(C(=O)CN=C2C3=CC=CC=C3Cl)C
CH$IUPAC: InChI=1S/C16H15ClN2OS/c1-3-10-8-12-15(11-6-4-5-7-13(11)17)18-9-14(20)19(2)16(12)21-10/h4-8H,3,9H2,1-2H3
CH$LINK: CAS 33671-46-4
CH$LINK: CHEMSPIDER 2709
CH$LINK: INCHIKEY CHBRHODLKOZEPZ-UHFFFAOYSA-N
CH$LINK: PUBCHEM CID:2811
AC$INSTRUMENT: LCMS-8040 coupled to Nexera XR (Shimadzu, Kyoto, Japan).
AC$INSTRUMENT_TYPE: LC-ESI-QQ
AC$MASS_SPECTROMETRY: MS_TYPE MS2
AC$MASS_SPECTROMETRY: ION_MODE POSITIVE
AC$MASS_SPECTROMETRY: COLLISION_ENERGY 50 V
AC$MASS_SPECTROMETRY: IONIZATION ESI
AC$CHROMATOGRAPHY: COLUMN_NAME InertSustain C18 ID 2.1 microm, 2.1 x 100 mm (GL Science, Tokyo, Japan).
AC$CHROMATOGRAPHY: FLOW_GRADIENT 90/10 at 0 min, linear gradient from 90/10 to 2/98 at 0-9 min, 2/98 at 9-12 min, linear gradient from 2/98 to 90/10 at 12-12.1 min, 90/10 at 12.1-15 min.
AC$CHROMATOGRAPHY: FLOW_RATE 200 microl/min
AC$CHROMATOGRAPHY: RETENTION_TIME 9.928 min
AC$CHROMATOGRAPHY: SOLVENT A water with 10 mM ammonium formate
AC$CHROMATOGRAPHY: SOLVENT B methanol
MS$FOCUSED_ION: PRECURSOR_M/Z 319.06663
MS$FOCUSED_ION: PRECURSOR_TYPE [M+H]+
PK$SPLASH: splash10-00vi-4930000000-6de3be27fe2a2e15b1be
PK$NUM_PEAK: 144
PK$PEAK: m/z int. rel.int.
  30 2226 36
  39 890 14
  41 1043 17
  42 2185 35
  47 1780 29
  53 1137 18
  55 890 14
  56 1701 27
  59 4029 65
  65 890 14
  66 2396 39
  67 850 14
  69 4462 72
  70 890 14
  72 890 14
  74 61962 999
  75 1216 20
  77 18948 305
  78 988 16
  79 30438 491
  80 6839 110
  84 1741 28
  85 8589 138
  90 1594 26
  91 3405 55
  93 2836 46
  94 1822 29
  97 3931 63
  98 4747 77
  99 4600 74
  102 5156 83
  103 890 14
  104 890 14
  106 10919 176
  107 890 14
  108 1335 22
  109 1782 29
  110 2375 38
  111 6688 108
  113 19576 316
  114 1276 21
  115 13177 212
  116 2199 35
  117 1276 21
  119 1079 17
  120 5852 94
  121 8188 132
  122 2276 37
  124 1259 20
  125 6284 101
  126 1008 16
  127 1197 19
  128 4053 65
  130 890 14
  131 727 12
  135 1622 26
  136 2156 35
  137 1684 27
  138 13209 213
  139 17540 283
  140 814 13
  141 890 14
  142 1276 21
  143 2554 41
  147 1782 29
  148 890 14
  149 1894 31
  150 1896 31
  151 7329 118
  152 9197 148
  154 24802 400
  155 1622 26
  156 2865 46
  163 3620 58
  164 3319 54
  165 13630 220
  166 1661 27
  167 16855 272
  168 18893 305
  169 1841 30
  171 1622 26
  173 3601 58
  175 1335 22
  177 11003 177
  179 1782 29
  180 6678 108
  181 3973 64
  182 12326 199
  183 6908 111
  185 2224 36
  187 850 14
  190 7342 118
  191 5337 86
  192 1918 31
  193 6345 102
  194 1701 27
  195 3861 62
  196 1333 21
  198 3899 63
  199 6691 108
  200 1899 31
  202 5710 92
  203 12575 203
  205 1782 29
  207 4525 73
  208 4579 74
  209 866 14
  210 4952 80
  211 890 14
  212 5029 81
  213 1728 28
  214 1241 20
  215 3889 63
  216 890 14
  217 1782 29
  218 4117 66
  219 890 14
  220 2675 43
  221 1181 19
  223 1276 21
  224 3715 60
  225 5770 93
  226 2093 34
  227 6665 107
  228 2290 37
  229 2522 41
  230 810 13
  233 2979 48
  235 2225 36
  239 3250 52
  241 3515 57
  243 7273 117
  246 1386 22
  247 890 14
  248 890 14
  250 1782 29
  257 1782 29
  260 10627 171
  261 850 14
  264 890 14
  275 18073 291
  291 3824 62
  318 1782 29
  319 3250 52
//
