ACCESSION: MSBNK-MSSJ-MSJ01586
RECORD_TITLE: Clonazepam; LC-ESI-QQ; MS2; ESI; POSITIVE; CE 40 V; [M+H]+
DATE: 2023.03.24
AUTHORS: Koji Yamaguchi, Department of Legal Medicine, Nippon Medical School, 1715 Kamagari, Inzai-shi, Chiba 270-1694, Japan.
LICENSE: CC BY
COPYRIGHT: Koji Yamaguchi, Department of Legal Medicine, Nippon Medical School, 1715 Kamagari, Inzai-shi, Chiba 270-1694, Japan.
COMMENT: Original data are in the 20230324-3.xlsx file.
COMMENT: This record was created by the financial support of MEXT/JSPS KAKENHI Grant Number 23HP8017 to the Mass Spectrometry Society of Japan.
CH$NAME: Clonazepam
CH$COMPOUND_CLASS: Non-natural product
CH$FORMULA: C15H10ClN3O3
CH$EXACT_MASS: 315.04105
CH$SMILES: C1C(=O)NC2=C(C=C(C=C2)[N+](=O)[O-])C(=N1)C3=CC=CC=C3Cl
CH$IUPAC: InChI=1S/C15H10ClN3O3/c16-12-4-2-1-3-10(12)15-11-7-9(19(21)22)5-6-13(11)18-14(20)8-17-15/h1-7H,8H2,(H,18,20)
CH$LINK: CAS 1622-61-3
CH$LINK: CHEMSPIDER 2700
CH$LINK: INCHIKEY DGBIGWXXNGSACT-UHFFFAOYSA-N
CH$LINK: PUBCHEM CID:2802
AC$INSTRUMENT: LCMS-8040 coupled to Nexera XR (Shimadzu, Kyoto, Japan).
AC$INSTRUMENT_TYPE: LC-ESI-QQ
AC$MASS_SPECTROMETRY: MS_TYPE MS2
AC$MASS_SPECTROMETRY: ION_MODE POSITIVE
AC$MASS_SPECTROMETRY: COLLISION_ENERGY 40 V
AC$MASS_SPECTROMETRY: IONIZATION ESI
AC$CHROMATOGRAPHY: COLUMN_NAME InertSustain C18 ID 2.1 microm, 2.1 x 100 mm (GL Science, Tokyo, Japan).
AC$CHROMATOGRAPHY: FLOW_GRADIENT 90/10 at 0 min, linear gradient from 90/10 to 2/98 at 0-9 min, 2/98 at 9-12 min, linear gradient from 2/98 to 90/10 at 12-12.1 min, 90/10 at 12.1-15 min.
AC$CHROMATOGRAPHY: FLOW_RATE 200 microl/min
AC$CHROMATOGRAPHY: RETENTION_TIME 8.612 min
AC$CHROMATOGRAPHY: SOLVENT A water with 10 mM ammonium formate
AC$CHROMATOGRAPHY: SOLVENT B methanol
MS$FOCUSED_ION: PRECURSOR_M/Z 316.04834
MS$FOCUSED_ION: PRECURSOR_TYPE [M+H]+
PK$SPLASH: splash10-06xx-0590000000-1da8159223748cde9174
PK$NUM_PEAK: 70
PK$PEAK: m/z int. rel.int.
  53 271 11
  57 1089 43
  77 544 21
  78 544 21
  79 544 21
  92 519 20
  93 544 21
  103 1887 74
  104 3414 134
  105 1807 71
  117 544 21
  120 1011 40
  125 779 31
  129 1215 48
  130 2267 89
  131 544 21
  133 1300 51
  139 816 32
  141 435 17
  145 1089 43
  150 271 11
  151 2128 84
  152 1636 64
  153 1089 43
  157 1089 43
  165 864 34
  166 3065 121
  167 1040 41
  168 1071 42
  175 271 11
  176 2182 86
  177 544 21
  178 1600 63
  179 2536 100
  180 6798 268
  181 544 21
  182 544 21
  186 779 31
  189 271 11
  190 7350 290
  191 731 29
  192 1899 75
  193 1784 70
  195 1356 53
  199 779 31
  200 544 21
  201 271 11
  202 2452 97
  205 4057 160
  206 4805 189
  207 10338 407
  214 25359 999
  217 544 21
  218 544 21
  223 1089 43
  224 991 39
  227 1561 61
  228 2487 98
  230 544 21
  234 1087 43
  237 544 21
  239 1558 61
  240 1172 46
  241 20208 796
  242 544 21
  255 271 11
  269 3145 124
  270 19406 764
  315.6 1124 44
  316.2 810 32
//
