ACCESSION: MSBNK-MSSJ-MSJ02484
RECORD_TITLE: Imazosulfuron; LC-ESI-QTOF; MS2; [M+H]+; CID; CE 10V
DATE: 2023.04.05
AUTHORS: Atsushi Yamamoto, Faculty of Environmental Studies, Tottori University of Environmental Studies, 1-1, Wakabadai-kita, Tottori City, Tottori 689-1111, Japan.
LICENSE: CC BY
COPYRIGHT: Atsushi Yamamoto, Faculty of Environmental Studies, Tottori University of Environmental Studies, 1-1, Wakabadai-kita, Tottori City, Tottori 689-1111, Japan.
COMMENT: This record was created by the financial support of MEXT/JSPS KAKENHI Grant Number 23HP8017 to the Mass Spectrometry Society of Japan.
CH$NAME: Imazosulfuron
CH$COMPOUND_CLASS: Non-natural product
CH$FORMULA: C14H13ClN6O5S
CH$EXACT_MASS: 412.035666
CH$SMILES: COC1=CC(=NC(=N1)NC(=O)NS(=O)(=O)C2=C(N=C3N2C=CC=C3)Cl)OC
CH$IUPAC: InChI=1S/C14H13ClN6O5S/c1-25-9-7-10(26-2)18-13(17-9)19-14(22)20-27(23,24)12-11(15)16-8-5-3-4-6-21(8)12/h3-7H,1-2H3,(H2,17,18,19,20,22)
CH$LINK: CAS 122548-33-8
CH$LINK: CHEMSPIDER 83451
CH$LINK: INCHIKEY NAGRVUXEKKZNHT-UHFFFAOYSA-N
CH$LINK: PUBCHEM CID:92433
AC$INSTRUMENT: X500R QTOF (AB Sciex LLC, MA, USA) coupled to ExionLC AD (AB Sciex LLC, MA, USA).
AC$INSTRUMENT_TYPE: LC-ESI-QTOF
AC$MASS_SPECTROMETRY: MS_TYPE MS2
AC$MASS_SPECTROMETRY: ION_MODE POSITIVE
AC$MASS_SPECTROMETRY: COLLISION_ENERGY 10 V
AC$MASS_SPECTROMETRY: COLLISION_GAS N2
AC$MASS_SPECTROMETRY: FRAGMENTATION_MODE CID
AC$MASS_SPECTROMETRY: IONIZATION ESI
AC$CHROMATOGRAPHY: COLUMN_NAME AQ-C18HP 3 microm, 2.1 mm × 150 mm (GL Science, Tokyo, Japan).
AC$CHROMATOGRAPHY: FLOW_GRADIENT 90/10 at 0 min, 90/10 at 8 min, 0/100 at 23 min, 0/100 at 30 min, 90/10 at 30.1 min, 90/10 at 40 min
AC$CHROMATOGRAPHY: FLOW_RATE 200 microL/min
AC$CHROMATOGRAPHY: RETENTION_TIME 31.9 min
AC$CHROMATOGRAPHY: SOLVENT A water with 2 mM Ammonium bicarbonate
AC$CHROMATOGRAPHY: SOLVENT B methanol with 2 mM Ammmonium bicarbonate
MS$FOCUSED_ION: PRECURSOR_M/Z 413.042943
MS$FOCUSED_ION: PRECURSOR_TYPE [M+H]+
PK$SPLASH: splash10-03di-0310900000-499dc9bdfad4c761bdd9
PK$ANNOTATION: m/z rel.int. formula exact_mass error(ppm) SMILES_of_ion HR_rules
  153.0214 231 [C7H5ClN2+H]+ 153.021406 0(0.04) ClC=1N=C2C=CC=CN2C1 True
  156.0768 72 [C6H9N3O2+H]+ 156.07675 0(0.32) N=1C(=NC(OC)=CC1OC)N True
  182.0562 49 [C7H9N3O3-H]+ 182.056018 0(1) O=CNC=1N=C(OC)C=C(N1)OC True
  231.9944 74 [C7H6ClN3O2S+H]+ 231.9942 0(0.86) O=S(=O)(N)C1=C(Cl)N=C2C=CC=CN21 True
  261.0288 68 [C7H10N4O5S-H]+ 261.028827 0(0.1) O=C(NC=1N=C(OC)C=C(N1)OC)NS(=O)=O True
  413.0429 999 [C14H13ClN6O5S+H]+ 413.042952 0(0.12) O=C(NC=1N=C(OC)C=C(N1)OC)NS(=O)(=O)C2=C(Cl)N=C3C=CC=CN32 True
PK$NUM_PEAK: 6
PK$PEAK: m/z int. rel.int.
  153.0214 15.4 231
  156.0768 4.8 72
  182.0562 3.3 49
  231.9944 4.9 74
  261.0288 4.5 68
  413.0429 66.4 999
//
