ACCESSION: MSBNK-MSSJ-MSJ00739
RECORD_TITLE: Malic acid-[2-13C]; GC-EI-QQ; MS2; CID 5 V; POSITIVE; 3 TMS-derivative; [M-117]+
DATE: 2021.10.25
AUTHORS: Nobuyuki Okahashi and Fumio Matsuda, Osaka University
LICENSE: CC BY
COPYRIGHT: Nobuyuki Okahashi and Fumio Matsuda, Osaka University
PUBLICATION: Nobuyuki Okahashi et al. Mass Spectrometry 2019 vol. 8, A0073.
COMMENT: The sample analyzed is labeled with 13C at the carbon atom 2.
COMMENT: Annotation of fragment ions (PK$ANNOTATION) is based on Supplemental material pages 20 of the publication.
COMMENT: This record was created by the financial support of MEXT/JSPS KAKENHI Grant Number 21HP8020 to the Mass Spectrometry Society of Japan.
CH$NAME: Malic acid-[2-13C]
CH$COMPOUND_CLASS: In vitro synthetic compound
CH$FORMULA: C4H6O5
CH$EXACT_MASS: 134.02153
CH$SMILES: C([13CH](C(=O)O)O)C(=O)O
CH$IUPAC: InChI=1S/C4H6O5/c5-2(4(8)9)1-3(6)7/h2,5H,1H2,(H,6,7)(H,8,9)/i2+1
CH$LINK: CHEMSPIDER 49071373
CH$LINK: INCHIKEY BJEPYKJPYRNKOW-VQEHIDDOSA-N
CH$LINK: PUBCHEM CID:71309137
AC$INSTRUMENT: GCMS-TQ8040 (Shimadzu, Kyoto, Japan)
AC$INSTRUMENT_TYPE: GC-EI-QQ
AC$MASS_SPECTROMETRY: MS_TYPE MS2
AC$MASS_SPECTROMETRY: ION_MODE POSITIVE
AC$MASS_SPECTROMETRY: COLLISION_ENERGY 5 V
AC$MASS_SPECTROMETRY: COLLISION_GAS Ar (200 kPa)
AC$MASS_SPECTROMETRY: FRAGMENTATION_MODE CID
AC$MASS_SPECTROMETRY: ION_SOURCE_TEMPERATURE 200 C
AC$MASS_SPECTROMETRY: SCAN_RANGE_M/Z 50-500
AC$CHROMATOGRAPHY: COLUMN_NAME DB-5MS+DG (Agilent Technologies, Santa Clara, CA, USA)
AC$CHROMATOGRAPHY: INJECTION_TEMPERATURE 250 C
AC$CHROMATOGRAPHY: OVEN_TEMPERATURE 60 C (Duration 3.5 min)-325 C (rate:10 C/min; Duration 10 min)
AC$CHROMATOGRAPHY: TRANSFARLINE_TEMPERATURE 250 C
MS$FOCUSED_ION: DERIVATIVE_FORM C13H30O5Si3
MS$FOCUSED_ION: DERIVATIVE_MASS 350.14011
MS$FOCUSED_ION: DERIVATIVE_TYPE 3 TMS
MS$FOCUSED_ION: PRECURSOR_M/Z 234.10572
PK$SPLASH: splash10-07bb-1879000000-bf31cced3c4b018b428b
PK$ANNOTATION: m/z formula exact_mass error(ppm)
  117.1 C4H9O2Si+ 117.03663 541
  266.15 C8(13C)H25O3Si3+ 266.11396 135
  308.1 C10(13C)H27O4Si3+ 308.12452 79.6
PK$NUM_PEAK: 15
PK$PEAK: m/z int. rel.int.
  70 146 11
  73.15 2319 186
  117.1 462 37
  147.15 12419 999
  149.1 298 23
  172.1 1385 111
  174.1 135 10
  176.1 729 58
  218.05 1872 150
  246.2 750 60
  264.25 6697 538
  266.15 4677 376
  308.1 8828 710
  320.15 1140 91
  336.2 5822 468
//
