ACCESSION: MSBNK-MSSJ-MSJ01839
RECORD_TITLE: Amlodipine; LC-ESI-QQ; MS2; ESI; NEGATIVE; CID; CE 20 V; [M-H]-
DATE: 2023.03.28
AUTHORS: Koji Yamaguchi, Department of Legal Medicine, Nippon Medical School, 1715 Kamagari, Inzai-shi, Chiba 270-1694, Japan.
LICENSE: CC BY
COPYRIGHT: Koji Yamaguchi, Department of Legal Medicine, Nippon Medical School, 1715 Kamagari, Inzai-shi, Chiba 270-1694, Japan.
COMMENT: Original data are in the 20230328-3.xlsx file.
COMMENT: This record was created by the financial support of MEXT/JSPS KAKENHI Grant Number 23HP8017 to the Mass Spectrometry Society of Japan.
CH$NAME: Amlodipine
CH$COMPOUND_CLASS: Non-natural product
CH$FORMULA: C20H25ClN2O5
CH$EXACT_MASS: 408.145193
CH$SMILES: CCOC(=O)C1=C(NC(=C(C1C2=CC=CC=C2Cl)C(=O)OC)C)COCCN
CH$IUPAC: InChI=1S/C20H25ClN2O5/c1-4-28-20(25)18-15(11-27-10-9-22)23-12(2)16(19(24)26-3)17(18)13-7-5-6-8-14(13)21/h5-8,17,23H,4,9-11,22H2,1-3H3
CH$LINK: CAS 88150-42-9
CH$LINK: CHEMSPIDER 2077
CH$LINK: INCHIKEY HTIQEAQVCYTUBX-UHFFFAOYSA-N
CH$LINK: PUBCHEM CID:2162
AC$INSTRUMENT: LCMS-8040 coupled to Nexera XR (Shimadzu, Kyoto, Japan).
AC$INSTRUMENT_TYPE: LC-ESI-QQ
AC$MASS_SPECTROMETRY: MS_TYPE MS2
AC$MASS_SPECTROMETRY: ION_MODE NEGATIVE
AC$MASS_SPECTROMETRY: COLLISION_ENERGY 20 V
AC$MASS_SPECTROMETRY: FRAGMENTATION_MODE CID
AC$MASS_SPECTROMETRY: IONIZATION ESI
AC$CHROMATOGRAPHY: COLUMN_NAME InertSustain C18 ID 2.1 microm, 2.1 x 100 mm (GL Science, Tokyo, Japan).
AC$CHROMATOGRAPHY: FLOW_GRADIENT 90/10 at 0 min, linear gradient from 90/10 to 2/98 at 0-9 min, 2/98 at 9-12 min, linear gradient from 2/98 to 90/10 at 12-12.1 min, 90/10 at 12.1-15 min.
AC$CHROMATOGRAPHY: FLOW_RATE 200 microl/min
AC$CHROMATOGRAPHY: RETENTION_TIME 6.176 min
AC$CHROMATOGRAPHY: SOLVENT A water with 10 mM ammonium formate
AC$CHROMATOGRAPHY: SOLVENT B methanol
MS$FOCUSED_ION: PRECURSOR_M/Z 407.137916
MS$FOCUSED_ION: PRECURSOR_TYPE [M-H]-
PK$SPLASH: splash10-01ot-1392100000-f5a0a54b48b3b17cd7b2
PK$NUM_PEAK: 27
PK$PEAK: m/z int. rel.int.
  35.1 30884 307
  111.0 49555 492
  161.0 1751 17
  178.0 3943 39
  178.9 4638 46
  191.8 1876 19
  207.2 1307 13
  222.1 3061 30
  237.0 4475 44
  242.1 1253 12
  249.1 4621 46
  251.0 14129 140
  253.1 1751 17
  267.2 8129 81
  281.0 8542 85
  287.0 4120 41
  295.1 100554 999
  300.1 3544 35
  301.3 1722 17
  317.0 2764 27
  325.2 1851 18
  331.2 1176 12
  339.3 7772 77
  360.1 4717 47
  361.2 15052 150
  375.2 10404 103
  407.2 29475 293
//
