ACCESSION: MSBNK-MSSJ-MSJ01926
RECORD_TITLE: Olanzapine; LC-ESI-QQ; MS2; ESI; POSITIVE; CID; CE 50 V; [M+H]+
DATE: 2023.03.28
AUTHORS: Koji Yamaguchi, Department of Legal Medicine, Nippon Medical School, 1715 Kamagari, Inzai-shi, Chiba 270-1694, Japan.
LICENSE: CC BY
COPYRIGHT: Koji Yamaguchi, Department of Legal Medicine, Nippon Medical School, 1715 Kamagari, Inzai-shi, Chiba 270-1694, Japan.
COMMENT: Original data are in the 20230328-5.xlsx file.
COMMENT: This record was created by the financial support of MEXT/JSPS KAKENHI Grant Number 23HP8017 to the Mass Spectrometry Society of Japan.
CH$NAME: Olanzapine
CH$COMPOUND_CLASS: Non-natural product
CH$FORMULA: C17H20N4S
CH$EXACT_MASS: 312.140851
CH$SMILES: CC1=CC2=C(S1)NC3=CC=CC=C3N=C2N4CCN(CC4)C
CH$IUPAC: InChI=1S/C17H20N4S/c1-12-11-13-16(21-9-7-20(2)8-10-21)18-14-5-3-4-6-15(14)19-17(13)22-12/h3-6,11,19H,7-10H2,1-2H3
CH$LINK: CAS 132539-06-1
CH$LINK: CHEMSPIDER 10442212
CH$LINK: INCHIKEY KVWDHTXUZHCGIO-UHFFFAOYSA-N
CH$LINK: PUBCHEM CID:135398745
AC$INSTRUMENT: LCMS-8040 coupled to Nexera XR (Shimadzu, Kyoto, Japan).
AC$INSTRUMENT_TYPE: LC-ESI-QQ
AC$MASS_SPECTROMETRY: MS_TYPE MS2
AC$MASS_SPECTROMETRY: ION_MODE POSITIVE
AC$MASS_SPECTROMETRY: COLLISION_ENERGY 50 V
AC$MASS_SPECTROMETRY: FRAGMENTATION_MODE CID
AC$MASS_SPECTROMETRY: IONIZATION ESI
AC$CHROMATOGRAPHY: COLUMN_NAME InertSustain C18 ID 2.1 microm, 2.1 x 100 mm (GL Science, Tokyo, Japan).
AC$CHROMATOGRAPHY: FLOW_GRADIENT 90/10 at 0 min, linear gradient from 90/10 to 2/98 at 0-9 min, 2/98 at 9-12 min, linear gradient from 2/98 to 90/10 at 12-12.1 min, 90/10 at 12.1-15 min.
AC$CHROMATOGRAPHY: FLOW_RATE 200 microl/min
AC$CHROMATOGRAPHY: RETENTION_TIME 8.284 min
AC$CHROMATOGRAPHY: SOLVENT A water with 10 mM ammonium formate
AC$CHROMATOGRAPHY: SOLVENT B methanol
MS$FOCUSED_ION: PRECURSOR_M/Z 313.148128
MS$FOCUSED_ION: PRECURSOR_TYPE [M+H]+
PK$SPLASH: splash10-00kb-2920000000-2daa5d6be75427da0257
PK$NUM_PEAK: 119
PK$PEAK: m/z int. rel.int.
  29.3 705 10
  30.4 2174 31
  42.3 32393 459
  43.4 1282 18
  45.0 1055 15
  52.6 1140 16
  54.1 705 10
  55.3 950 13
  56.4 5048 72
  58.3 6703 95
  59.5 1624 23
  60.2 705 10
  64.8 1390 20
  67.2 705 10
  69.3 2024 29
  70.2 950 13
  71.3 1291 18
  72.3 705 10
  82.4 3141 45
  83.3 1900 27
  84.3 12846 182
  85.3 3647 52
  89.4 1059 15
  90.2 1656 23
  92.3 3927 56
  95.3 2537 36
  96.1 1349 19
  99.3 2026 29
  101.4 1291 18
  102.3 1765 25
  103.0 1059 15
  107.1 1059 15
  108.2 1413 20
  109.2 6855 97
  110.3 705 10
  111.3 705 10
  115.2 18656 265
  116.1 5197 74
  117.2 5582 79
  118.2 950 13
  119.3 705 10
  122.2 705 10
  123.2 1059 15
  124.0 1413 20
  127.1 3761 53
  128.2 5151 73
  129.2 2069 29
  130.8 1059 15
  132.4 2442 35
  134.1 705 10
  136.1 1286 18
  138.3 705 10
  140.1 2668 38
  141.1 3206 45
  142.3 8054 114
  143.2 4779 68
  146.1 12837 182
  148.0 1593 23
  152.1 3785 54
  153.1 10094 143
  154.2 3059 43
  155.2 8201 116
  157.0 1708 24
  159.1 705 10
  160.1 2464 35
  161.0 826 12
  162.0 705 10
  165.2 1661 24
  165.8 717 10
  167.2 1868 26
  168.2 9635 137
  169.2 35903 509
  170.1 2447 35
  171.1 5180 73
  172.9 4098 58
  175.2 705 10
  179.1 26664 378
  180.1 21411 304
  181.2 3925 56
  182.3 3650 52
  183.2 1283 18
  184.3 3117 44
  185.2 2658 38
  186.1 21348 303
  187.1 1468 21
  188.2 705 10
  192.0 705 10
  193.1 1406 20
  194.2 2631 37
  195.2 10217 145
  196.0 4140 59
  198.1 70433 999
  199.1 1407 20
  200.1 2577 37
  201.0 2087 30
  205.2 2122 30
  207.2 4202 60
  208.2 1012 14
  211.2 11088 157
  212.1 17706 251
  213.1 10094 143
  214.2 3472 49
  220.1 5229 74
  222.2 10927 155
  223.2 1321 19
  224.1 3260 46
  225.5 705 10
  227.0 3980 56
  233.9 1059 15
  238.9 3409 48
  240.3 1836 26
  241.1 1200 17
  248.1 1059 15
  253.1 1413 20
  254.0 2872 41
  255.0 3987 57
  256.1 4944 70
  265.7 705 10
  282.1 2638 37
//
