ACCESSION: MSBNK-MSSJ-MSJ00747
RECORD_TITLE: Citric acid-[1,5-13C2]; GC-EI-QQ; MS2; POSITIVE; CID 10 V; 4 TBDMS-derivative; [M-189]+
DATE: 2021.10.28
AUTHORS: Nobuyuki Okahashi and Fumio Matsuda, Osaka University
LICENSE: CC BY
COPYRIGHT: Nobuyuki Okahashi and Fumio Matsuda, Osaka University
PUBLICATION: Nobuyuki Okahashi et al. Mass Spectrometry 2019 vol. 8, A0073.
COMMENT: The sample analyzed is labeled with 13C at the carbon atom 1,5.
COMMENT: Annotation of fragment ions (PK$ANNOTATION) is based on Supplemental material page 21 of the publication.
COMMENT: This record was created by the financial support of MEXT/JSPS KAKENHI Grant Number 21HP8020 to the Mass Spectrometry Society of Japan.
CH$NAME: Citric acid-[1,5-13C2]
CH$COMPOUND_CLASS: In vitro synthetic compound
CH$FORMULA: C6H8O7
CH$EXACT_MASS: 192.02701
CH$SMILES: C([13C](=O)O)C(C[13C](=O)O)(C(=O)O)O
CH$IUPAC: InChI=1S/C6H8O7/c7-3(8)1-6(13,5(11)12)2-4(9)10/h13H,1-2H2,(H,7,8)(H,9,10)(H,11,12)/i3+1,4+1
CH$LINK: CHEMSPIDER 8488970
CH$LINK: INCHIKEY KRKNYBCHXYNGOX-CQDYUVAPSA-N
CH$LINK: PUBCHEM CID:10313505
AC$INSTRUMENT: GCMS-TQ8040 (Shimadzu, Kyoto, Japan)
AC$INSTRUMENT_TYPE: GC-EI-QQ
AC$MASS_SPECTROMETRY: MS_TYPE MS2
AC$MASS_SPECTROMETRY: ION_MODE POSITIVE
AC$MASS_SPECTROMETRY: COLLISION_ENERGY 10 V
AC$MASS_SPECTROMETRY: COLLISION_GAS Ar (200 kPa)
AC$MASS_SPECTROMETRY: FRAGMENTATION_MODE CID
AC$MASS_SPECTROMETRY: ION_SOURCE_TEMPERATURE 200 C
AC$MASS_SPECTROMETRY: SCAN_RANGE_M/Z 50-600
AC$CHROMATOGRAPHY: COLUMN_NAME DB-5MS+DG (Agilent Technologies, Santa Clara, CA, USA)
AC$CHROMATOGRAPHY: INJECTION_TEMPERATURE 250 C
AC$CHROMATOGRAPHY: OVEN_TEMPERATURE 70 C (Duration 2 min)-280 C (rate:10 C/min; Duration 3 min)
AC$CHROMATOGRAPHY: TRANSFARLINE_TEMPERATURE 250 C
MS$FOCUSED_ION: DERIVATIVE_FORM C30H64O7Si4
MS$FOCUSED_ION: DERIVATIVE_MASS 648.37291
MS$FOCUSED_ION: DERIVATIVE_TYPE 4 TBDMS
MS$FOCUSED_ION: PRECURSOR_M/Z 461.21160
PK$SPLASH: splash10-006t-4911100000-acc18aca7348da43f360
PK$NUM_PEAK: 14
PK$PEAK: m/z int. rel.int.
  68.05 8371 37
  73.1 156559 707
  115.15 81281 367
  147.15 221071 999
  149.1 3300 14
  189.1 38570 174
  220.9 3330 15
  255.2 56663 256
  258.65 2554 11
  329.25 19324 87
  331.05 4489 20
  388.15 22490 101
  460.25 2772 12
  461.25 52682 238
//
