ACCESSION: MSBNK-MSSJ-MSJ02810
RECORD_TITLE: Imidacloprid; LC-ESI-QTOF; MS2; [M+H]+; CID; CE 30V
DATE: 2023.10.22
AUTHORS: Atsushi Yamamoto, Faculty of Environmental Studies, Tottori University of Environmental Studies, 1-1, Wakabadai-kita, Tottori City, Tottori 689-1111, Japan.
LICENSE: CC BY
COPYRIGHT: Atsushi Yamamoto, Faculty of Environmental Studies, Tottori University of Environmental Studies, 1-1, Wakabadai-kita, Tottori City, Tottori 689-1111, Japan.
COMMENT: This record was created by the financial support of MEXT/JSPS KAKENHI Grant Number 23HP8017 to the Mass Spectrometry Society of Japan.
CH$NAME: Imidacloprid
CH$COMPOUND_CLASS: Non-natural product
CH$FORMULA: C9H10ClN5O2
CH$EXACT_MASS: 255.052302
CH$SMILES: C1CN(C(=N[N+](=O)[O-])N1)CC2=CN=C(C=C2)Cl
CH$IUPAC: InChI=1S/C9H10ClN5O2/c10-8-2-1-7(5-12-8)6-14-4-3-11-9(14)13-15(16)17/h1-2,5H,3-4,6H2,(H,11,13)
CH$LINK: CAS 138261-41-3
CH$LINK: CHEMSPIDER 77934
CH$LINK: INCHIKEY YWTYJOPNNQFBPC-UHFFFAOYSA-N
CH$LINK: PUBCHEM CID:86287518
AC$INSTRUMENT: X500R QTOF (AB Sciex LLC, MA, USA) coupled to ExionLC AD (AB Sciex LLC, MA, USA).
AC$INSTRUMENT_TYPE: LC-ESI-QTOF
AC$MASS_SPECTROMETRY: MS_TYPE MS2
AC$MASS_SPECTROMETRY: ION_MODE POSITIVE
AC$MASS_SPECTROMETRY: COLLISION_ENERGY 30 V
AC$MASS_SPECTROMETRY: COLLISION_GAS N2
AC$MASS_SPECTROMETRY: FRAGMENTATION_MODE CID
AC$MASS_SPECTROMETRY: IONIZATION ESI
AC$CHROMATOGRAPHY: COLUMN_NAME TSKgel ODS-100S 5 um, 2.1 mm × 250 mm, TOSOH
AC$CHROMATOGRAPHY: FLOW_GRADIENT 95/5 at 0 min, 95/5 at 3 min, 0/100 at 13 min, 0/100 at 23 min, 95/5 at 23.1 min, 95/5 at 28 min
AC$CHROMATOGRAPHY: FLOW_RATE 200 ul/min
AC$CHROMATOGRAPHY: RETENTION_TIME 11.1 min
AC$CHROMATOGRAPHY: SOLVENT A water with 20 mM formic acid aquatic solution
AC$CHROMATOGRAPHY: SOLVENT B methanol with 20 mM Formic acid methanolic solution
MS$FOCUSED_ION: PRECURSOR_M/Z 256.059579
MS$FOCUSED_ION: PRECURSOR_TYPE [M+H]+
PK$SPLASH: splash10-0a6r-0960000000-55095c50b77937b9a5c7
PK$ANNOTATION: m/z rel.int. formula exact_mass error(ppm) SMILES_of_ion HR_rules
  84.0554 103 [C3H7N3-H]+ 84.055622 0(2.64) N=C1NCCN1 True
  126.0104 57 [C6H6ClN-H]+ 126.010502 0(0.81) ClC1=NC=C(C=C1)C True
  128.0261 93 [C6H6ClN+H]+ 128.026152 0(0.4) ClC1=NC=C(C=C1)C True
  146.0709 45 [C8H13N3-5H]+ 146.071273 0(2.55) N=1C=CC=C(C1)CNCCN True
  173.0821 69 [C9H12N4-3H]+ 173.082177 0(0.45) N=C1NCCN1CC=2C=NC=CC2 True
  175.0976 961 [C9H12N4-H]+ 175.097828 0(1.3) N=C1NCCN1CC=2C=NC=CC2 True
  209.0587 999 [C9H11ClN4-H]+ 209.058857 0(0.75) ClC1=NC=C(C=C1)CN2C(=N)NCC2 True
PK$NUM_PEAK: 8
PK$PEAK: m/z int. rel.int.
  84.0554 22.8 103
  126.0104 12.6 57
  128.0261 20.7 93
  146.0709 10.0 45
  173.0821 15.4 69
  174.0899 29.6 133
  175.0976 213.5 961
  209.0587 221.9 999
//
