ACCESSION: MSBNK-MSSJ-MSJ02718
RECORD_TITLE: Fenhexamid; LC-ESI-QTOF; MS2; [M+H]+; CID; CE 50V
DATE: 2022.03.14
AUTHORS: Atsushi Yamamoto, Faculty of Environmental Studies, Tottori University of Environmental Studies, 1-1, Wakabadai-kita, Tottori City, Tottori 689-1111, Japan.
LICENSE: CC BY
COPYRIGHT: Atsushi Yamamoto, Faculty of Environmental Studies, Tottori University of Environmental Studies, 1-1, Wakabadai-kita, Tottori City, Tottori 689-1111, Japan.
COMMENT: This record was created by the financial support of MEXT/JSPS KAKENHI Grant Number 23HP8017 to the Mass Spectrometry Society of Japan.
CH$NAME: Fenhexamid
CH$COMPOUND_CLASS: Non-natural product
CH$FORMULA: C14H17Cl2NO2
CH$EXACT_MASS: 301.063634
CH$SMILES: CC1(CCCCC1)C(=O)NC2=C(C(=C(C=C2)O)Cl)Cl
CH$IUPAC: InChI=1S/C14H17Cl2NO2/c1-14(7-3-2-4-8-14)13(19)17-9-5-6-10(18)12(16)11(9)15/h5-6,18H,2-4,7-8H2,1H3,(H,17,19)
CH$LINK: CAS 126833-17-8
CH$LINK: CHEMSPIDER 184726
CH$LINK: INCHIKEY VDLGAVXLJYLFDH-UHFFFAOYSA-N
CH$LINK: PUBCHEM CID:213031
AC$INSTRUMENT: X500R QTOF (AB Sciex LLC, MA, USA) coupled to ExionLC AD (AB Sciex LLC, MA, USA).
AC$INSTRUMENT_TYPE: LC-ESI-QTOF
AC$MASS_SPECTROMETRY: MS_TYPE MS2
AC$MASS_SPECTROMETRY: ION_MODE POSITIVE
AC$MASS_SPECTROMETRY: COLLISION_ENERGY 50 V
AC$MASS_SPECTROMETRY: COLLISION_GAS N2
AC$MASS_SPECTROMETRY: FRAGMENTATION_MODE CID
AC$MASS_SPECTROMETRY: IONIZATION ESI
AC$CHROMATOGRAPHY: COLUMN_NAME AQ-C18HP 3 microm, 2.1 mm × 150 mm (GL Science, Tokyo, Japan).
AC$CHROMATOGRAPHY: FLOW_GRADIENT 90/10 at 0 min, 90/10 at 8 min, 0/100 at 23 min, 0/100 at 30 min, 90/10 at 30.1 min, 90/10 at 40 min
AC$CHROMATOGRAPHY: FLOW_RATE 200 microL/min
AC$CHROMATOGRAPHY: RETENTION_TIME 33.3 min
AC$CHROMATOGRAPHY: SOLVENT A water with 2 mM Ammonium bicarbonate
AC$CHROMATOGRAPHY: SOLVENT B methanol with 2 mM Ammmonium bicarbonate
MS$FOCUSED_ION: PRECURSOR_M/Z 302.070911
MS$FOCUSED_ION: PRECURSOR_TYPE [M+H]+
PK$SPLASH: splash10-0a4m-9300000000-b9e34021a75621f14c7d
PK$ANNOTATION: m/z rel.int. formula exact_mass error(ppm) SMILES_of_ion HR_rules
  55.0541 999 [C4H10-3H]+ 55.054227 0(2.31) CCCC True
  69.0696 105 [C5H12-3H]+ 69.069879 0(4.04) CCCCC True
  97.1011 570 [C7H14-H]+ 97.101177 0(0.79) CC1CCCCC1 True
  142.0045 156 [C6H6ClNO-H]+ 142.00542 0.001(6.48) ClC1=CC(O)=CC=C1N True
  143.0133 398 [C6H6ClNO]+ 143.013245 0(0.38) ClC1=CC(O)=CC=C1N False
PK$NUM_PEAK: 5
PK$PEAK: m/z int. rel.int.
  55.0541 3.7 999
  69.0696 0.4 105
  97.1011 2.1 570
  142.0045 0.6 156
  143.0133 1.5 398
//
