ACCESSION: MSBNK-MSSJ-MSJ02838
RECORD_TITLE: Simeconazole; LC-ESI-QTOF; MS2; [M+H]+; CID; CE 30 V
DATE: 2023.10.22
AUTHORS: Atsushi Yamamoto, Faculty of Environmental Studies, Tottori University of Environmental Studies, 1-1, Wakabadai-kita, Tottori City, Tottori 689-1111, Japan.
LICENSE: CC BY
COPYRIGHT: Atsushi Yamamoto, Faculty of Environmental Studies, Tottori University of Environmental Studies, 1-1, Wakabadai-kita, Tottori City, Tottori 689-1111, Japan.
COMMENT: This record was created by the financial support of MEXT/JSPS KAKENHI Grant Number 23HP8017 to the Mass Spectrometry Society of Japan.
CH$NAME: Simeconazole
CH$COMPOUND_CLASS: Non-natural product
CH$FORMULA: C14H20FN3OSi
CH$EXACT_MASS: 293.135967
CH$SMILES: C[Si](C)(C)CC(CN1C=NC=N1)(C2=CC=C(C=C2)F)O
CH$IUPAC: InChI=1S/C14H20FN3OSi/c1-20(2,3)9-14(19,8-18-11-16-10-17-18)12-4-6-13(15)7-5-12/h4-7,10-11,19H,8-9H2,1-3H3
CH$LINK: CAS 149508-90-7
CH$LINK: CHEMSPIDER 8261320
CH$LINK: INCHIKEY YABFPHSQTSFWQB-UHFFFAOYSA-N
CH$LINK: PUBCHEM CID:10085783
AC$INSTRUMENT: X500R QTOF (AB Sciex LLC, MA, USA) coupled to ExionLC AD (AB Sciex LLC, MA, USA).
AC$INSTRUMENT_TYPE: LC-ESI-QTOF
AC$MASS_SPECTROMETRY: MS_TYPE MS2
AC$MASS_SPECTROMETRY: ION_MODE POSITIVE
AC$MASS_SPECTROMETRY: COLLISION_ENERGY 30 V
AC$MASS_SPECTROMETRY: COLLISION_GAS N2
AC$MASS_SPECTROMETRY: FRAGMENTATION_MODE CID
AC$MASS_SPECTROMETRY: IONIZATION ESI
AC$CHROMATOGRAPHY: COLUMN_NAME TSKgel ODS-100S 5 um, 2.1 mm × 250 mm, TOSOH
AC$CHROMATOGRAPHY: FLOW_GRADIENT 95/5 at 0 min, 95/5 at 3 min, 0/100 at 13 min, 0/100 at 23 min, 95/5 at 23.1 min, 95/5 at 28 min
AC$CHROMATOGRAPHY: FLOW_RATE 200 ul/min
AC$CHROMATOGRAPHY: RETENTION_TIME 15.1 min
AC$CHROMATOGRAPHY: SOLVENT A water with 20 mM formic acid aquatic solution
AC$CHROMATOGRAPHY: SOLVENT B methanol with 20 mM Formic acid methanolic solution
MS$FOCUSED_ION: PRECURSOR_M/Z 294.143244
MS$FOCUSED_ION: PRECURSOR_TYPE [M+H]+
PK$SPLASH: splash10-00dr-6900000000-88fc1e892ca8fc170060
PK$ANNOTATION: m/z rel.int. formula exact_mass error(ppm) SMILES_of_ion HR_rules
  70.0397 641 [C2H3N3+H]+ 70.039976 0(3.94) N=1C=NNC1 True
  73.0466 360 [C3H10Si-H]+ 73.046802 0(2.77) C[SiH](C)C True
  109.0447 79 [C7H7F-H]+ 109.044803 0(0.95) FC1=CC=C(C=C1)C True
  133.0449 148 [C9H11F-5H]+ 133.044799 0(0.76) FC1=CC=C(C=C1)C(C)C True
  135.0603 999 [C9H11F-3H]+ 135.060449 0(1.1) FC1=CC=C(C=C1)C(C)C True
PK$NUM_PEAK: 7
PK$PEAK: m/z int. rel.int.
  70.0397 143.1 641
  73.0466 80.4 360
  75.026 20.8 93
  109.0447 17.5 79
  115.0543 75.1 337
  133.0449 33.1 148
  135.0603 222.8 999
//
