ACCESSION: MSBNK-MSSJ-MSJ00911
RECORD_TITLE: Acetyldaidzin; ESI-QTOF; MS2; NEGATIVE; [M-H]-; CID; 60 V
DATE: 2021.09.20
AUTHORS: Atsushi Yamamoto, Faculty of Environmental Studies, Tottori University of Environmental Studies, 1-1, Wakabadai-kita, Tottori City, Tottori 689-1111, Japan.
LICENSE: CC BY
COPYRIGHT: Atsushi Yamamoto, Faculty of Environmental Studies, Tottori University of Environmental Studies, 1-1, Wakabadai-kita, Tottori City, Tottori 689-1111, Japan.
COMMENT: The sample was injected by direct infusion.
COMMENT: This record was created by the financial support of MEXT/JSPS KAKENHI Grant Number 21HP8020 to the Mass Spectrometry Society of Japan.
CH$NAME: Acetyldaidzin
CH$COMPOUND_CLASS: 7-Hydroxyisoflavone
CH$FORMULA: C23H22O10
CH$EXACT_MASS: 458.12130
CH$SMILES: CC(=O)OC[C@@H]1[C@H]([C@@H]([C@H]([C@@H](O1)OC2=CC3=C(C=C2)C(=O)C(=CO3)C4=CC=C(C=C4)O)O)O)O
CH$IUPAC: InChI=1S/C23H22O10/c1-11(24)30-10-18-20(27)21(28)22(29)23(33-18)32-14-6-7-15-17(8-14)31-9-16(19(15)26)12-2-4-13(25)5-3-12/h2-9,18,20-23,25,27-29H,10H2,1H3/t18-,20-,21+,22-,23-/m1/s1
CH$LINK: CAS 71385-83-6
CH$LINK: CHEBI CHEBI:133395
CH$LINK: CHEMSPIDER 137518
CH$LINK: INCHIKEY ZMOZJTDOTOZVRT-DODNOZFWSA-N
CH$LINK: PUBCHEM CID:156155
AC$INSTRUMENT: X500R QTOF (AB Sciex LLC, USA)
AC$INSTRUMENT_TYPE: ESI-QTOF
AC$MASS_SPECTROMETRY: MS_TYPE MS2
AC$MASS_SPECTROMETRY: ION_MODE NEGATIVE
AC$MASS_SPECTROMETRY: COLLISION_ENERGY 60 V
AC$MASS_SPECTROMETRY: FRAGMENTATION_MODE CID
AC$MASS_SPECTROMETRY: IONIZATION ESI
MS$FOCUSED_ION: PRECURSOR_M/Z 457.11402
MS$FOCUSED_ION: PRECURSOR_TYPE [M-H]-
PK$SPLASH: splash10-0udi-0190000000-ba748a038d7d79b264c9
PK$NUM_PEAK: 22
PK$PEAK: m/z int. rel.int.
  91.0187 1.082 26
  104.0265 0.207 5
  117.0342 0.377 9
  132.0213 2.003 48
  133.0291 1.282 31
  135.0084 2.026 48
  167.0498 0.406 10
  169.0654 0.538 13
  180.0575 0.922 22
  181.0652 0.371 9
  195.0445 3.249 78
  196.0522 1.432 34
  197.0601 1.179 28
  208.0523 3.41 81
  209.06 2.607 62
  223.0393 8.197 196
  224.047 5.626 134
  225.0548 1.892 45
  251.0341 4.349 104
  252.0419 8.503 203
  253.0496 41.861 999
  254.0531 0.572 14
//
