ACCESSION: MSBNK-MSSJ-MSJ02834
RECORD_TITLE: Chlorxuron; LC-ESI-QTOF; MS2; [M-H]-; CID; CE 60V
DATE: 2023.10.22
AUTHORS: Atsushi Yamamoto, Faculty of Environmental Studies, Tottori University of Environmental Studies, 1-1, Wakabadai-kita, Tottori City, Tottori 689-1111, Japan.
LICENSE: CC BY
COPYRIGHT: Atsushi Yamamoto, Faculty of Environmental Studies, Tottori University of Environmental Studies, 1-1, Wakabadai-kita, Tottori City, Tottori 689-1111, Japan.
COMMENT: This record was created by the financial support of MEXT/JSPS KAKENHI Grant Number 23HP8017 to the Mass Spectrometry Society of Japan.
CH$NAME: Chlorxuron
CH$COMPOUND_CLASS: Non-natural product
CH$FORMULA: C15H15ClN2O2
CH$EXACT_MASS: 290.082205
CH$SMILES: CN(C)C(=O)NC1=CC=C(C=C1)OC2=CC=C(C=C2)Cl
CH$IUPAC: InChI=1S/C15H15ClN2O2/c1-18(2)15(19)17-12-5-9-14(10-6-12)20-13-7-3-11(16)4-8-13/h3-10H,1-2H3,(H,17,19)
CH$LINK: CAS 1982-47-4
CH$LINK: CHEMSPIDER 15299
CH$LINK: INCHIKEY IVUXTESCPZUGJC-UHFFFAOYSA-N
CH$LINK: PUBCHEM CID:16115
AC$INSTRUMENT: X500R QTOF (AB Sciex LLC, MA, USA) coupled to ExionLC AD (AB Sciex LLC, MA, USA).
AC$INSTRUMENT_TYPE: LC-ESI-QTOF
AC$MASS_SPECTROMETRY: MS_TYPE MS2
AC$MASS_SPECTROMETRY: ION_MODE NEGATIVE
AC$MASS_SPECTROMETRY: COLLISION_ENERGY 60 V
AC$MASS_SPECTROMETRY: COLLISION_GAS N2
AC$MASS_SPECTROMETRY: FRAGMENTATION_MODE CID
AC$MASS_SPECTROMETRY: IONIZATION ESI
AC$CHROMATOGRAPHY: COLUMN_NAME TSKgel ODS-100S 5 um, 2.1 mm × 250 mm, TOSOH
AC$CHROMATOGRAPHY: FLOW_GRADIENT 95/5 at 0 min, 95/5 at 3 min, 0/100 at 13 min, 0/100 at 23 min, 95/5 at 23.1 min, 95/5 at 28 min
AC$CHROMATOGRAPHY: FLOW_RATE 200 ul/min
AC$CHROMATOGRAPHY: RETENTION_TIME 15.0 min
AC$CHROMATOGRAPHY: SOLVENT A water with 20 mM formic acid aquatic solution
AC$CHROMATOGRAPHY: SOLVENT B methanol with 20 mM Formic acid methanolic solution
MS$FOCUSED_ION: PRECURSOR_M/Z 289.074928
MS$FOCUSED_ION: PRECURSOR_TYPE [M-H]-
PK$SPLASH: splash10-0089-2900000000-ee731348e067c909eac9
PK$ANNOTATION: m/z rel.int. formula exact_mass error(ppm) SMILES_of_ion HR_rules
  41.9986 332 [CH3NO-3H]- 41.998539 0(1.46) O=CN True
  93.0348 110 [C6H6O-H]- 93.034586 0(2.3) OC=1C=CC=CC1 True
  106.0299 346 [C6H7NO-3H]- 106.029838 0(0.58) OC1=CC=C(N)C=C1 True
  118.0299 396 [C7H7NO-3H]- 118.029838 0(0.52) O=CNC=1C=CC=CC1 True
  120.0456 828 [C7H7NO-H]- 120.045488 0(0.93) O=CNC=1C=CC=CC1 True
  126.9957 88 [C6H5ClO-H]- 126.995623 0(0.61) ClC1=CC=C(O)C=C1 True
  134.025 999 [C7H7NO2-3H]- 134.024757 0(1.81) O=CNC1=CC=C(O)C=C1 True
PK$NUM_PEAK: 10
PK$PEAK: m/z int. rel.int.
  34.9694 2.8 49
  41.9986 18.9 332
  78.035 18.2 319
  93.0348 6.3 110
  106.0299 19.8 346
  118.0299 22.6 396
  120.0456 47.3 828
  126.9957 5.0 88
  134.025 57.0 999
  134.0612 13.7 239
//
