ACCESSION: MSBNK-MSSJ-MSJ02971
RECORD_TITLE: Lactofen; LC-ESI-QTOF; MS2; [M+H]+; CID; CE 10V
DATE: 2023.10.22
AUTHORS: Atsushi Yamamoto, Faculty of Environmental Studies, Tottori University of Environmental Studies, 1-1, Wakabadai-kita, Tottori City, Tottori 689-1111, Japan.
LICENSE: CC BY
COPYRIGHT: Atsushi Yamamoto, Faculty of Environmental Studies, Tottori University of Environmental Studies, 1-1, Wakabadai-kita, Tottori City, Tottori 689-1111, Japan.
COMMENT: This record was created by the financial support of MEXT/JSPS KAKENHI Grant Number 23HP8017 to the Mass Spectrometry Society of Japan.
CH$NAME: Lactofen
CH$COMPOUND_CLASS: Non-natural product
CH$FORMULA: C19H15ClF3NO7
CH$EXACT_MASS: 461.048914
CH$SMILES: CCOC(=O)C(C)OC(=O)C1=C(C=CC(=C1)OC2=C(C=C(C=C2)C(F)(F)F)Cl)[N+](=O)[O-]
CH$IUPAC: InChI=1S/C19H15ClF3NO7/c1-3-29-17(25)10(2)30-18(26)13-9-12(5-6-15(13)24(27)28)31-16-7-4-11(8-14(16)20)19(21,22)23/h4-10H,3H2,1-2H3
CH$LINK: CAS 77501-63-4
CH$LINK: CHEMSPIDER 56077
CH$LINK: INCHIKEY CONWAEURSVPLRM-UHFFFAOYSA-N
CH$LINK: PUBCHEM CID:62276
AC$INSTRUMENT: X500R QTOF (AB Sciex LLC, MA, USA) coupled to ExionLC AD (AB Sciex LLC, MA, USA).
AC$INSTRUMENT_TYPE: LC-ESI-QTOF
AC$MASS_SPECTROMETRY: MS_TYPE MS2
AC$MASS_SPECTROMETRY: ION_MODE POSITIVE
AC$MASS_SPECTROMETRY: COLLISION_ENERGY 10 V
AC$MASS_SPECTROMETRY: COLLISION_GAS N2
AC$MASS_SPECTROMETRY: FRAGMENTATION_MODE CID
AC$MASS_SPECTROMETRY: IONIZATION ESI
AC$CHROMATOGRAPHY: COLUMN_NAME TSKgel ODS-100S 5 um, 2.1 mm × 250 mm, TOSOH
AC$CHROMATOGRAPHY: FLOW_GRADIENT 95/5 at 0 min, 95/5 at 3 min, 0/100 at 13 min, 0/100 at 23 min, 95/5 at 23.1 min, 95/5 at 28 min
AC$CHROMATOGRAPHY: FLOW_RATE 200 ul/min
AC$CHROMATOGRAPHY: RETENTION_TIME 15.9 min
AC$CHROMATOGRAPHY: SOLVENT A water with 20 mM formic acid aquatic solution
AC$CHROMATOGRAPHY: SOLVENT B methanol with 20 mM Formic acid methanolic solution
MS$FOCUSED_ION: PRECURSOR_M/Z 462.056191
MS$FOCUSED_ION: PRECURSOR_TYPE [M+H]+
PK$SPLASH: splash10-0006-0009000000-47a87493aef6c895f5fb
PK$ANNOTATION: m/z rel.int. formula exact_mass error(ppm) SMILES_of_ion HR_rules
  343.9931 999 [C14H7ClF3NO4-H]+ 343.993213 0(0.33) O=CC1=CC(OC2=CC=C(C=C2Cl)C(F)(F)F)=CC=C1[N+](=O)[O-] True
  416.0153 37 [C17H11ClF3NO6-H]+ 416.014331 0.001(2.33) O=CC(OC(=O)C1=CC(OC2=CC=C(C=C2Cl)C(F)(F)F)=CC=C1[N+](=O)[O-])C True
  462.0565 57 [C19H15ClF3NO7+H]+ 462.056196 0(0.66) O=C(OC(C(=O)OCC)C)C1=CC(OC2=CC=C(C=C2Cl)C(F)(F)F)=CC=C1[N+](=O)[O-] True
PK$NUM_PEAK: 4
PK$PEAK: m/z int. rel.int.
  343.9931 466.8 999
  344.9969 17.9 38
  416.0153 17.2 37
  462.0565 26.5 57
//
