ACCESSION: MSBNK-MSSJ-MSJ02503
RECORD_TITLE: Cinosulfuron; LC-ESI-QTOF; MS2; [M+H]+; CID; CE 40V
DATE: 2023.04.05
AUTHORS: Atsushi Yamamoto, Faculty of Environmental Studies, Tottori University of Environmental Studies, 1-1, Wakabadai-kita, Tottori City, Tottori 689-1111, Japan.
LICENSE: CC BY
COPYRIGHT: Atsushi Yamamoto, Faculty of Environmental Studies, Tottori University of Environmental Studies, 1-1, Wakabadai-kita, Tottori City, Tottori 689-1111, Japan.
COMMENT: This record was created by the financial support of MEXT/JSPS KAKENHI Grant Number 23HP8017 to the Mass Spectrometry Society of Japan.
CH$NAME: Cinosulfuron
CH$COMPOUND_CLASS: Non-natural product
CH$FORMULA: C15H19N5O7S
CH$EXACT_MASS: 413.100519
CH$SMILES: COCCOC1=CC=CC=C1S(=O)(=O)NC(=O)NC2=NC(=NC(=N2)OC)OC
CH$IUPAC: InChI=1S/C15H19N5O7S/c1-24-8-9-27-10-6-4-5-7-11(10)28(22,23)20-13(21)16-12-17-14(25-2)19-15(18-12)26-3/h4-7H,8-9H2,1-3H3,(H2,16,17,18,19,20,21)
CH$LINK: CAS 94593-91-6
CH$LINK: CHEMSPIDER 83438
CH$LINK: INCHIKEY WMLPCIHUFDKWJU-UHFFFAOYSA-N
CH$LINK: PUBCHEM CID:92420
AC$INSTRUMENT: X500R QTOF (AB Sciex LLC, MA, USA) coupled to ExionLC AD (AB Sciex LLC, MA, USA).
AC$INSTRUMENT_TYPE: LC-ESI-QTOF
AC$MASS_SPECTROMETRY: MS_TYPE MS2
AC$MASS_SPECTROMETRY: ION_MODE POSITIVE
AC$MASS_SPECTROMETRY: COLLISION_ENERGY 40 V
AC$MASS_SPECTROMETRY: COLLISION_GAS N2
AC$MASS_SPECTROMETRY: FRAGMENTATION_MODE CID
AC$MASS_SPECTROMETRY: IONIZATION ESI
AC$CHROMATOGRAPHY: COLUMN_NAME AQ-C18HP 3 microm, 2.1 mm × 150 mm (GL Science, Tokyo, Japan).
AC$CHROMATOGRAPHY: FLOW_GRADIENT 90/10 at 0 min, 90/10 at 8 min, 0/100 at 23 min, 0/100 at 30 min, 90/10 at 30.1 min, 90/10 at 40 min
AC$CHROMATOGRAPHY: FLOW_RATE 200 microL/min
AC$CHROMATOGRAPHY: RETENTION_TIME 28.9 min
AC$CHROMATOGRAPHY: SOLVENT A water with 2 mM Ammonium bicarbonate
AC$CHROMATOGRAPHY: SOLVENT B methanol with 2 mM Ammmonium bicarbonate
MS$FOCUSED_ION: PRECURSOR_M/Z 414.107796
MS$FOCUSED_ION: PRECURSOR_TYPE [M+H]+
PK$SPLASH: splash10-001i-1900000000-558d9a9fff2bfd693666
PK$ANNOTATION: m/z rel.int. formula exact_mass error(ppm) SMILES_of_ion HR_rules
  45.0334 26 [C2H6O-H]+ 45.033493 0(2.06) O(C)C True
  57.0443 49 [C2H4N2+H]+ 57.044725 0(7.46) N=CN=C True
  59.0491 55 [C3H8O-H]+ 59.049141 0(0.69) O(C)CC True
  69.0083 24 [C2H4N2O-3H]+ 69.00834 0(0.58) O=CNC=N True
  83.024 328 [C3H6N2O-3H]+ 83.023988 0(0.14) N=CN=COC True
  101.0345 28 [C3H6N2O2-H]+ 101.034557 0(0.56) N=C(O)N=COC True
  141.0003 270 [C6H6O2S-H]+ 141.000476 0(1.25) O=S(=O)C=1C=CC=CC1 True
  157.0718 472 [C5H8N4O2+H]+ 157.072004 0(1.3) N=1C(=NC(=NC1OC)N)OC True
  183.0109 645 [C8H10O3S-3H]+ 183.011041 0(0.77) O=S(=O)C=1C=CC=CC1OCC True
  183.051 999 [C6H8N4O3-H]+ 183.051273 0(1.49) O=CNC=1N=C(N=C(N1)OC)OC True
PK$NUM_PEAK: 16
PK$PEAK: m/z int. rel.int.
  45.0334 0.8 26
  57.0443 1.5 49
  59.0491 1.7 55
  69.0083 0.7 24
  83.024 9.9 328
  91.0542 1.9 62
  97.0102 3.0 98
  101.0345 0.8 28
  113.0055 3.7 122
  121.0281 7.2 240
  125.0052 7.5 248
  137.0053 4.8 160
  141.0003 8.1 270
  157.0718 14.2 472
  183.0109 19.4 645
  183.051 30.0 999
//
