ACCESSION: MSBNK-MSSJ-MSJ00766
RECORD_TITLE: Malic acid-[1-13C]; GC-EI-QQ; MS2; POSITIVE; CID 5 V; 3 TBDMS-derivative; [M-57]+
DATE: 2021.10.12
AUTHORS: Nobuyuki Okahashi and Fumio Matsuda, Osaka University
LICENSE: CC BY
COPYRIGHT: Nobuyuki Okahashi and Fumio Matsuda, Osaka University
PUBLICATION: Nobuyuki Okahashi et al. Mass Spectrometry 2019 vol. 8, A0073.
COMMENT: The sample analyzed is labeled with 13C at the carbon atom 1.
COMMENT: Annotation of fragment ions (PK$ANNOTATION) is based on Supplemental material page 27 of the publication.
COMMENT: This record was created by the financial support of MEXT/JSPS KAKENHI Grant Number 21HP8020 to the Mass Spectrometry Society of Japan.
CH$NAME: Malic acid-[1-13C]
CH$COMPOUND_CLASS: in Vitro synthetic compound
CH$FORMULA: C4H6O5
CH$EXACT_MASS: 134.02153
CH$SMILES: C(C([13C](=O)O)O)C(=O)O
CH$IUPAC: InChI=1S/C4H6O5/c5-2(4(8)9)1-3(6)7/h2,5H,1H2,(H,6,7)(H,8,9)/i4+1
CH$LINK: CAS 180991-05-3
CH$LINK: INCHIKEY BJEPYKJPYRNKOW-AZXPZELESA-N
CH$LINK: PUBCHEM CID:25214506
AC$INSTRUMENT: GCMS-TQ8040 (Shimadzu, Kyoto, Japan)
AC$INSTRUMENT_TYPE: GC-EI-QQ
AC$MASS_SPECTROMETRY: MS_TYPE MS2
AC$MASS_SPECTROMETRY: ION_MODE POSITIVE
AC$MASS_SPECTROMETRY: COLLISION_ENERGY 5 V
AC$MASS_SPECTROMETRY: COLLISION_GAS Ar (200 kPa)
AC$MASS_SPECTROMETRY: FRAGMENTATION_MODE CID
AC$MASS_SPECTROMETRY: ION_SOURCE_TEMPERATURE 200 C
AC$MASS_SPECTROMETRY: SCAN_RANGE_M/Z 50-600
AC$CHROMATOGRAPHY: COLUMN_NAME DB-5MS+DG (Agilent Technologies, Santa Clara, CA, USA)
AC$CHROMATOGRAPHY: INJECTION_TEMPERATURE 250 C
AC$CHROMATOGRAPHY: OVEN_TEMPERATURE 70 C (Duration 2 min)-280 C (rate:10 C/min; Duration 3 min)
AC$CHROMATOGRAPHY: TRANSFARLINE_TEMPERATURE 250 C
MS$FOCUSED_ION: DERIVATIVE_FORM C22H48O5Si3
MS$FOCUSED_ION: DERIVATIVE_MASS 476.28095
MS$FOCUSED_ION: DERIVATIVE_TYPE 3 TBDMS
MS$FOCUSED_ION: PRECURSOR_M/Z 420.21334
PK$SPLASH: splash10-014r-0901100000-dcf5ef100962daf28fde
PK$ANNOTATION: m/z formula exact_mass error(ppm)
  349.45 C15H37O3Si3+ 349.20450 703
  391.25 C17H39O4Si3+ 391.21507 89.3
PK$NUM_PEAK: 19
PK$PEAK: m/z int. rel.int.
  55.9 2049 62
  73.1 4617 141
  115.1 32689 999
  116.1 1356 41
  147.05 8675 265
  148.1 415 12
  149.1 356 10
  171.95 1973 60
  189.15 21250 649
  203.1 626 19
  214.1 529 16
  216.95 3592 109
  288 1156 35
  347.35 3683 112
  349.45 2230 68
  391.25 5101 155
  404.25 4849 148
  420.25 9242 282
  421.2 703 21
//
