ACCESSION: MSBNK-MSSJ-MSJ02638
RECORD_TITLE: Prosulfuron; LC-ESI-QTOF; MS2; [M-H]-; CID; CE 20V
DATE: 2022.03.14
AUTHORS: Atsushi Yamamoto, Faculty of Environmental Studies, Tottori University of Environmental Studies, 1-1, Wakabadai-kita, Tottori City, Tottori 689-1111, Japan.
LICENSE: CC BY
COPYRIGHT: Atsushi Yamamoto, Faculty of Environmental Studies, Tottori University of Environmental Studies, 1-1, Wakabadai-kita, Tottori City, Tottori 689-1111, Japan.
COMMENT: This record was created by the financial support of MEXT/JSPS KAKENHI Grant Number 23HP8017 to the Mass Spectrometry Society of Japan.
CH$NAME: Prosulfuron
CH$COMPOUND_CLASS: Non-natural product
CH$FORMULA: C15H16F3N5O4S
CH$EXACT_MASS: 419.08751
CH$SMILES: CC1=NC(=NC(=N1)OC)NC(=O)NS(=O)(=O)C2=CC=CC=C2CCC(F)(F)F
CH$IUPAC: InChI=1S/C15H16F3N5O4S/c1-9-19-12(22-14(20-9)27-2)21-13(24)23-28(25,26)11-6-4-3-5-10(11)7-8-15(16,17)18/h3-6H,7-8H2,1-2H3,(H2,19,20,21,22,23,24)
CH$LINK: CAS 94125-34-5
CH$LINK: CHEMSPIDER 82849
CH$LINK: INCHIKEY LTUNNEGNEKBSEH-UHFFFAOYSA-N
CH$LINK: PUBCHEM CID:91751
AC$INSTRUMENT: X500R QTOF (AB Sciex LLC, MA, USA) coupled to ExionLC AD (AB Sciex LLC, MA, USA).
AC$INSTRUMENT_TYPE: LC-ESI-QTOF
AC$MASS_SPECTROMETRY: MS_TYPE MS2
AC$MASS_SPECTROMETRY: ION_MODE NEGATIVE
AC$MASS_SPECTROMETRY: COLLISION_ENERGY 20 V
AC$MASS_SPECTROMETRY: COLLISION_GAS N2
AC$MASS_SPECTROMETRY: FRAGMENTATION_MODE CID
AC$MASS_SPECTROMETRY: IONIZATION ESI
AC$CHROMATOGRAPHY: COLUMN_NAME AQ-C18HP 3 microm, 2.1 mm × 150 mm (GL Science, Tokyo, Japan).
AC$CHROMATOGRAPHY: FLOW_GRADIENT 90/10 at 0 min, 90/10 at 8 min, 0/100 at 23 min, 0/100 at 30 min, 90/10 at 30.1 min, 90/10 at 40 min
AC$CHROMATOGRAPHY: FLOW_RATE 200 microL/min
AC$CHROMATOGRAPHY: RETENTION_TIME 32.6 min
AC$CHROMATOGRAPHY: SOLVENT A water with 2 mM Ammonium bicarbonate
AC$CHROMATOGRAPHY: SOLVENT B methanol with 2 mM Ammmonium bicarbonate
MS$FOCUSED_ION: PRECURSOR_M/Z 418.080233
MS$FOCUSED_ION: PRECURSOR_TYPE [M-H]-
PK$SPLASH: splash10-000i-0920200000-053923fbee59cb1df5af
PK$ANNOTATION: m/z rel.int. formula exact_mass error(ppm) SMILES_of_ion HR_rules
  139.0624 999 [C5H8N4O-H]- 139.062533 0(0.95) N=1C(=NC(=NC1N)C)OC True
  252.0312 271 [C9H10F3NO2S-H]- 252.03116 0(0.16) O=S(=O)(N)C=1C=CC=CC1CCC(F)(F)F True
  418.08 307 [C15H16F3N5O4S-H]- 418.080248 0(0.59) O=C(NC1=NC(=NC(=N1)C)OC)NS(=O)(=O)C=2C=CC=CC2CCC(F)(F)F True
PK$NUM_PEAK: 3
PK$PEAK: m/z int. rel.int.
  139.0624 111.2 999
  252.0312 30.1 271
  418.08 34.2 307
//
