ACCESSION: MSBNK-MSSJ-MSJ02717
RECORD_TITLE: Fenhexamid; LC-ESI-QTOF; MS2; [M+H]+; CID; CE 40V
DATE: 2022.03.14
AUTHORS: Atsushi Yamamoto, Faculty of Environmental Studies, Tottori University of Environmental Studies, 1-1, Wakabadai-kita, Tottori City, Tottori 689-1111, Japan.
LICENSE: CC BY
COPYRIGHT: Atsushi Yamamoto, Faculty of Environmental Studies, Tottori University of Environmental Studies, 1-1, Wakabadai-kita, Tottori City, Tottori 689-1111, Japan.
COMMENT: This record was created by the financial support of MEXT/JSPS KAKENHI Grant Number 23HP8017 to the Mass Spectrometry Society of Japan.
CH$NAME: Fenhexamid
CH$COMPOUND_CLASS: Non-natural product
CH$FORMULA: C14H17Cl2NO2
CH$EXACT_MASS: 301.063634
CH$SMILES: CC1(CCCCC1)C(=O)NC2=C(C(=C(C=C2)O)Cl)Cl
CH$IUPAC: InChI=1S/C14H17Cl2NO2/c1-14(7-3-2-4-8-14)13(19)17-9-5-6-10(18)12(16)11(9)15/h5-6,18H,2-4,7-8H2,1H3,(H,17,19)
CH$LINK: CAS 126833-17-8
CH$LINK: CHEMSPIDER 184726
CH$LINK: INCHIKEY VDLGAVXLJYLFDH-UHFFFAOYSA-N
CH$LINK: PUBCHEM CID:213031
AC$INSTRUMENT: X500R QTOF (AB Sciex LLC, MA, USA) coupled to ExionLC AD (AB Sciex LLC, MA, USA).
AC$INSTRUMENT_TYPE: LC-ESI-QTOF
AC$MASS_SPECTROMETRY: MS_TYPE MS2
AC$MASS_SPECTROMETRY: ION_MODE POSITIVE
AC$MASS_SPECTROMETRY: COLLISION_ENERGY 40 V
AC$MASS_SPECTROMETRY: COLLISION_GAS N2
AC$MASS_SPECTROMETRY: FRAGMENTATION_MODE CID
AC$MASS_SPECTROMETRY: IONIZATION ESI
AC$CHROMATOGRAPHY: COLUMN_NAME AQ-C18HP 3 microm, 2.1 mm × 150 mm (GL Science, Tokyo, Japan).
AC$CHROMATOGRAPHY: FLOW_GRADIENT 90/10 at 0 min, 90/10 at 8 min, 0/100 at 23 min, 0/100 at 30 min, 90/10 at 30.1 min, 90/10 at 40 min
AC$CHROMATOGRAPHY: FLOW_RATE 200 microL/min
AC$CHROMATOGRAPHY: RETENTION_TIME 33.3 min
AC$CHROMATOGRAPHY: SOLVENT A water with 2 mM Ammonium bicarbonate
AC$CHROMATOGRAPHY: SOLVENT B methanol with 2 mM Ammmonium bicarbonate
MS$FOCUSED_ION: PRECURSOR_M/Z 302.070911
MS$FOCUSED_ION: PRECURSOR_TYPE [M+H]+
PK$SPLASH: splash10-052b-9100000000-e444e56a4314a10d1543
PK$ANNOTATION: m/z rel.int. formula exact_mass error(ppm) SMILES_of_ion HR_rules
  55.054 496 [C4H10-3H]+ 55.054227 0(4.13) CCCC True
  97.1008 999 [C7H14-H]+ 97.101177 0(3.88) CC1CCCCC1 True
  142.0056 112 [C6H6ClNO-H]+ 142.00542 0(1.27) ClC1=CC(O)=CC=C1N True
  143.013 197 [C6H6ClNO]+ 143.013245 0(1.72) ClC1=CC(O)=CC=C1N False
PK$NUM_PEAK: 4
PK$PEAK: m/z int. rel.int.
  55.054 2.8 496
  97.1008 5.5 999
  142.0056 0.6 112
  143.013 1.1 197
//
