ACCESSION: MSBNK-MSSJ-MSJ00217
RECORD_TITLE: Dimethametryn; ESI-QTOF; MS2; POSITIVE; [M+H]+; CID; 80 V
DATE: 2020.03.17
AUTHORS: Atsushi Yamamoto, Faculty of Environmental Studies, Tottori University of Environmental Studies, 1-1, Wakabadai-kita, Tottori City, Tottori 689-1111, Japan.
LICENSE: CC BY
COPYRIGHT: Atsushi Yamamoto, Faculty of Environmental Studies, Tottori University of Environmental Studies, 1-1, Wakabadai-kita, Tottori City, Tottori 689-1111, Japan.
COMMENT: The sample was injected by direct infusion.
COMMENT: This record was created by the financial support of MEXT/JSPS KAKENHI Grant Number 19HP8024 to the Mass Spectrometry Society of Japan.
CH$NAME: Dimethametryn
CH$COMPOUND_CLASS: Non-natural product
CH$FORMULA: C11H21N5S
CH$EXACT_MASS: 255.1518
CH$SMILES: CCNc1nc(nc(n1)SC)NC(C)C(C)C
CH$IUPAC: InChI=1S/C11H21N5S/c1-6-12-9-14-10(13-8(4)7(2)3)16-11(15-9)17-5/h7-8H,6H2,1-5H3,(H2,12,13,14,15,16)
CH$LINK: CAS 22936-75-0
CH$LINK: CHEMSPIDER 29282
CH$LINK: INCHIKEY IKYICRRUVNIHPP-UHFFFAOYSA-N
CH$LINK: PUBCHEM CID:31573
AC$INSTRUMENT: X500R QTOF (AB Sciex LLC, USA)
AC$INSTRUMENT_TYPE: ESI-QTOF
AC$MASS_SPECTROMETRY: MS_TYPE MS2
AC$MASS_SPECTROMETRY: ION_MODE POSITIVE
AC$MASS_SPECTROMETRY: COLLISION_ENERGY 80 V
AC$MASS_SPECTROMETRY: FRAGMENTATION_MODE CID
AC$MASS_SPECTROMETRY: IONIZATION ESI
MS$FOCUSED_ION: PRECURSOR_M/Z 256.1590
MS$FOCUSED_ION: PRECURSOR_TYPE [M+H]+
PK$SPLASH: splash10-014l-9000000000-2bbb9dc3fc52a2185fe4
PK$NUM_PEAK: 9
PK$PEAK: m/z int. rel.int.
  27.0228 1.5419 70
  29.0384 0.7212 33
  39.0229 0.9936 45
  41.0385 3.25 147
  43.029 14.7752 667
  43.0542 2.55 115
  46.995 1.4327 65
  68.0242 22.1347 999
  74.006 4.708 212
//
