ACCESSION: MSBNK-MSSJ-MSJ02911
RECORD_TITLE: Tebufenozide; LC-ESI-QTOF; MS2; [M+H]+; CID; CE 40V
DATE: 2023.10.22
AUTHORS: Atsushi Yamamoto, Faculty of Environmental Studies, Tottori University of Environmental Studies, 1-1, Wakabadai-kita, Tottori City, Tottori 689-1111, Japan.
LICENSE: CC BY
COPYRIGHT: Atsushi Yamamoto, Faculty of Environmental Studies, Tottori University of Environmental Studies, 1-1, Wakabadai-kita, Tottori City, Tottori 689-1111, Japan.
COMMENT: This record was created by the financial support of MEXT/JSPS KAKENHI Grant Number 23HP8017 to the Mass Spectrometry Society of Japan.
CH$NAME: Tebufenozide
CH$COMPOUND_CLASS: Non-natural product
CH$FORMULA: C22H28N2O2
CH$EXACT_MASS: 352.215078
CH$SMILES: CCC1=CC=C(C=C1)C(=O)NN(C(=O)C2=CC(=CC(=C2)C)C)C(C)(C)C
CH$IUPAC: InChI=1S/C22H28N2O2/c1-7-17-8-10-18(11-9-17)20(25)23-24(22(4,5)6)21(26)19-13-15(2)12-16(3)14-19/h8-14H,7H2,1-6H3,(H,23,25)
CH$LINK: CAS 112410-23-8
CH$LINK: CHEMSPIDER 82870
CH$LINK: INCHIKEY QYPNKSZPJQQLRK-UHFFFAOYSA-N
CH$LINK: PUBCHEM CID:91773
AC$INSTRUMENT: X500R QTOF (AB Sciex LLC, MA, USA) coupled to ExionLC AD (AB Sciex LLC, MA, USA).
AC$INSTRUMENT_TYPE: LC-ESI-QTOF
AC$MASS_SPECTROMETRY: MS_TYPE MS2
AC$MASS_SPECTROMETRY: ION_MODE POSITIVE
AC$MASS_SPECTROMETRY: COLLISION_ENERGY 40 V
AC$MASS_SPECTROMETRY: COLLISION_GAS N2
AC$MASS_SPECTROMETRY: FRAGMENTATION_MODE CID
AC$MASS_SPECTROMETRY: IONIZATION ESI
AC$CHROMATOGRAPHY: COLUMN_NAME TSKgel ODS-100S 5 um, 2.1 mm × 250 mm, TOSOH
AC$CHROMATOGRAPHY: FLOW_GRADIENT 95/5 at 0 min, 95/5 at 3 min, 0/100 at 13 min, 0/100 at 23 min, 95/5 at 23.1 min, 95/5 at 28 min
AC$CHROMATOGRAPHY: FLOW_RATE 200 ul/min
AC$CHROMATOGRAPHY: RETENTION_TIME 15.1 min
AC$CHROMATOGRAPHY: SOLVENT A water with 20 mM formic acid aquatic solution
AC$CHROMATOGRAPHY: SOLVENT B methanol with 20 mM Formic acid methanolic solution
MS$FOCUSED_ION: PRECURSOR_M/Z 353.222355
MS$FOCUSED_ION: PRECURSOR_TYPE [M+H]+
PK$SPLASH: splash10-001i-0900000000-d112afc451868fb61f38
PK$ANNOTATION: m/z rel.int. formula exact_mass error(ppm) SMILES_of_ion HR_rules
  77.0385 50 [C6H6-H]+ 77.038578 0(1.01) C=1C=CC=CC1 True
  79.0541 83 [C6H6+H]+ 79.054228 0(1.62) C=1C=CC=CC1 True
  105.0696 394 [C8H10-H]+ 105.069873 0(2.6) C=1C=CC(=CC1)CC True
  133.065 999 [C9H10O-H]+ 133.064792 0(1.56) O=CC1=CC=C(C=C1)CC True
PK$NUM_PEAK: 6
PK$PEAK: m/z int. rel.int.
  77.0385 17.1 50
  79.0541 28.6 83
  103.0541 24.2 71
  105.0696 135.3 394
  123.0804 19.7 57
  133.065 342.7 999
//
