ACCESSION: MSBNK-MSSJ-MSJ02123
RECORD_TITLE: Diphenylguanidine; ESI-QTOF; MS2; ESI; POSITIVE; [M+H]+; CE 30 V
DATE: 2021.10.06
AUTHORS: Atsushi Yamamoto, Faculty of Environmental Studies, Tottori University of Environmental Studies, 1-1, Wakabadai-kita, Tottori City, Tottori 689-1111, Japan.
LICENSE: CC BY
COPYRIGHT: Atsushi Yamamoto, Faculty of Environmental Studies, Tottori University of Environmental Studies, 1-1, Wakabadai-kita, Tottori City, Tottori 689-1111, Japan.
COMMENT: This record was created by the financial support of MEXT/JSPS KAKENHI Grant Number 22HP8019 to the Mass Spectrometry Society of Japan.
COMMENT: The sample was injected by direct infusion.
CH$NAME: Diphenylguanidine
CH$COMPOUND_CLASS: Non-natural product
CH$FORMULA: C13H13N3
CH$EXACT_MASS: 211.11093
CH$SMILES: C1=CC=C(C=C1)NC(=NC2=CC=CC=C2)N
CH$IUPAC: InChI=1S/C13H13N3/c14-13(15-11-7-3-1-4-8-11)16-12-9-5-2-6-10-12/h1-10H,(H3,14,15,16)
CH$LINK: CAS 102-06-7
CH$LINK: CHEMSPIDER 7313
CH$LINK: INCHIKEY OWRCNXZUPFZXOS-UHFFFAOYSA-N
CH$LINK: PUBCHEM CID:7594
AC$INSTRUMENT: X500R QTOF (AB Sciex LLC, USA)
AC$INSTRUMENT_TYPE: ESI-QTOF
AC$MASS_SPECTROMETRY: MS_TYPE MS2
AC$MASS_SPECTROMETRY: ION_MODE POSITIVE
AC$MASS_SPECTROMETRY: COLLISION_ENERGY 30 V
AC$MASS_SPECTROMETRY: IONIZATION ESI
MS$FOCUSED_ION: PRECURSOR_M/Z 212.11821
MS$FOCUSED_ION: PRECURSOR_TYPE [M+H]+
PK$SPLASH: splash10-0297-9730000000-053f73a71d3087d1da7f
PK$ANNOTATION: m/z rel.int. formula exact_mass error(ppm) SMILES_of_ion HR_rules
  77.0382 649 [C6H6-H]+ 77.038578 0(4.9) C=1C=CC=CC1 True
  92.0491 702 [C6H7N-H]+ 92.049472 0(4.05) C1=CC=CCC=N1 True
  94.0644 677 [C6H7N+H]+ 94.065123 0.001(7.68) NC=1C=CC=CC1 True
  119.0594 742 [C7H8N2-H]+ 119.060375 0.001(8.19) N(=CN)C=1C=CC=CC1 True
  195.0903 999 [C13H12N2-H]+ 195.091678 0.001(7.06) N(=CNC=1C=CC=CC1)C=2C=CC=CC2 True
  212.1173 750 [C13H13N3+H]+ 212.118223 0.001(4.35) N(C=1C=CC=CC1)=C(N)NC=2C=CC=CC2 True
PK$NUM_PEAK: 6
PK$PEAK: m/z int. rel.int.
  77.0382 65.0135 649
  92.0491 70.2732 702
  94.0644 67.7384 677
  119.0594 74.2445 742
  195.0903 100 999
  212.1173 75.1085 750
//
