ACCESSION: MSBNK-MSSJ-MSJ01527
RECORD_TITLE: Etizolam; LC-ESI-QQ; MS2; ESI; POSITIVE; CE 50 V; [M+H]+
DATE: 2023.03.24
AUTHORS: Koji Yamaguchi, Department of Legal Medicine, Nippon Medical School, 1715 Kamagari, Inzai-shi, Chiba 270-1694, Japan.
LICENSE: CC BY
COPYRIGHT: Koji Yamaguchi, Department of Legal Medicine, Nippon Medical School, 1715 Kamagari, Inzai-shi, Chiba 270-1694, Japan.
COMMENT: Original data are in the 20230324_Revised.xlsx file.
COMMENT: This record was created by the financial support of MEXT/JSPS KAKENHI Grant Number 23HP8017 to the Mass Spectrometry Society of Japan.
CH$NAME: Etizolam
CH$COMPOUND_CLASS: Non-natural product
CH$FORMULA: C17H15ClN4S
CH$EXACT_MASS: 342.07058
CH$SMILES: CCC1=CC2=C(S1)N3C(=NN=C3CN=C2C4=CC=CC=C4Cl)C
CH$IUPAC: InChI=1S/C17H15ClN4S/c1-3-11-8-13-16(12-6-4-5-7-14(12)18)19-9-15-21-20-10(2)22(15)17(13)23-11/h4-8H,3,9H2,1-2H3
CH$LINK: CAS 40054-69-1
CH$LINK: CHEMSPIDER 3191
CH$LINK: INCHIKEY VMZUTJCNQWMAGF-UHFFFAOYSA-N
CH$LINK: PUBCHEM CID:3307
AC$INSTRUMENT: LCMS-8040 coupled to Nexera XR (Shimadzu, Kyoro, Japan).
AC$INSTRUMENT_TYPE: LC-ESI-QQ
AC$MASS_SPECTROMETRY: MS_TYPE MS2
AC$MASS_SPECTROMETRY: ION_MODE POSITIVE
AC$MASS_SPECTROMETRY: COLLISION_ENERGY 50 V
AC$MASS_SPECTROMETRY: IONIZATION ESI
AC$CHROMATOGRAPHY: COLUMN_NAME InertSustain C18 ID 2.1 microm, 2.1 x 100 mm (GL Science, Tokyo, Japan).
AC$CHROMATOGRAPHY: FLOW_GRADIENT 90/10 at 0 min, linear gradient from 90/10 to 2/98 at 0-9 min, 2/98 at 9-12 min, linear gradient from 2/98 to 90/10 at 12-12.1 min, 90/10 at 12.1-15 min.
AC$CHROMATOGRAPHY: FLOW_RATE 200 microL/min
AC$CHROMATOGRAPHY: RETENTION_TIME 9.049 min
AC$CHROMATOGRAPHY: SOLVENT A water with 10 mM ammonium formate
AC$CHROMATOGRAPHY: SOLVENT B methanol
MS$FOCUSED_ION: PRECURSOR_M/Z 343.07786
MS$FOCUSED_ION: PRECURSOR_TYPE [M+H]+
PK$SPLASH: splash10-00di-3890000000-558d6d97e7882777b2c1
PK$NUM_PEAK: 178
PK$PEAK: m/z int. rel.int.
  23 699 38
  27 940 51
  29 1003 54
  39 699 38
  42 3098 167
  45 1398 75
  53 699 38
  55 435 23
  57 1615 87
  58 820 44
  59 699 38
  65 3094 166
  66 1414 76
  67 1547 83
  69 1243 67
  70 697 37
  71 1089 59
  73 1271 68
  77 8220 442
  78 1944 105
  79 2689 145
  80 699 38
  81 1049 56
  82 349 19
  84 1049 56
  85 2448 132
  86 699 38
  89 699 38
  90 1399 75
  91 6409 345
  92 349 19
  94 1749 94
  96 3757 202
  97 2486 134
  98 1376 74
  99 1049 56
  102 3636 196
  103 699 38
  104 679 37
  105 1003 54
  106 699 38
  107 699 38
  108 668 36
  109 4502 242
  110 3260 175
  111 940 51
  115 699 38
  117 559 30
  118 349 19
  119 349 19
  121 5990 322
  122 1018 55
  123 6509 350
  125 1256 68
  126 1399 75
  127 637 34
  129 2328 125
  130 349 19
  131 2067 111
  134 1680 90
  135 5725 308
  136 1408 76
  137 1693 91
  138 18575 999
  139 349 19
  143 424 23
  145 349 19
  147 1507 81
  148 668 36
  149 3509 189
  150 3461 186
  152 961 52
  153 349 19
  154 1049 56
  155 668 36
  156 699 38
  158 349 19
  161 699 38
  162 2338 126
  163 580 31
  164 396 21
  165 5265 283
  166 2005 108
  167 3381 182
  170 349 19
  171 6557 353
  172 699 38
  175 699 38
  176 2673 144
  177 2736 147
  178 2230 120
  179 3445 185
  180 5297 285
  181 1399 75
  183 4225 227
  184 1671 90
  185 1399 75
  189 848 46
  190 5615 302
  192 3614 194
  193 1337 72
  195 2014 108
  196 6964 375
  197 5052 272
  198 3128 168
  199 1788 96
  202 2305 124
  204 349 19
  205 1228 66
  206 2578 139
  208 699 38
  209 5936 319
  210 11003 592
  211 7411 399
  212 1524 82
  213 2847 153
  214 3592 193
  215 3625 195
  217 1254 67
  218 5611 302
  219 3058 164
  220 2809 151
  223 17338 932
  224 17795 957
  225 2994 161
  226 2213 119
  227 1682 91
  229 1865 100
  230 628 34
  231 697 37
  232 1363 73
  233 1241 67
  234 697 37
  235 1688 91
  236 1003 54
  237 1759 95
  238 2449 132
  239 2602 140
  240 1799 97
  242 1399 75
  243 1399 75
  244 668 36
  245 3665 197
  246 1731 93
  247 1399 75
  248 1047 56
  249 4091 220
  250 1712 92
  251 1003 54
  252 2776 149
  253 699 38
  257 1339 72
  258 8152 438
  259 6491 349
  260 3578 192
  262 699 38
  263 276 15
  264 699 38
  265 349 19
  267 699 38
  268 699 38
  269 1399 75
  271 699 38
  272 1882 101
  273 2093 113
  274 1399 75
  275 699 38
  277 848 46
  279 2146 115
  284 1399 75
  285 1953 105
  286 585 31
  290 1213 65
  295 1963 106
  305 668 36
  311 1049 56
  314 5734 308
  343 699 38
//
