ACCESSION: MSBNK-MSSJ-MSJ02186
RECORD_TITLE: Cyanophenylguanidine; ESI-QTOF; MS2; ESI; POSITIVE; [M+H]+; CE 40 V
DATE: 2021.10.06
AUTHORS: Atsushi Yamamoto, Faculty of Environmental Studies, Tottori University of Environmental Studies, 1-1, Wakabadai-kita, Tottori City, Tottori 689-1111, Japan.
LICENSE: CC BY
COPYRIGHT: Atsushi Yamamoto, Faculty of Environmental Studies, Tottori University of Environmental Studies, 1-1, Wakabadai-kita, Tottori City, Tottori 689-1111, Japan.
COMMENT: This record was created by the financial support of MEXT/JSPS KAKENHI Grant Number 22HP8019 to the Mass Spectrometry Society of Japan.
COMMENT: The sample was injected by direct infusion.
CH$NAME: Cyanophenylguanidine
CH$COMPOUND_CLASS: Non-natural product
CH$FORMULA: C8H8N4
CH$EXACT_MASS: 160.07488
CH$SMILES: N#Cc1ccc(NC(=N)N)cc1
CH$IUPAC: InChI=1S/C8H8N4/c9-5-6-1-3-7(4-2-6)12-8(10)11/h1-4H,(H4,10,11,12)
CH$LINK: CAS 5637-42-3
CH$LINK: CHEMSPIDER 14659069
CH$LINK: INCHIKEY BTDGLZSKNFJBER-UHFFFAOYSA-N
CH$LINK: PUBCHEM CID:17747914
AC$INSTRUMENT: X500R QTOF (AB Sciex LLC, USA)
AC$INSTRUMENT_TYPE: ESI-QTOF
AC$MASS_SPECTROMETRY: MS_TYPE MS2
AC$MASS_SPECTROMETRY: ION_MODE POSITIVE
AC$MASS_SPECTROMETRY: COLLISION_ENERGY 40 V
AC$MASS_SPECTROMETRY: IONIZATION ESI
MS$FOCUSED_ION: PRECURSOR_M/Z 161.08216
MS$FOCUSED_ION: PRECURSOR_TYPE [M+H]+
PK$SPLASH: splash10-0f6x-9800000000-f24ead6241b72e97bb15
PK$ANNOTATION: m/z rel.int. formula exact_mass error(ppm) SMILES_of_ion HR_rules
  43.0286 579 [CH4N2-H]+ 43.029075 0(11.05) N=CN True
  75.0222 761 [C6H6-3H]+ 75.022928 0.001(9.7) C=1C=CC=CC1 True
  78.0344 94 [C6H6]+ 78.046403 0.012(153.81) C=1C=CC=CC1 False
  90.0331 804 [C6H7N-3H]+ 90.033822 0.001(8.02) NC=1C=CC=CC1 True
  92.049 486 [C6H7N-H]+ 92.049472 0(5.13) NC=1C=CC=CC1 True
  102.0326 855 [C7H5N-H]+ 102.033825 0.001(12) N#CC=1C=CC=CC1 True
  117.0438 771 [C7H6N2-H]+ 117.044727 0.001(7.92) N#CC1=CC=C(N)C=C1 True
  119.0601 328 [C7H6N2+H]+ 119.060377 0(2.33) N#CC1=CC=C(N)C=C1 True
  130.0387 999 [C7H9N3-5H]+ 130.03996 0.001(9.7) NC(=N)Nc1ccccc1 True
  144.0546 724 [C8H7N3-H]+ 144.055622 0.001(7.09) N#CC1=CC=C(C=C1)NC=N True
PK$NUM_PEAK: 16
PK$PEAK: m/z int. rel.int.
  43.0286 57.9875 579
  51.0226 54.999 549
  52.0189 5.085 51
  63.0235 7.2992 73
  65.0384 37.0003 370
  75.0222 76.1325 761
  76.0183 24.8601 248
  78.0344 9.454 94
  90.0331 80.456 804
  92.049 48.655 486
  102.0326 85.5892 855
  117.0438 77.185 771
  119.0601 32.7875 328
  120.0447 13.7217 137
  130.0387 100 999
  144.0546 72.4635 724
//
