ACCESSION: MSBNK-MSSJ-MSJ00004
RECORD_TITLE: Feruloylputrescine; LC-ESI-ITTOF; MS2; [M+H]+
DATE: 2016.01.19 (Created 2014.07.16)
AUTHORS: CASMI2013 organizers
LICENSE: CC BY-SA
COPYRIGHT: Mass Spectrometry Society of Japan
COMMENT: CASMI2013 Challenge_2 MS2 data
COMMENT: [MS1] MSJ00003
CH$NAME: Feruloylputrescine
CH$NAME: Subaphyllin
CH$COMPOUND_CLASS: Natural Product; Phenylpropanoids; ferulic acid esters
CH$FORMULA: C14H20N2O3
CH$EXACT_MASS: 264.14739
CH$SMILES: COC1=C(C=CC(=C1)/C=C/C(=O)NCCCCN)O
CH$IUPAC: InChI=1S/C14H20N2O3/c1-19-13-10-11(4-6-12(13)17)5-7-14(18)16-9-3-2-8-15/h4-7,10,17H,2-3,8-9,15H2,1H3,(H,16,18)/b7-5+
CH$LINK: CHEMSPIDER 4445108
CH$LINK: KEGG C10497
CH$LINK: KNAPSACK C00002780
CH$LINK: PUBCHEM CID:5281796
CH$LINK: INCHIKEY SFUVCMKSYKHYLD-FNORWQNLSA-N
CH$LINK: COMPTOX DTXSID90904144
SP$SCIENTIFIC_NAME: Solanaceae
AC$INSTRUMENT: LCMS-ITTOF, Shimadzu
AC$INSTRUMENT_TYPE: LC-ESI-ITTOF
AC$MASS_SPECTROMETRY: MS_TYPE MS2
AC$MASS_SPECTROMETRY: ION_MODE POSITIVE
AC$MASS_SPECTROMETRY: CDL_TEMPERATURE 200 C
AC$MASS_SPECTROMETRY: COLLISION_ENERGY 120 %
AC$MASS_SPECTROMETRY: IONIZATION ESI
AC$MASS_SPECTROMETRY: MASS_ACCURACY 10 ppm or better
AC$MASS_SPECTROMETRY: NEBULIZER 1.5 L/min
AC$CHROMATOGRAPHY: COLUMN_NAME Agilent Poroshell 120 EC-C18 (2.1 x 75 mm)
AC$CHROMATOGRAPHY: FLOW_GRADIENT 10-70% acetonitrile for 8 min
AC$CHROMATOGRAPHY: FLOW_RATE 0.2 mL/min
AC$CHROMATOGRAPHY: SOLVENT A H2O (0.1% formate)
AC$CHROMATOGRAPHY: SOLVENT B acetonitrile (0.1% formate)
MS$FOCUSED_ION: PRECURSOR_M/Z 265.15576
MS$FOCUSED_ION: PRECURSOR_TYPE [M+H]+
PK$SPLASH: splash10-004j-0940000000-b92108205c2eced4c970
PK$NUM_PEAK: 10
PK$PEAK: m/z int. rel.int.
  114.0914 246161 126
  115.0891 63936 33
  145.0276 213184 109
  152.0697 195254 100
  177.0546 1958057 999
  178.0574 146136 75
  206.1163 306704 156
  207.1179 31033 16
  248.126 838282 428
  249.1297 110903 57
//
