ACCESSION: MSBNK-MSSJ-MSJ02931
RECORD_TITLE: Anilofos; LC-ESI-QTOF; MS2; [M+H]+; CID; CE 30V
DATE: 2023.10.22
AUTHORS: Atsushi Yamamoto, Faculty of Environmental Studies, Tottori University of Environmental Studies, 1-1, Wakabadai-kita, Tottori City, Tottori 689-1111, Japan.
LICENSE: CC BY
COPYRIGHT: Atsushi Yamamoto, Faculty of Environmental Studies, Tottori University of Environmental Studies, 1-1, Wakabadai-kita, Tottori City, Tottori 689-1111, Japan.
COMMENT: This record was created by the financial support of MEXT/JSPS KAKENHI Grant Number 23HP8017 to the Mass Spectrometry Society of Japan.
CH$NAME: Anilofos
CH$COMPOUND_CLASS: Non-natural product
CH$FORMULA: C13H19ClNO3PS2
CH$EXACT_MASS: 367.023251
CH$SMILES: CC(C)N(C1=CC=C(C=C1)Cl)C(=O)CSP(=S)(OC)OC
CH$IUPAC: InChI=1S/C13H19ClNO3PS2/c1-10(2)15(12-7-5-11(14)6-8-12)13(16)9-21-19(20,17-3)18-4/h5-8,10H,9H2,1-4H3
CH$LINK: CAS 64249-01-0
CH$LINK: CHEMSPIDER 82790
CH$LINK: INCHIKEY NXQDBZGWYSEGFL-UHFFFAOYSA-N
CH$LINK: PUBCHEM CID:91687
AC$INSTRUMENT: X500R QTOF (AB Sciex LLC, MA, USA) coupled to ExionLC AD (AB Sciex LLC, MA, USA).
AC$INSTRUMENT_TYPE: LC-ESI-QTOF
AC$MASS_SPECTROMETRY: MS_TYPE MS2
AC$MASS_SPECTROMETRY: ION_MODE POSITIVE
AC$MASS_SPECTROMETRY: COLLISION_ENERGY 30 V
AC$MASS_SPECTROMETRY: COLLISION_GAS N2
AC$MASS_SPECTROMETRY: FRAGMENTATION_MODE CID
AC$MASS_SPECTROMETRY: IONIZATION ESI
AC$CHROMATOGRAPHY: COLUMN_NAME TSKgel ODS-100S 5 um, 2.1 mm × 250 mm, TOSOH
AC$CHROMATOGRAPHY: FLOW_GRADIENT 95/5 at 0 min, 95/5 at 3 min, 0/100 at 13 min, 0/100 at 23 min, 95/5 at 23.1 min, 95/5 at 28 min
AC$CHROMATOGRAPHY: FLOW_RATE 200 ul/min
AC$CHROMATOGRAPHY: RETENTION_TIME 15.4 min
AC$CHROMATOGRAPHY: SOLVENT A water with 20 mM formic acid aquatic solution
AC$CHROMATOGRAPHY: SOLVENT B methanol with 20 mM Formic acid methanolic solution
MS$FOCUSED_ION: PRECURSOR_M/Z 368.030528
MS$FOCUSED_ION: PRECURSOR_TYPE [M+H]+
PK$SPLASH: splash10-00di-0900000000-b0939c89fc7f0816a54b
PK$ANNOTATION: m/z rel.int. formula exact_mass error(ppm) SMILES_of_ion HR_rules
  78.9941 49 [CH5O2P-H]+ 78.994342 0(3.07) OPOC True
  124.9815 861 [C2H7O2PS-H]+ 124.982067 0.001(4.53) S=P(OC)OC True
  128.026 94 [C6H6ClN+H]+ 128.026152 0(1.18) ClC1=CC=C(N)C=C1 True
  138.0104 110 [C7H8ClN-3H]+ 138.010507 0(0.78) ClC1=CC=C(C=C1)NC True
  156.9538 497 [C2H7O2PS2-H]+ 156.954136 0(2.14) S=P(S)(OC)OC True
  166.0055 72 [C8H8ClNO-3H]+ 166.005426 0(0.45) O=C(NC1=CC=C(Cl)C=C1)C True
  170.0729 79 [C9H12ClN+H]+ 170.073103 0(1.19) ClC1=CC=C(C=C1)NC(C)C True
  170.9692 999 [C3H9O2PS2-H]+ 170.969791 0.001(3.46) S=P(OC)(OC)SC True
  198.9644 898 [C4H9O3PS2-H]+ 198.964695 0(1.48) O=CCSP(=S)(OC)OC True
  293.9579 107 [C9H11ClNO2PS2-H]+ 293.957355 0.001(1.85) O=C(NC1=CC=C(Cl)C=C1)CSP(=S)OC True
PK$NUM_PEAK: 13
PK$PEAK: m/z int. rel.int.
  78.9941 19.5 49
  124.9815 342.3 861
  128.026 37.5 94
  138.0104 43.6 110
  142.9925 101.5 255
  156.9538 197.8 497
  166.0055 28.8 72
  170.0729 31.3 79
  170.9692 397.1 999
  183.9982 69.0 174
  198.9644 356.8 898
  208.0523 48.6 122
  293.9579 42.4 107
//
