ACCESSION: MSBNK-MSSJ-MSJ01603
RECORD_TITLE: Clobazam; LC-ESI-QQ; MS2; ESI; POSITIVE; CE 40 V; [M+NH4]+
DATE: 2023.03.24
AUTHORS: Koji Yamaguchi, Department of Legal Medicine, Nippon Medical School, 1715 Kamagari, Inzai-shi, Chiba 270-1694, Japan.
LICENSE: CC BY
COPYRIGHT: Koji Yamaguchi, Department of Legal Medicine, Nippon Medical School, 1715 Kamagari, Inzai-shi, Chiba 270-1694, Japan.
COMMENT: Original data are in the 20230324-3.xlsx file.
COMMENT: This record was created by the financial support of MEXT/JSPS KAKENHI Grant Number 23HP8017 to the Mass Spectrometry Society of Japan.
CH$NAME: Clobazam
CH$COMPOUND_CLASS: Non-natural product
CH$FORMULA: C16H13ClN2O2
CH$EXACT_MASS: 300.06655
CH$SMILES: CN1C(=O)CC(=O)N(C2=C1C=CC(=C2)Cl)C3=CC=CC=C3
CH$IUPAC: InChI=1S/C16H13ClN2O2/c1-18-13-8-7-11(17)9-14(13)19(16(21)10-15(18)20)12-5-3-2-4-6-12/h2-9H,10H2,1H3
CH$LINK: CAS 22316-47-8
CH$LINK: CHEMSPIDER 2687
CH$LINK: INCHIKEY CXOXHMZGEKVPMT-UHFFFAOYSA-N
CH$LINK: PUBCHEM CID:2789
AC$INSTRUMENT: LCMS-8040 coupled to Nexera XR (Shimadzu, Kyoto, Japan).
AC$INSTRUMENT_TYPE: LC-ESI-QQ
AC$MASS_SPECTROMETRY: MS_TYPE MS2
AC$MASS_SPECTROMETRY: ION_MODE POSITIVE
AC$MASS_SPECTROMETRY: COLLISION_ENERGY 40 V
AC$MASS_SPECTROMETRY: IONIZATION ESI
AC$CHROMATOGRAPHY: COLUMN_NAME InertSustain C18 ID 2.1 microm, 2.1 x 100 mm (GL Science, Tokyo, Japan).
AC$CHROMATOGRAPHY: FLOW_GRADIENT 90/10 at 0 min, linear gradient from 90/10 to 2/98 at 0-9 min, 2/98 at 9-12 min, linear gradient from 2/98 to 90/10 at 12-12.1 min, 90/10 at 12.1-15 min.
AC$CHROMATOGRAPHY: FLOW_RATE 200 microl/min
AC$CHROMATOGRAPHY: RETENTION_TIME 8.818 min
AC$CHROMATOGRAPHY: SOLVENT A water with 10 mM ammonium formate
AC$CHROMATOGRAPHY: SOLVENT B methanol
MS$FOCUSED_ION: PRECURSOR_M/Z 318.10092
MS$FOCUSED_ION: PRECURSOR_TYPE [M+NH4]+
PK$SPLASH: splash10-0ab9-0390000000-7ea43e002e204cdb2131
PK$NUM_PEAK: 25
PK$PEAK: m/z int. rel.int.
  44 860 15
  77 3377 59
  105 23192 405
  112 573 10
  117 2118 37
  140 1409 25
  141 573 10
  153 9558 167
  166 1357 24
  181 6637 116
  182 3360 59
  195 2240 39
  203 947 17
  206 860 15
  207 573 10
  215 2379 42
  216 13890 243
  217 572 10
  218 2467 43
  222 1097 19
  224 57194 999
  244 5032 88
  257 772 13
  259 51076 892
  301 611 11
//
