ACCESSION: MSBNK-MSSJ-MSJ00194
RECORD_TITLE: Dicyclohexylurea; ESI-QTOF; MS2; POSITIVE; [M+H]+; CID; 20 kV
DATE: 2020.03.06
AUTHORS: Atsushi Yamamoto, Faculty of Environmental Studies, Tottori University of Environmental Studies, 1-1, Wakabadai-kita, Tottori City, Tottori 689-1111, Japan.
LICENSE: CC BY
COPYRIGHT: Atsushi Yamamoto, Faculty of Environmental Studies, Tottori University of Environmental Studies, 1-1, Wakabadai-kita, Tottori City, Tottori 689-1111, Japan.
COMMENT: The sample was injected by direct infusion.
COMMENT: This record was created by the financial support of MEXT/JSPS KAKENHI Grant Number 19HP8024 to the Mass Spectrometry Society of Japan.
CH$NAME: Dicyclohexylurea
CH$NAME: 1,3-Dicyclohexylurea
CH$COMPOUND_CLASS: Non-natural product; Ureas
CH$FORMULA: C13H24N2O
CH$EXACT_MASS: 224.1889
CH$SMILES: C1CCC(CC1)NC(=O)NC2CCCCC2
CH$IUPAC: InChI=1S/C13H24N2O/c16-13(14-11-7-3-1-4-8-11)15-12-9-5-2-6-10-12/h11-12H,1-10H2,(H2,14,15,16)
CH$LINK: CAS 2387-23-7
CH$LINK: CHEMSPIDER 4126
CH$LINK: INCHIKEY ADFXKUOMJKEIND-UHFFFAOYSA-N
CH$LINK: PUBCHEM CID:4277
AC$INSTRUMENT: X500R QTOF (AB Sciex Pte. Ltd, USA)
AC$INSTRUMENT_TYPE: ESI-QTOF
AC$MASS_SPECTROMETRY: MS_TYPE MS2
AC$MASS_SPECTROMETRY: ION_MODE POSITIVE
AC$MASS_SPECTROMETRY: COLLISION_ENERGY 20 kV
AC$MASS_SPECTROMETRY: FRAGMENTATION_MODE CID
AC$MASS_SPECTROMETRY: IONIZATION ESI
MS$FOCUSED_ION: PRECURSOR_M/Z 225.1961
MS$FOCUSED_ION: PRECURSOR_TYPE [M+H]+
PK$SPLASH: splash10-004i-0390000000-9a734e1af46c653802d5
PK$NUM_PEAK: 4
PK$PEAK: m/z int. rel.int.
  83.0855 11.56 36
  100.1118 108.23 333
  143.1179 27.12 83
  225.1952 325.1 999
//
