ACCESSION: MSBNK-MSSJ-MSJ02763
RECORD_TITLE: Chloridazon; LC-ESI-QTOF; MS2; [M+H]+; CID; CE 50V
DATE: 2023.10.22
AUTHORS: Atsushi Yamamoto, Faculty of Environmental Studies, Tottori University of Environmental Studies, 1-1, Wakabadai-kita, Tottori City, Tottori 689-1111, Japan.
LICENSE: CC BY
COPYRIGHT: Atsushi Yamamoto, Faculty of Environmental Studies, Tottori University of Environmental Studies, 1-1, Wakabadai-kita, Tottori City, Tottori 689-1111, Japan.
COMMENT: This record was created by the financial support of MEXT/JSPS KAKENHI Grant Number 23HP8017 to the Mass Spectrometry Society of Japan.
CH$NAME: Chloridazon
CH$COMPOUND_CLASS: Non-natural product
CH$FORMULA: C10H8ClN3O
CH$EXACT_MASS: 221.03559
CH$SMILES: C1=CC=C(C=C1)N2C(=O)C(=C(C=N2)N)Cl
CH$IUPAC: InChI=1S/C10H8ClN3O/c11-9-8(12)6-13-14(10(9)15)7-4-2-1-3-5-7/h1-6H,12H2
CH$LINK: CAS 1698-60-8
CH$LINK: CHEMSPIDER 14790
CH$LINK: INCHIKEY WYKYKTKDBLFHCY-UHFFFAOYSA-N
CH$LINK: PUBCHEM CID:15546
AC$INSTRUMENT: X500R QTOF (AB Sciex LLC, MA, USA) coupled to ExionLC AD (AB Sciex LLC, MA, USA).
AC$INSTRUMENT_TYPE: LC-ESI-QTOF
AC$MASS_SPECTROMETRY: MS_TYPE MS2
AC$MASS_SPECTROMETRY: ION_MODE POSITIVE
AC$MASS_SPECTROMETRY: COLLISION_ENERGY 50 V
AC$MASS_SPECTROMETRY: COLLISION_GAS N2
AC$MASS_SPECTROMETRY: FRAGMENTATION_MODE CID
AC$MASS_SPECTROMETRY: IONIZATION ESI
AC$CHROMATOGRAPHY: COLUMN_NAME TSKgel ODS-100S 5 um, 2.1 mm × 250 mm, TOSOH
AC$CHROMATOGRAPHY: FLOW_GRADIENT 95/5 at 0 min, 95/5 at 3 min, 0/100 at 13 min, 0/100 at 23 min, 95/5 at 23.1 min, 95/5 at 28 min
AC$CHROMATOGRAPHY: FLOW_RATE 200 ul/min
AC$CHROMATOGRAPHY: RETENTION_TIME 11.7 min
AC$CHROMATOGRAPHY: SOLVENT A water with 20 mM formic acid aquatic solution
AC$CHROMATOGRAPHY: SOLVENT B methanol with 20 mM Formic acid methanolic solution
MS$FOCUSED_ION: PRECURSOR_M/Z 222.042867
MS$FOCUSED_ION: PRECURSOR_TYPE [M+H]+
PK$SPLASH: splash10-0fvl-9200000000-5e94c7dabbb50f5858a7
PK$ANNOTATION: m/z rel.int. formula exact_mass error(ppm) SMILES_of_ion HR_rules
  39.0227 92 [C3H6-3H]+ 39.022928 0(5.83) C=CC True
  55.0288 73 [C2H6N2-3H]+ 55.029073 0(4.96) N=CCN True
  66.021 141 [C3H6N2-4H]+ 66.021252 0(3.81) N=CC(=C)N False
  73.9789 64 [C2H4ClN-3H]+ 73.979204 0(4.1) ClC=CN True
  77.0383 999 [C6H6-H]+ 77.038578 0(3.6) C=1C=CC=CC1 True
  87.9946 268 [C3H4ClN-H]+ 87.994854 0(2.88) ClC=CC=N True
  92.0492 381 [C6H7N-H]+ 92.049472 0(2.96) NC=1C=CC=CC1 True
  100.9898 263 [C3H5ClN2-3H]+ 100.990098 0(2.95) ClC=C(N)C=N True
  128.9849 86 [C4H3ClN2O-H]+ 128.985019 0(0.93) O=C1NN=CC=C1Cl True
  146.0113 235 [C4H4ClN3O+H]+ 146.011564 0(1.81) O=C1NN=CC(N)=C1Cl True
PK$NUM_PEAK: 20
PK$PEAK: m/z int. rel.int.
  39.0227 7.4 92
  51.0227 18.6 230
  53.0383 4.2 52
  55.0288 5.9 73
  65.0383 46.2 571
  66.021 11.4 141
  73.9789 5.1 64
  77.0383 80.9 999
  87.9946 21.7 268
  92.0492 30.9 381
  93.0571 15.7 194
  94.0648 6.5 81
  95.0489 7.6 93
  100.9898 21.3 263
  104.0493 15.7 194
  105.0445 9.3 114
  116.9975 6.0 74
  128.9849 7.0 86
  130.0649 7.5 93
  146.0113 19.0 235
//
