ACCESSION: MSBNK-MSSJ-MSJ00364
RECORD_TITLE: Polyporenic acid C; ESI-QTOF; MS2; POSITIVE; [M+H]+; CID; 20 V
DATE: 2021.02.04
AUTHORS: Atsushi Yamamoto, Faculty of Environmental Studies, Tottori University of Environmental Studies, 1-1, Wakabadai-kita, Tottori City, Tottori 689-1111, Japan.
LICENSE: CC BY
COPYRIGHT: Atsushi Yamamoto, Faculty of Environmental Studies, Tottori University of Environmental Studies, 1-1, Wakabadai-kita, Tottori City, Tottori 689-1111, Japan.
COMMENT: The sample was injected by direct infusion.
COMMENT: This record was created by the financial support of MEXT/JSPS KAKENHI Grant Number 20HP8016 to the Mass Spectrometry Society of Japan.
CH$NAME: Polyporenic acid C
CH$COMPOUND_CLASS: Non-natural product; Lanosterol analogue
CH$FORMULA: C31H46O4
CH$EXACT_MASS: 482.33961
CH$SMILES: CC(C)C(=C)CC[C@H]([C@H]1[C@@H](C[C@@]2([C@@]1(CC=C3C2=CC[C@@H]4[C@@]3(CCC(=O)C4(C)C)C)C)C)O)C(=O)O
CH$IUPAC: InChI=1S/C31H46O4/c1-18(2)19(3)9-10-20(27(34)35)26-23(32)17-31(8)22-11-12-24-28(4,5)25(33)14-15-29(24,6)21(22)13-16-30(26,31)7/h11,13,18,20,23-24,26,32H,3,9-10,12,14-17H2,1-2,4-8H3,(H,34,35)/t20-,23-,24+,26+,29-,30-,31+/m1/s1
CH$LINK: CAS 465-18-9
CH$LINK: CHEMSPIDER 7981050
CH$LINK: INCHIKEY KPKYWYZPIVAHKU-WMNQUVFJSA-N
CH$LINK: PUBCHEM CID:9805290
AC$INSTRUMENT: X500R QTOF (AB Sciex LLC, USA)
AC$INSTRUMENT_TYPE: ESI-QTOF
AC$MASS_SPECTROMETRY: MS_TYPE MS2
AC$MASS_SPECTROMETRY: ION_MODE POSITIVE
AC$MASS_SPECTROMETRY: COLLISION_ENERGY 20 V
AC$MASS_SPECTROMETRY: FRAGMENTATION_MODE CID
AC$MASS_SPECTROMETRY: IONIZATION ESI
MS$FOCUSED_ION: PRECURSOR_M/Z 483.34689
MS$FOCUSED_ION: PRECURSOR_TYPE [M+H]+
PK$SPLASH: splash10-014i-0002900000-9e6a982afd460458c0b8
PK$NUM_PEAK: 4
PK$PEAK: m/z int. rel.int.
  309.2218 58.9 249
  437.3421 7.5 32
  447.3265 8.8 37
  465.3346 235.7 999
//
