ACCESSION: MSBNK-MSSJ-MSJ00305
RECORD_TITLE: Pachymic acid; ESI-QTOF; MS2; NEGATIVE; [M-H]-; CID; 30 V
DATE: 2020.10.14
AUTHORS: Atsushi Yamamoto, Faculty of Environmental Studies, Tottori University of Environmental Studies, 1-1, Wakabadai-kita, Tottori City, Tottori 689-1111, Japan.
LICENSE: CC BY
COPYRIGHT: Atsushi Yamamoto, Faculty of Environmental Studies, Tottori University of Environmental Studies, 1-1, Wakabadai-kita, Tottori City, Tottori 689-1111, Japan.
COMMENT: The sample was injected by direct infusion.
COMMENT: This record was created by the financial support of MEXT/JSPS KAKENHI Grant Number 20HP8016 to the Mass Spectrometry Society of Japan.
CH$NAME: Pachymic acid
CH$COMPOUND_CLASS: Non-natural product; Triterpenoid
CH$FORMULA: C33H52O5
CH$EXACT_MASS: 528.38148
CH$SMILES: CC(C)C(=C)CC[C@H]([C@H]1[C@@H](C[C@@]2([C@@]1(CCC3=C2CC[C@@H]4[C@@]3(CC[C@@H](C4(C)C)OC(=O)C)C)C)C)O)C(=O)O
CH$IUPAC: InChI=1S/C33H52O5/c1-19(2)20(3)10-11-22(29(36)37)28-25(35)18-33(9)24-12-13-26-30(5,6)27(38-21(4)34)15-16-31(26,7)23(24)14-17-32(28,33)8/h19,22,25-28,35H,3,10-18H2,1-2,4-9H3,(H,36,37)/t22-,25-,26+,27+,28+,31-,32-,33+/m1/s1
CH$LINK: CAS 29070-92-6
CH$LINK: CHEBI CHEBI:80885
CH$LINK: CHEMSPIDER 4588502
CH$LINK: INCHIKEY VDYCLYGKCGVBHN-DRCQUEPLSA-N
CH$LINK: PUBCHEM CID:5484385
AC$INSTRUMENT: X500R QTOF (AB Sciex LLC, USA)
AC$INSTRUMENT_TYPE: ESI-QTOF
AC$MASS_SPECTROMETRY: MS_TYPE MS2
AC$MASS_SPECTROMETRY: ION_MODE NEGATIVE
AC$MASS_SPECTROMETRY: COLLISION_ENERGY 30 V
AC$MASS_SPECTROMETRY: FRAGMENTATION_MODE CID
AC$MASS_SPECTROMETRY: IONIZATION ESI
MS$FOCUSED_ION: PRECURSOR_M/Z 527.37420
MS$FOCUSED_ION: PRECURSOR_TYPE [M-H]-
PK$SPLASH: splash10-004i-0000090000-c929e20a442cbe24c234
PK$NUM_PEAK: 4
PK$PEAK: m/z int. rel.int.
  465.3375 13.2104 30
  467.3532 10.7467 24
  525.5953 27.0569 61
  527.3721 440.453 999
//
