ACCESSION: MSBNK-MSSJ-MSJ02688
RECORD_TITLE: Primisulfuron-methyl; LC-ESI-QTOF; MS2; [M+H]+; CID; CE 30V
DATE: 2023.04.05
AUTHORS: Atsushi Yamamoto, Faculty of Environmental Studies, Tottori University of Environmental Studies, 1-1, Wakabadai-kita, Tottori City, Tottori 689-1111, Japan.
LICENSE: CC BY
COPYRIGHT: Atsushi Yamamoto, Faculty of Environmental Studies, Tottori University of Environmental Studies, 1-1, Wakabadai-kita, Tottori City, Tottori 689-1111, Japan.
COMMENT: This record was created by the financial support of MEXT/JSPS KAKENHI Grant Number 23HP8017 to the Mass Spectrometry Society of Japan.
CH$NAME: Primisulfuron-methyl
CH$COMPOUND_CLASS: Non-natural product
CH$FORMULA: C15H12F4N4O7S
CH$EXACT_MASS: 468.036283
CH$SMILES: COC(=O)C1=CC=CC=C1S(=O)(=O)NC(=O)NC2=NC(=CC(=N2)OC(F)F)OC(F)F
CH$IUPAC: InChI=1S/C15H12F4N4O7S/c1-28-11(24)7-4-2-3-5-8(7)31(26,27)23-15(25)22-14-20-9(29-12(16)17)6-10(21-14)30-13(18)19/h2-6,12-13H,1H3,(H2,20,21,22,23,25)
CH$LINK: CAS 86209-51-0
CH$LINK: CHEMSPIDER 91738
CH$LINK: INCHIKEY ZTYVMAQSHCZXLF-UHFFFAOYSA-N
CH$LINK: PUBCHEM CID:101525
AC$INSTRUMENT: X500R QTOF (AB Sciex LLC, MA, USA) coupled to ExionLC AD (AB Sciex LLC, MA, USA).
AC$INSTRUMENT_TYPE: LC-ESI-QTOF
AC$MASS_SPECTROMETRY: MS_TYPE MS2
AC$MASS_SPECTROMETRY: ION_MODE POSITIVE
AC$MASS_SPECTROMETRY: COLLISION_ENERGY 30 V
AC$MASS_SPECTROMETRY: COLLISION_GAS N2
AC$MASS_SPECTROMETRY: FRAGMENTATION_MODE CID
AC$MASS_SPECTROMETRY: IONIZATION ESI
AC$CHROMATOGRAPHY: COLUMN_NAME AQ-C18HP 3 microm, 2.1 mm × 150 mm (GL Science, Tokyo, Japan).
AC$CHROMATOGRAPHY: FLOW_GRADIENT 90/10 at 0 min, 90/10 at 8 min, 0/100 at 23 min, 0/100 at 30 min, 90/10 at 30.1 min, 90/10 at 40 min
AC$CHROMATOGRAPHY: FLOW_RATE 200 microL/min
AC$CHROMATOGRAPHY: RETENTION_TIME 33.9 min
AC$CHROMATOGRAPHY: SOLVENT A water with 2 mM Ammonium bicarbonate
AC$CHROMATOGRAPHY: SOLVENT B methanol with 2 mM Ammmonium bicarbonate
MS$FOCUSED_ION: PRECURSOR_M/Z 469.04356
MS$FOCUSED_ION: PRECURSOR_TYPE [M+H]+
PK$SPLASH: splash10-0udi-0590000000-e6126e357665bb315a90
PK$ANNOTATION: m/z rel.int. formula exact_mass error(ppm) SMILES_of_ion HR_rules
  135.0441 101 [C8H8O2-H]+ 135.044056 0(0.33) O=C(OC)C=1C=CC=CC1 True
  186.0111 124 [C6H5F2N3O2-3H]+ 186.010965 0(0.73) O=CNC1=NC=CC(=N1)OC(F)F True
  199.0061 540 [C8H8O4S-H]+ 199.005954 0(0.73) O=C(OC)C=1C=CC=CC1S(=O)=O True
  204.0219 131 [C6H5F2N3O3-H]+ 204.021518 0(1.87) O=CNC1=NC(O)=CC(=N1)OC(F)F True
  234.0128 139 [C7H6F3N3O3-3H]+ 234.012109 0.001(2.95) O=CNC=1N=C(OCF)C=C(N1)OC(F)F True
  254.0185 999 [C7H5F4N3O3-H]+ 254.018329 0(0.67) O=CNC=1N=C(OC(F)F)C=C(N1)OC(F)F True
PK$NUM_PEAK: 7
PK$PEAK: m/z int. rel.int.
  135.0441 5.5 101
  186.0111 6.8 124
  190.0227 2.5 45
  199.0061 29.4 540
  204.0219 7.1 131
  234.0128 7.6 139
  254.0185 54.5 999
//
