ACCESSION: MSBNK-MSSJ-MSJ02769
RECORD_TITLE: Chloridazon; LC-ESI-QTOF; MS2; [M-H]-; CID; CE 40V
DATE: 2023.10.22
AUTHORS: Atsushi Yamamoto, Faculty of Environmental Studies, Tottori University of Environmental Studies, 1-1, Wakabadai-kita, Tottori City, Tottori 689-1111, Japan.
LICENSE: CC BY
COPYRIGHT: Atsushi Yamamoto, Faculty of Environmental Studies, Tottori University of Environmental Studies, 1-1, Wakabadai-kita, Tottori City, Tottori 689-1111, Japan.
COMMENT: This record was created by the financial support of MEXT/JSPS KAKENHI Grant Number 23HP8017 to the Mass Spectrometry Society of Japan.
CH$NAME: Chloridazon
CH$COMPOUND_CLASS: Non-natural product
CH$FORMULA: C10H8ClN3O
CH$EXACT_MASS: 221.03559
CH$SMILES: C1=CC=C(C=C1)N2C(=O)C(=C(C=N2)N)Cl
CH$IUPAC: InChI=1S/C10H8ClN3O/c11-9-8(12)6-13-14(10(9)15)7-4-2-1-3-5-7/h1-6H,12H2
CH$LINK: CAS 1698-60-8
CH$LINK: CHEMSPIDER 14790
CH$LINK: INCHIKEY WYKYKTKDBLFHCY-UHFFFAOYSA-N
CH$LINK: PUBCHEM CID:15546
AC$INSTRUMENT: X500R QTOF (AB Sciex LLC, MA, USA) coupled to ExionLC AD (AB Sciex LLC, MA, USA).
AC$INSTRUMENT_TYPE: LC-ESI-QTOF
AC$MASS_SPECTROMETRY: MS_TYPE MS2
AC$MASS_SPECTROMETRY: ION_MODE NEGATIVE
AC$MASS_SPECTROMETRY: COLLISION_ENERGY 40 V
AC$MASS_SPECTROMETRY: COLLISION_GAS N2
AC$MASS_SPECTROMETRY: FRAGMENTATION_MODE CID
AC$MASS_SPECTROMETRY: IONIZATION ESI
AC$CHROMATOGRAPHY: COLUMN_NAME TSKgel ODS-100S 5 um, 2.1 mm × 250 mm, TOSOH
AC$CHROMATOGRAPHY: FLOW_GRADIENT 95/5 at 0 min, 95/5 at 3 min, 0/100 at 13 min, 0/100 at 23 min, 95/5 at 23.1 min, 95/5 at 28 min
AC$CHROMATOGRAPHY: FLOW_RATE 200 ul/min
AC$CHROMATOGRAPHY: RETENTION_TIME 11.7 min
AC$CHROMATOGRAPHY: SOLVENT A water with 20 mM formic acid aquatic solution
AC$CHROMATOGRAPHY: SOLVENT B methanol with 20 mM Formic acid methanolic solution
MS$FOCUSED_ION: PRECURSOR_M/Z 220.028313
MS$FOCUSED_ION: PRECURSOR_TYPE [M-H]-
PK$SPLASH: splash10-00e9-9100000000-bf0934cb93f7d31e2c78
PK$ANNOTATION: m/z rel.int. formula exact_mass error(ppm) SMILES_of_ion HR_rules
  41.0143 47 [CH4N2-3H]- 41.014522 0(5.42) N(=C)N True
  41.9984 84 [CH3NO-3H]- 41.998539 0(3.3) O=CN True
  65.0144 107 [C3H6N2-5H]- 65.014524 0(1.91) N=CC(=C)N True
  65.9985 162 [C3H5NO-5H]- 65.99854 0(0.61) O=CC=CN True
  73.9802 180 [C2H4ClN-3H]- 73.980301 0(1.36) ClC=CN True
  74.9642 999 [C2H3ClO-3H]- 74.964317 0(1.56) O=CCCl True
  117.0458 289 [C7H8N2-3H]- 117.045822 0(0.19) N(=C)NC=1C=CC=CC1 True
PK$NUM_PEAK: 9
PK$PEAK: m/z int. rel.int.
  34.9693 49.3 767
  41.0143 3.0 47
  41.9984 5.4 84
  65.0144 6.9 107
  65.9985 10.4 162
  73.9802 11.6 180
  74.9642 64.3 999
  117.0458 18.6 289
  150.0116 6.4 99
//
