ACCESSION: MSBNK-MSSJ-MSJ02812
RECORD_TITLE: Imidacloprid; LC-ESI-QTOF; MS2; [M+H]+; CID; CE 50V
DATE: 2023.10.22
AUTHORS: Atsushi Yamamoto, Faculty of Environmental Studies, Tottori University of Environmental Studies, 1-1, Wakabadai-kita, Tottori City, Tottori 689-1111, Japan.
LICENSE: CC BY
COPYRIGHT: Atsushi Yamamoto, Faculty of Environmental Studies, Tottori University of Environmental Studies, 1-1, Wakabadai-kita, Tottori City, Tottori 689-1111, Japan.
COMMENT: This record was created by the financial support of MEXT/JSPS KAKENHI Grant Number 23HP8017 to the Mass Spectrometry Society of Japan.
CH$NAME: Imidacloprid
CH$COMPOUND_CLASS: Non-natural product
CH$FORMULA: C9H10ClN5O2
CH$EXACT_MASS: 255.052302
CH$SMILES: C1CN(C(=N[N+](=O)[O-])N1)CC2=CN=C(C=C2)Cl
CH$IUPAC: InChI=1S/C9H10ClN5O2/c10-8-2-1-7(5-12-8)6-14-4-3-11-9(14)13-15(16)17/h1-2,5H,3-4,6H2,(H,11,13)
CH$LINK: CAS 138261-41-3
CH$LINK: CHEMSPIDER 77934
CH$LINK: INCHIKEY YWTYJOPNNQFBPC-UHFFFAOYSA-N
CH$LINK: PUBCHEM CID:86287518
AC$INSTRUMENT: X500R QTOF (AB Sciex LLC, MA, USA) coupled to ExionLC AD (AB Sciex LLC, MA, USA).
AC$INSTRUMENT_TYPE: LC-ESI-QTOF
AC$MASS_SPECTROMETRY: MS_TYPE MS2
AC$MASS_SPECTROMETRY: ION_MODE POSITIVE
AC$MASS_SPECTROMETRY: COLLISION_ENERGY 50 V
AC$MASS_SPECTROMETRY: COLLISION_GAS N2
AC$MASS_SPECTROMETRY: FRAGMENTATION_MODE CID
AC$MASS_SPECTROMETRY: IONIZATION ESI
AC$CHROMATOGRAPHY: COLUMN_NAME TSKgel ODS-100S 5 um, 2.1 mm × 250 mm, TOSOH
AC$CHROMATOGRAPHY: FLOW_GRADIENT 95/5 at 0 min, 95/5 at 3 min, 0/100 at 13 min, 0/100 at 23 min, 95/5 at 23.1 min, 95/5 at 28 min
AC$CHROMATOGRAPHY: FLOW_RATE 200 ul/min
AC$CHROMATOGRAPHY: RETENTION_TIME 11.1 min
AC$CHROMATOGRAPHY: SOLVENT A water with 20 mM formic acid aquatic solution
AC$CHROMATOGRAPHY: SOLVENT B methanol with 20 mM Formic acid methanolic solution
MS$FOCUSED_ION: PRECURSOR_M/Z 256.059579
MS$FOCUSED_ION: PRECURSOR_TYPE [M+H]+
PK$SPLASH: splash10-0ab9-1910000000-fbd906fd629468654976
PK$ANNOTATION: m/z rel.int. formula exact_mass error(ppm) SMILES_of_ion HR_rules
  43.0287 13 [CH4N2-H]+ 43.029075 0(8.72) N=CN True
  56.0493 30 [C3H9N-3H]+ 56.049474 0(3.11) N(C)CC True
  69.0446 18 [C3H8N2-3H]+ 69.044725 0(1.81) N=CNCC True
  78.0335 97 [C5H5N-H]+ 78.033825 0(4.16) N=1C=CC=CC1 True
  80.0493 76 [C5H5N+H]+ 80.049475 0(2.18) N=1C=CC=CC1 True
  84.0554 149 [C3H7N3-H]+ 84.055622 0(2.64) N=C1NCCN1 True
  90.0337 92 [C6H7N-3H]+ 90.033822 0(1.36) N=1C=CC=C(C1)C True
  92.0491 65 [C6H7N-H]+ 92.049472 0(4.05) N=1C=CC=C(C1)C True
  103.0289 35 [C6H8N2-5H]+ 103.029075 0(1.7) N=1C=CC=C(C1)CN True
  105.0445 257 [C6H8N2-3H]+ 105.044725 0(2.14) N=1C=CC=C(C1)CN True
  117.0447 41 [C7H10N2-5H]+ 117.044723 0(0.19) N=1C=CC=C(C1)CNC True
  119.06 134 [C7H10N2-3H]+ 119.060373 0(3.13) N=1C=CC=C(C1)CNC True
  126.0101 134 [C6H6ClN-H]+ 126.010502 0(3.19) ClC1=NC=C(C=C1)C True
  139.0057 58 [C6H7ClN2-3H]+ 139.005746 0(0.33) ClC1=NC=C(C=C1)CN True
  141.0213 124 [C6H7ClN2-H]+ 141.021396 0(0.68) ClC1=NC=C(C=C1)CN True
  145.0506 55 [C7H10N4-5H]+ 145.050872 0(1.87) N=C(N)NCC=1C=NC=CC1 True
  146.0709 285 [C8H13N3-5H]+ 146.071273 0(2.55) N=1C=CC=C(C1)CNCCN True
  147.0663 346 [C7H10N4-3H]+ 147.066522 0(1.51) N=C(N)NCC=1C=NC=CC1 True
  148.0864 121 [C8H13N3-3H]+ 148.086923 0.001(3.53) N=1C=CC=C(C1)CNCCN True
  158.071 187 [C9H13N3-5H]+ 158.071273 0(1.73) N=CN(CC=1C=NC=CC1)CC True
  166.0167 124 [C7H8ClN3-3H]+ 166.016656 0(0.26) ClC1=NC=C(C=C1)CNC=N True
  167.0369 53 [C8H11ClN2-3H]+ 167.037057 0(0.94) ClC1=NC=C(C=C1)CNCC True
  173.0821 637 [C9H12N4-3H]+ 173.082177 0(0.45) N=C1NCCN1CC=2C=NC=CC2 True
  175.0977 467 [C9H12N4-H]+ 175.097828 0(0.73) N=C1NCCN1CC=2C=NC=CC2 True
  194.0484 38 [C9H12ClN3-3H]+ 194.047952 0(2.31) ClC1=NC=C(C=C1)CN(C=N)CC True
  209.0588 999 [C9H11ClN4-H]+ 209.058857 0(0.27) ClC1=NC=C(C=C1)CN2C(=N)NCC2 True
PK$NUM_PEAK: 68
PK$PEAK: m/z int. rel.int.
  42.0331 0.7 12
  43.0287 0.7 13
  44.049 2.5 45
  56.0493 1.7 30
  57.0445 0.7 13
  65.0383 1.2 22
  69.0446 1.0 18
  77.0382 1.1 21
  78.0335 5.3 97
  80.0493 4.2 76
  84.0554 8.2 149
  90.0337 5.1 92
  91.0411 2.4 44
  92.037 1.7 30
  92.0491 3.6 65
  93.0445 2.3 42
  93.0568 1.6 29
  98.9992 3.9 71
  103.0289 1.9 35
  104.0373 1.2 23
  104.049 3.2 57
  105.0445 14.1 257
  106.0528 2.1 39
  106.065 5.8 105
  107.06 5.7 103
  108.0675 1.9 34
  109.0636 2.1 38
  113.0026 3.0 55
  114.0106 1.6 28
  117.0447 2.2 41
  118.0399 1.2 21
  118.0523 4.8 86
  119.0479 2.9 52
  119.06 7.4 134
  120.0554 9.8 178
  121.0627 1.5 27
  122.0711 1.5 27
  126.0101 7.4 134
  127.0181 3.3 60
  128.0259 3.1 56
  131.0599 7.3 132
  132.0558 3.9 71
  132.0675 3.4 62
  133.0634 9.2 167
  133.075 4.9 88
  134.071 5.8 105
  135.0785 2.5 45
  139.0057 3.2 58
  141.0213 6.8 124
  145.0506 3.0 55
  146.0709 15.6 285
  147.0663 19.0 346
  148.0747 1.9 34
  148.0864 6.6 121
  153.0091 2.3 42
  157.0635 5.2 95
  158.071 10.3 187
  159.0788 20.7 377
  166.0167 6.8 124
  167.0369 2.9 53
  173.0821 35.0 637
  174.0897 16.4 298
  175.0977 25.6 467
  180.0195 8.5 154
  181.027 6.3 114
  194.0484 2.1 38
  208.051 7.6 139
  209.0588 54.9 999
//
