ACCESSION: MSBNK-MSSJ-MSJ02774
RECORD_TITLE: Mepanipyrim; LC-ESI-QTOF; MS2; [M+H]+; CID; CE 20V
DATE: 2023.10.22
AUTHORS: Atsushi Yamamoto, Faculty of Environmental Studies, Tottori University of Environmental Studies, 1-1, Wakabadai-kita, Tottori City, Tottori 689-1111, Japan.
LICENSE: CC BY
COPYRIGHT: Atsushi Yamamoto, Faculty of Environmental Studies, Tottori University of Environmental Studies, 1-1, Wakabadai-kita, Tottori City, Tottori 689-1111, Japan.
COMMENT: This record was created by the financial support of MEXT/JSPS KAKENHI Grant Number 23HP8017 to the Mass Spectrometry Society of Japan.
CH$NAME: Mepanipyrim
CH$COMPOUND_CLASS: Non-natural product
CH$FORMULA: C14H13N3
CH$EXACT_MASS: 223.110947
CH$SMILES: CC#CC1=NC(=NC(=C1)C)NC2=CC=CC=C2
CH$IUPAC: InChI=1S/C14H13N3/c1-3-7-13-10-11(2)15-14(17-13)16-12-8-5-4-6-9-12/h4-6,8-10H,1-2H3,(H,15,16,17)
CH$LINK: CAS 110235-47-7
CH$LINK: CHEMSPIDER 77839
CH$LINK: INCHIKEY CIFWZNRJIBNXRE-UHFFFAOYSA-N
CH$LINK: PUBCHEM CID:86296
AC$INSTRUMENT: X500R QTOF (AB Sciex LLC, MA, USA) coupled to ExionLC AD (AB Sciex LLC, MA, USA).
AC$INSTRUMENT_TYPE: LC-ESI-QTOF
AC$MASS_SPECTROMETRY: MS_TYPE MS2
AC$MASS_SPECTROMETRY: ION_MODE POSITIVE
AC$MASS_SPECTROMETRY: COLLISION_ENERGY 20 V
AC$MASS_SPECTROMETRY: COLLISION_GAS N2
AC$MASS_SPECTROMETRY: FRAGMENTATION_MODE CID
AC$MASS_SPECTROMETRY: IONIZATION ESI
AC$CHROMATOGRAPHY: COLUMN_NAME TSKgel ODS-100S 5 um, 2.1 mm × 250 mm, TOSOH
AC$CHROMATOGRAPHY: FLOW_GRADIENT 95/5 at 0 min, 95/5 at 3 min, 0/100 at 13 min, 0/100 at 23 min, 95/5 at 23.1 min, 95/5 at 28 min
AC$CHROMATOGRAPHY: FLOW_RATE 200 ul/min
AC$CHROMATOGRAPHY: RETENTION_TIME 15.1 min
AC$CHROMATOGRAPHY: SOLVENT A water with 20 mM formic acid aquatic solution
AC$CHROMATOGRAPHY: SOLVENT B methanol with 20 mM Formic acid methanolic solution
MS$FOCUSED_ION: PRECURSOR_M/Z 224.118224
MS$FOCUSED_ION: PRECURSOR_TYPE [M+H]+
PK$SPLASH: splash10-00di-0190000000-eb5c522b127bdb30a98a
PK$ANNOTATION: m/z rel.int. formula exact_mass error(ppm) SMILES_of_ion HR_rules
  106.0651 82 [C7H9N-H]+ 106.065128 0(0.26) N=C(C#CC)C=CC True
  121.076 46 [C7H8N2+H]+ 121.076025 0(0.21) N=CNC=1C=CC=CC1 True
  131.0603 62 [C8H8N2-H]+ 131.060367 0(0.51) C(#CC)C1=NC=NC(=C1)C True
  183.0917 72 [C12H14N2-3H]+ 183.091668 0(0.17) C(#CC)C(=NCNC=1C=CC=CC1)C True
PK$NUM_PEAK: 7
PK$PEAK: m/z int. rel.int.
  106.0651 37.3 82
  121.076 20.8 46
  131.0603 28.2 62
  183.0917 33.0 72
  207.0917 35.5 78
  209.0948 54.5 120
  224.1209 454.7 999
//
