ACCESSION: MSBNK-MSSJ-MSJ02903
RECORD_TITLE: Indanofan; LC-ESI-QTOF; MS2; [M+H]+; CID; CE 30V
DATE: 2023.10.22
AUTHORS: Atsushi Yamamoto, Faculty of Environmental Studies, Tottori University of Environmental Studies, 1-1, Wakabadai-kita, Tottori City, Tottori 689-1111, Japan.
LICENSE: CC BY
COPYRIGHT: Atsushi Yamamoto, Faculty of Environmental Studies, Tottori University of Environmental Studies, 1-1, Wakabadai-kita, Tottori City, Tottori 689-1111, Japan.
COMMENT: This record was created by the financial support of MEXT/JSPS KAKENHI Grant Number 23HP8017 to the Mass Spectrometry Society of Japan.
CH$NAME: Indanofan
CH$COMPOUND_CLASS: Non-natural product
CH$FORMULA: C20H17ClO3
CH$EXACT_MASS: 340.086622
CH$SMILES: CCC1(C(=O)C2=CC=CC=C2C1=O)CC3(CO3)C4=CC(=CC=C4)Cl
CH$IUPAC: InChI=1S/C20H17ClO3/c1-2-19(17(22)15-8-3-4-9-16(15)18(19)23)11-20(12-24-20)13-6-5-7-14(21)10-13/h3-10H,2,11-12H2,1H3
CH$LINK: CAS 133220-30-1
CH$LINK: CHEMSPIDER 9221265
CH$LINK: INCHIKEY PMAAYIYCDXGUAP-UHFFFAOYSA-N
CH$LINK: PUBCHEM CID:11046097
AC$INSTRUMENT: X500R QTOF (AB Sciex LLC, MA, USA) coupled to ExionLC AD (AB Sciex LLC, MA, USA).
AC$INSTRUMENT_TYPE: LC-ESI-QTOF
AC$MASS_SPECTROMETRY: MS_TYPE MS2
AC$MASS_SPECTROMETRY: ION_MODE POSITIVE
AC$MASS_SPECTROMETRY: COLLISION_ENERGY 30 V
AC$MASS_SPECTROMETRY: COLLISION_GAS N2
AC$MASS_SPECTROMETRY: FRAGMENTATION_MODE CID
AC$MASS_SPECTROMETRY: IONIZATION ESI
AC$CHROMATOGRAPHY: COLUMN_NAME TSKgel ODS-100S 5 um, 2.1 mm × 250 mm, TOSOH
AC$CHROMATOGRAPHY: FLOW_GRADIENT 95/5 at 0 min, 95/5 at 3 min, 0/100 at 13 min, 0/100 at 23 min, 95/5 at 23.1 min, 95/5 at 28 min
AC$CHROMATOGRAPHY: FLOW_RATE 200 ul/min
AC$CHROMATOGRAPHY: RETENTION_TIME 15.2 min
AC$CHROMATOGRAPHY: SOLVENT A water with 20 mM formic acid aquatic solution
AC$CHROMATOGRAPHY: SOLVENT B methanol with 20 mM Formic acid methanolic solution
MS$FOCUSED_ION: PRECURSOR_M/Z 341.093899
MS$FOCUSED_ION: PRECURSOR_TYPE [M+H]+
PK$SPLASH: splash10-004i-0900000000-94f43a747d0b13deb9d4
PK$ANNOTATION: m/z rel.int. formula exact_mass error(ppm) SMILES_of_ion HR_rules
  43.0177 24 [C2H4O-H]+ 43.017841 0(3.28) O1CC1 True
  125.0153 168 [C7H7Cl-H]+ 125.015255 0(0.36) ClC1=CC=CC(=C1)C True
  139.0311 91 [C8H9Cl-H]+ 139.030903 0(1.42) ClC1=CC=CC(=C1)CC True
  143.0855 61 [C11H16-5H]+ 143.085525 0(0.17) C=1C=CC(=CC1)CCCCC True
  145.0649 160 [C10H12O-3H]+ 145.064798 0(0.7) O=C(C=1C=CC=CC1)CCC True
  159.0803 251 [C11H14O-3H]+ 159.080438 0(0.87) O=C(C=1C=CC=CC1)C(C)CC True
  167.0259 60 [C9H9ClO-H]+ 167.025821 0(0.47) ClC1=CC=CC(=C1)C2(OC2)C True
  169.0649 145 [C12H16O-7H]+ 169.064793 0(0.63) O=C(C=1C=CC=CC1)C(CC)CC True
  173.0599 68 [C11H10O2-H]+ 173.059711 0(1.09) O=C1C=2C=CC=CC2C(=O)C1CC True
  175.0752 999 [C11H10O2+H]+ 175.075361 0(0.92) O=C1C=2C=CC=CC2C(=O)C1CC True
  187.0754 382 [C12H12O2-H]+ 187.075351 0(0.26) O=C1C=2C=CC=CC2C(=O)C1(C)CC True
PK$NUM_PEAK: 13
PK$PEAK: m/z int. rel.int.
  43.0177 8.9 24
  125.0153 62.3 168
  128.0622 18.1 49
  131.0856 70.0 189
  139.0311 33.9 91
  143.0855 22.6 61
  145.0649 59.2 160
  159.0803 92.9 251
  167.0259 22.3 60
  169.0649 53.8 145
  173.0599 25.0 68
  175.0752 369.9 999
  187.0754 141.6 382
//
