ACCESSION: MSBNK-MSSJ-MSJ02784
RECORD_TITLE: Tebuthiuron; LC-ESI-QTOF; MS2; [M+H]+; CID; CE 50V
DATE: 2023.10.22
AUTHORS: Atsushi Yamamoto, Faculty of Environmental Studies, Tottori University of Environmental Studies, 1-1, Wakabadai-kita, Tottori City, Tottori 689-1111, Japan.
LICENSE: CC BY
COPYRIGHT: Atsushi Yamamoto, Faculty of Environmental Studies, Tottori University of Environmental Studies, 1-1, Wakabadai-kita, Tottori City, Tottori 689-1111, Japan.
COMMENT: This record was created by the financial support of MEXT/JSPS KAKENHI Grant Number 23HP8017 to the Mass Spectrometry Society of Japan.
CH$NAME: Tebuthiuron
CH$COMPOUND_CLASS: Non-natural product
CH$FORMULA: C9H16N4OS
CH$EXACT_MASS: 228.104482
CH$SMILES: CC(C)(C)C1=NN=C(S1)N(C)C(=O)NC
CH$IUPAC: InChI=1S/C9H16N4OS/c1-9(2,3)6-11-12-8(15-6)13(5)7(14)10-4/h1-5H3,(H,10,14)
CH$LINK: CAS 34014-18-1
CH$LINK: CHEMSPIDER 5190
CH$LINK: INCHIKEY HBPDKDSFLXWOAE-UHFFFAOYSA-N
CH$LINK: PUBCHEM CID:5383
AC$INSTRUMENT: X500R QTOF (AB Sciex LLC, MA, USA) coupled to ExionLC AD (AB Sciex LLC, MA, USA).
AC$INSTRUMENT_TYPE: LC-ESI-QTOF
AC$MASS_SPECTROMETRY: MS_TYPE MS2
AC$MASS_SPECTROMETRY: ION_MODE POSITIVE
AC$MASS_SPECTROMETRY: COLLISION_ENERGY 50 V
AC$MASS_SPECTROMETRY: COLLISION_GAS N2
AC$MASS_SPECTROMETRY: FRAGMENTATION_MODE CID
AC$MASS_SPECTROMETRY: IONIZATION ESI
AC$CHROMATOGRAPHY: COLUMN_NAME TSKgel ODS-100S 5 um, 2.1 mm × 250 mm, TOSOH
AC$CHROMATOGRAPHY: FLOW_GRADIENT 95/5 at 0 min, 95/5 at 3 min, 0/100 at 13 min, 0/100 at 23 min, 95/5 at 23.1 min, 95/5 at 28 min
AC$CHROMATOGRAPHY: FLOW_RATE 200 ul/min
AC$CHROMATOGRAPHY: RETENTION_TIME 13.4 min
AC$CHROMATOGRAPHY: SOLVENT A water with 20 mM formic acid aquatic solution
AC$CHROMATOGRAPHY: SOLVENT B methanol with 20 mM Formic acid methanolic solution
MS$FOCUSED_ION: PRECURSOR_M/Z 229.111759
MS$FOCUSED_ION: PRECURSOR_TYPE [M+H]+
PK$SPLASH: splash10-0avl-8900000000-66346fe3f736bebc98c9
PK$ANNOTATION: m/z rel.int. formula exact_mass error(ppm) SMILES_of_ion HR_rules
  41.0384 104 [C3H8-3H]+ 41.038575 0(4.28) CCC True
  43.0289 169 [CH4N2-H]+ 43.029075 0(4.07) N=CN True
  44.0493 40 [C2H7N-H]+ 44.049476 0(4) N(C)C True
  57.0444 425 [C2H6N2-H]+ 57.044723 0(5.66) N=CNC True
  57.0694 66 [C4H10-H]+ 57.069877 0(8.36) CC(C)C True
  58.9947 42 [C2H6S-3H]+ 58.994996 0(5.02) S(C)C True
  62.0056 422 [CH3NS+H]+ 62.005896 0(4.77) N=CS True
  74.0057 696 [C2H7NS-3H]+ 74.005899 0(2.69) SCNC True
  89.0167 225 [C2H6N2S-H]+ 89.016796 0(1.08) N=C(S)NC True
  116.0275 999 [C3H5N3S+H]+ 116.027693 0(1.66) N=1N=C(SC1)NC True
  142.0432 571 [C5H9N3S-H]+ 142.043338 0(0.97) N=1N=C(SC1N)C(C)C True
  156.0591 512 [C6H11N3S-H]+ 156.058994 0(0.68) N=1N=C(SC1N)C(C)(C)C True
  172.0903 129 [C7H13N3S+H]+ 172.0903 0(0) N=1N=C(SC1NC)C(C)(C)C True
PK$NUM_PEAK: 15
PK$PEAK: m/z int. rel.int.
  41.0384 21.5 104
  42.0336 12.3 60
  43.0289 34.8 169
  44.0493 8.3 40
  57.0444 87.4 425
  57.0694 13.6 66
  58.9947 8.7 42
  62.0056 86.9 422
  74.0057 143.1 696
  89.0167 46.4 225
  116.0275 205.5 999
  142.0432 117.5 571
  156.0591 105.3 512
  157.0668 64.1 312
  172.0903 26.5 129
//
