ACCESSION: MSBNK-MSSJ-MSJ01526
RECORD_TITLE: Etizolam; LC-ESI-QQ; MS2; ESI; POSITIVE; CE 40 V; [M+H]+
DATE: 2023.03.24
AUTHORS: Koji Yamaguchi, Department of Legal Medicine, Nippon Medical School, 1715 Kamagari, Inzai-shi, Chiba 270-1694, Japan.
LICENSE: CC BY
COPYRIGHT: Koji Yamaguchi, Department of Legal Medicine, Nippon Medical School, 1715 Kamagari, Inzai-shi, Chiba 270-1694, Japan.
COMMENT: Original data are in the 20230324_Revised.xlsx file.
COMMENT: This record was created by the financial support of MEXT/JSPS KAKENHI Grant Number 23HP8017 to the Mass Spectrometry Society of Japan.
CH$NAME: Etizolam
CH$COMPOUND_CLASS: Non-natural product
CH$FORMULA: C17H15ClN4S
CH$EXACT_MASS: 342.07058
CH$SMILES: CCC1=CC2=C(S1)N3C(=NN=C3CN=C2C4=CC=CC=C4Cl)C
CH$IUPAC: InChI=1S/C17H15ClN4S/c1-3-11-8-13-16(12-6-4-5-7-14(12)18)19-9-15-21-20-10(2)22(15)17(13)23-11/h4-8H,3,9H2,1-2H3
CH$LINK: CAS 40054-69-1
CH$LINK: CHEMSPIDER 3191
CH$LINK: INCHIKEY VMZUTJCNQWMAGF-UHFFFAOYSA-N
CH$LINK: PUBCHEM CID:3307
AC$INSTRUMENT: LCMS-8040 coupled to Nexera XR (Shimadzu, Kyoro, Japan).
AC$INSTRUMENT_TYPE: LC-ESI-QQ
AC$MASS_SPECTROMETRY: MS_TYPE MS2
AC$MASS_SPECTROMETRY: ION_MODE POSITIVE
AC$MASS_SPECTROMETRY: COLLISION_ENERGY 40 V
AC$MASS_SPECTROMETRY: IONIZATION ESI
AC$CHROMATOGRAPHY: COLUMN_NAME InertSustain C18 ID 2.1 microm, 2.1 x 100 mm (GL Science, Tokyo, Japan).
AC$CHROMATOGRAPHY: FLOW_GRADIENT 90/10 at 0 min, linear gradient from 90/10 to 2/98 at 0-9 min, 2/98 at 9-12 min, linear gradient from 2/98 to 90/10 at 12-12.1 min, 90/10 at 12.1-15 min.
AC$CHROMATOGRAPHY: FLOW_RATE 200 microL/min
AC$CHROMATOGRAPHY: RETENTION_TIME 9.049 min
AC$CHROMATOGRAPHY: SOLVENT A water with 10 mM ammonium formate
AC$CHROMATOGRAPHY: SOLVENT B methanol
MS$FOCUSED_ION: PRECURSOR_M/Z 343.07786
MS$FOCUSED_ION: PRECURSOR_TYPE [M+H]+
PK$SPLASH: splash10-03kj-0591000000-44b3c64200f998de5f33
PK$NUM_PEAK: 166
PK$PEAK: m/z int. rel.int.
  42 1566 45
  45 2279 66
  56 668 19
  57 1670 48
  58 349 10
  59 523 15
  66 699 20
  67 820 24
  71 1399 40
  73 699 20
  77 349 10
  78 699 20
  79 1274 37
  82 699 20
  85 848 24
  89 699 20
  91 2735 79
  92 637 18
  93 349 10
  94 349 10
  97 2027 58
  99 349 10
  102 3775 109
  104 1624 47
  105 401 12
  106 2341 67
  109 4512 130
  110 699 20
  111 2946 85
  112 699 20
  113 1275 37
  115 349 10
  116 349 10
  117 1279 37
  118 1602 46
  119 699 20
  121 2947 85
  122 5595 161
  123 4508 130
  124 2293 66
  125 349 10
  129 699 20
  132 699 20
  134 349 10
  135 1181 34
  136 1580 46
  138 22605 651
  140 699 20
  145 699 20
  146 699 20
  147 699 20
  148 6538 188
  150 5584 161
  151 3919 113
  155 2453 71
  156 349 10
  158 1399 40
  160 699 20
  161 349 10
  162 5996 173
  163 6928 200
  165 4273 123
  166 349 10
  171 3181 92
  172 1197 34
  173 1305 38
  174 1003 29
  175 699 20
  176 1002 29
  178 3534 102
  180 694 20
  181 1492 43
  182 349 10
  183 1112 32
  184 699 20
  185 699 20
  189 699 20
  190 1275 37
  191 6376 184
  192 679 20
  194 1399 40
  196 1089 31
  197 1337 39
  198 1749 50
  199 863 25
  200 695 20
  202 349 10
  203 349 10
  204 2133 61
  205 1306 38
  206 5193 150
  207 1252 36
  208 699 20
  209 1049 30
  211 5214 150
  213 1365 39
  214 1578 45
  215 349 10
  216 1337 39
  217 3223 93
  218 1633 47
  219 1003 29
  220 820 24
  222 1123 32
  223 10752 310
  224 19017 548
  226 699 20
  227 986 28
  229 699 20
  232 2192 63
  233 1717 49
  234 699 20
  235 2042 59
  236 1049 30
  237 2036 59
  238 3825 110
  239 7293 210
  241 699 20
  244 2949 85
  245 12072 348
  246 3034 87
  248 4937 142
  249 2473 71
  251 5419 156
  252 863 25
  253 2451 71
  254 940 27
  256 699 20
  258 4623 133
  259 20242 583
  260 4449 128
  261 2020 58
  262 792 23
  263 349 10
  264 1913 55
  265 1974 57
  266 699 20
  267 1399 40
  269 699 20
  271 1049 30
  272 2173 63
  273 6192 178
  274 2637 76
  275 5157 149
  279 9447 272
  280 1686 49
  283 1003 29
  285 4907 141
  286 1397 40
  287 1275 37
  289 2660 77
  290 2546 73
  291 2303 66
  292 699 20
  293 5116 147
  295 16940 488
  305 349 10
  307 1089 31
  308 3178 92
  309 1860 54
  314 34671 999
  315 1674 48
  316 1857 54
  327 1358 39
  342 666 19
  343 1716 49
//
