ACCESSION: MSBNK-MSSJ-MSJ02258
RECORD_TITLE: Hexaflumuron; LC-ESI-QTOF; MS2; ESI; NEGATIVE; [M-H]-; CE 50 V
DATE: 2022.03.14
AUTHORS: Atsushi Yamamoto, Faculty of Environmental Studies, Tottori University of Environmental Studies, 1-1, Wakabadai-kita, Tottori City, Tottori 689-1111, Japan.
LICENSE: CC BY
COPYRIGHT: Atsushi Yamamoto, Faculty of Environmental Studies, Tottori University of Environmental Studies, 1-1, Wakabadai-kita, Tottori City, Tottori 689-1111, Japan.
COMMENT: This record was created by the financial support of MEXT/JSPS KAKENHI Grant Number 22HP8019 to the Mass Spectrometry Society of Japan.
CH$NAME: Hexaflumuron
CH$COMPOUND_CLASS: Non-natural product
CH$FORMULA: C16H8Cl2F6N2O3
CH$EXACT_MASS: 459.98161
CH$SMILES: O=C(NC(=O)c1c(F)cccc1F)Nc1cc(Cl)c(OC(F)(F)C(F)F)c(Cl)c1
CH$IUPAC: InChI=1S/C16H8Cl2F6N2O3/c17-7-4-6(5-8(18)12(7)29-16(23,24)14(21)22)25-15(28)26-13(27)11-9(19)2-1-3-10(11)20/h1-5,14H,(H2,25,26,27,28)
CH$LINK: CAS 86479-06-3
CH$LINK: CHEMSPIDER 82839
CH$LINK: INCHIKEY RGNPBRKPHBKNKX-UHFFFAOYSA-N
CH$LINK: PUBCHEM CID:91741
AC$INSTRUMENT: ExionLC AD, AB Sciex LLC, USA; X500R QTOF, AB Sciex LLC, USA.
AC$INSTRUMENT_TYPE: LC-ESI-QTOF
AC$MASS_SPECTROMETRY: MS_TYPE MS2
AC$MASS_SPECTROMETRY: ION_MODE NEGATIVE
AC$MASS_SPECTROMETRY: COLLISION_ENERGY 50 V
AC$MASS_SPECTROMETRY: IONIZATION ESI
AC$CHROMATOGRAPHY: COLUMN_NAME AQ-C18HP 3 microm, 2.1 mm × 150 mm, GL Science (Tokyo Japan)
AC$CHROMATOGRAPHY: COLUMN_TEMPERATURE 40 C
AC$CHROMATOGRAPHY: FLOW_GRADIENT 95/5 at 0 min, 95/5 at 3 min, 0/100 at 13 min, 0/100 at 23 min, 95/5 at 23.1 min, 95/5 at 28 min
AC$CHROMATOGRAPHY: FLOW_RATE 200 microl/min
AC$CHROMATOGRAPHY: RETENTION_TIME 15.0 min
AC$CHROMATOGRAPHY: SOLVENT A water with 2 mM Ammonium bicarbonate
AC$CHROMATOGRAPHY: SOLVENT B methanol with 2 mM Ammmonium bicarbonate
MS$FOCUSED_ION: PRECURSOR_M/Z 458.97433
MS$FOCUSED_ION: PRECURSOR_TYPE [M-H]-
PK$SPLASH: splash10-00dl-4900000000-ed516e627d8b51d3e374
PK$ANNOTATION: m/z rel.int. formula exact_mass error(ppm) SMILES_of_ion HR_rules
  41.9979 520 [CH3NO-3H]- 41.998539 0.001(15.21) O=CN True
  93.0143 49 [C6H5F-3H]- 93.014602 0(3.25) FC=1C=CC=CC1 True
  96.9905 48 [C2H3F3O-3H]- 96.990677 0(1.82) FC(F)C(F)O True
  113.0207 80 [C6H4F2-H]- 113.02083 0(1.15) FC1=CC=CC(F)=C1 True
  174.9588 999 [C7H5ClF2O-3H]- 174.976768 0.018(102.7) FC(F)OC=1C=CC=CC1Cl True
  185.9516 120 [C7H6ClF2NO-7H]- 185.956378 0.005(25.7) FC(F)OC1=CC=C(N)C=C1Cl True
  199.9546 153 [C7H5Cl2NO2-5H]- 199.931165 0.023(117.2) O=CNC1=CC(Cl)=C(O)C(Cl)=C1 True
  294.9609 54 [C9H6Cl2F2N2O3-3H]- 294.949425 0.011(38.9) O=CNC(=O)NC1=CC(Cl)=C(OC(F)F)C(Cl)=C1 True
PK$NUM_PEAK: 9
PK$PEAK: m/z int. rel.int.
  34.9691 3.6773 37
  41.9979 52.0102 520
  93.0143 4.8873 49
  96.9905 4.7553 48
  113.0207 7.9737 80
  174.9588 100 999
  185.9516 11.9946 120
  199.9546 15.3391 153
  294.9609 5.3924 54
//
