ACCESSION: MSBNK-MSSJ-MSJ00971
RECORD_TITLE: Genistein; ESI-QTOF; MS2; POSITIVE; [M+H]+; CID; 60 V
DATE: 2021.10.09
AUTHORS: Atsushi Yamamoto, Faculty of Environmental Studies, Tottori University of Environmental Studies, 1-1, Wakabadai-kita, Tottori City, Tottori 689-1111, Japan.
LICENSE: CC BY
COPYRIGHT: Atsushi Yamamoto, Faculty of Environmental Studies, Tottori University of Environmental Studies, 1-1, Wakabadai-kita, Tottori City, Tottori 689-1111, Japan.
COMMENT: The sample was injected by direct infusion.
COMMENT: This record was created by the financial support of MEXT/JSPS KAKENHI Grant Number 21HP8020 to the Mass Spectrometry Society of Japan.
CH$NAME: Genistein
CH$COMPOUND_CLASS: 7-hydroxyisoflavone
CH$FORMULA: C15H10O5
CH$EXACT_MASS: 270.05282
CH$SMILES: C1=CC(=CC=C1C2=COC3=CC(=CC(=C3C2=O)O)O)O
CH$IUPAC: InChI=1S/C15H10O5/c16-9-3-1-8(2-4-9)11-7-20-13-6-10(17)5-12(18)14(13)15(11)19/h1-7,16-18H
CH$LINK: CAS 446-72-0
CH$LINK: CHEBI CHEBI:28088
CH$LINK: CHEMSPIDER 4444448
CH$LINK: INCHIKEY TZBJGXHYKVUXJN-UHFFFAOYSA-N
CH$LINK: PUBCHEM CID:5280961
AC$INSTRUMENT: X500R QTOF (AB Sciex LLC, USA)
AC$INSTRUMENT_TYPE: ESI-QTOF
AC$MASS_SPECTROMETRY: MS_TYPE MS2
AC$MASS_SPECTROMETRY: ION_MODE POSITIVE
AC$MASS_SPECTROMETRY: COLLISION_ENERGY 60 V
AC$MASS_SPECTROMETRY: FRAGMENTATION_MODE CID
AC$MASS_SPECTROMETRY: IONIZATION ESI
MS$FOCUSED_ION: PRECURSOR_M/Z 271.06010
MS$FOCUSED_ION: PRECURSOR_TYPE [M+H]+
PK$SPLASH: splash10-014l-9200000000-c929d8730bc574dfed18
PK$NUM_PEAK: 13
PK$PEAK: m/z int. rel.int.
  39.0225 2.2521 166
  41.0382 1.0722 79
  43.0174 0.5894 43
  65.0382 10.6606 783
  67.0176 1.4016 103
  68.9968 3.9423 290
  69.0333 0.9043 66
  77.0384 1.4175 104
  91.0539 13.5936 999
  107.0489 1.1071 81
  115.0539 4.7905 352
  141.0696 1.6509 121
  153.0179 2.4139 177
//
