ACCESSION: MSBNK-MSSJ-MSJ04109
RECORD_TITLE: 4-(4-{[2-(tetradecanoylamino)ethyl]amino}-4-oxobutanamido)-N,N-dimethylbutan-1-amine N-oxide; ESI-QTOF; MS2; ESI; [M+H]+; CE 30 V
DATE: 2023.02.09
AUTHORS: Atsushi Yamamoto, Faculty of Environmental Studies, Tottori University of Environmental Studies, 1-1, Wakabadai-kita, Tottori City, Tottori 689-1111, Japan.
LICENSE: CC BY
COPYRIGHT: Atsushi Yamamoto, Faculty of Environmental Studies, Tottori University of Environmental Studies, 1-1, Wakabadai-kita, Tottori City, Tottori 689-1111, Japan.
PUBLICATION: Atsushi Yamamoto, Naoji Tokai, Rie Kakehashi, Daisuke Saigusa, Mass Spectrometry, vol. 13, in press (2024).
COMMENT: This record was created by the financial supports of the Shin-MassBank project and the Mass Spectrometry Society of Japan.
COMMENT: Capillary Voltages were 5,500 V for the positive ion mode analyses and 4,500 V for the negative ion mode analyses.
CH$NAME: 4-(4-{[2-(tetradecanoylamino)ethyl]amino}-4-oxobutanamido)-N,N-dimethylbutan-1-amine N-oxide
CH$NAME: AAO 13-2-2-4
CH$COMPOUND_CLASS: Non-natural product
CH$FORMULA: C26H52N4O4
CH$EXACT_MASS: 484.398840
CH$SMILES: O=C(NCCNC(=O)CCCCCCCCCCCCC)CCC(=O)NCCCC[N+]([O-])(C)C
CH$IUPAC: InChI=1S/C26H52N4O4/c1-4-5-6-7-8-9-10-11-12-13-14-17-24(31)28-21-22-29-26(33)19-18-25(32)27-20-15-16-23-30(2,3)34/h4-23H2,1-3H3,(H,27,32)(H,28,31)(H,29,33)
CH$LINK: INCHIKEY CTOHDANFGPLBHW-UHFFFAOYSA-N
AC$INSTRUMENT: X500R QTOF (AB Sciex LLC, MA, USA)
AC$INSTRUMENT_TYPE: ESI-QTOF
AC$MASS_SPECTROMETRY: MS_TYPE MS2
AC$MASS_SPECTROMETRY: ION_MODE POSITIVE
AC$MASS_SPECTROMETRY: COLLISION_ENERGY 30 V
AC$MASS_SPECTROMETRY: COLLISION_GAS N2
AC$MASS_SPECTROMETRY: FRAGMENTATION_MODE CID
AC$MASS_SPECTROMETRY: IONIZATION ESI
MS$FOCUSED_ION: PRECURSOR_M/Z 485.406117 
MS$FOCUSED_ION: PRECURSOR_TYPE [M+H]+
PK$SPLASH: splash10-000i-0100900000-45854620517da667ac0e
PK$ANNOTATION: m/z rel.int formula calculated_m/z Mass_Diff(ppm) SMILES Rule_of_HR
  72.08054 11 [C4H11N-H]+ 72.080776 0(3.27ppm) NCCCC True
  154.08614 174 [C8H15NO2-3H]+ 154.086252 0(0.98ppm) O=CCCC(=O)NCCCC True
  215.13891 12 [C10H20N2O3-H]+ 215.139026 0(0.59ppm) O=CCCC(=O)NCCCC[N+]([O-])(C)C True
  254.24762 57 [C16H33NO-H]+ 254.247837 0(0.93ppm) O=C(NCC)CCCCCCCCCCCCC True
  271.27413 21 [C16H34N2O+H]+ 271.274397 0(1.09ppm) O=C(NCCN)CCCCCCCCCCCCC True
  353.27957 54 [C20H38N2O3-H]+ 353.279865 0(0.75ppm) O=CCCC(=O)NCCNC(=O)CCCCCCCCCCCCC True
  424.35294 150 [C24H47N3O3-H]+ 424.353382 0(1.14ppm) O=C(NCCNC(=O)CCCCCCCCCCCCC)CCC(=O)NCCCC True
  485.40557 999 [C26H52N4O4+H]+ 485.406141 0.001(1.11ppm) O=C(NCCNC(=O)CCCCCCCCCCCCC)CCC(=O)NCCCC[N+]([O-])(C)C True
PK$NUM_PEAK: 12
PK$PEAK: m/z int. rel.int.
  72.08054 0.945 11
  100.03909 0.548 6
  143.08131 0.648 8
  154.08614 14.922 174
  171.11259 0.441 5
  215.13891 1.048 12
  254.24762 4.859 57
  271.27413 1.781 21
  353.27957 4.656 54
  406.34241 1.186 14
  424.35294 12.803 150
  485.40557 85.438 999
//
