ACCESSION: MSBNK-MSSJ-MSJ01533
RECORD_TITLE: Oxazepam; LC-ESI-QQ; MS2; ESI; POSITIVE; CE 50 V; [M+H]+
DATE: 2023.03.24
AUTHORS: Koji Yamaguchi, Department of Legal Medicine, Nippon Medical School, 1715 Kamagari, Inzai-shi, Chiba 270-1694, Japan.
LICENSE: CC BY
COPYRIGHT: Koji Yamaguchi, Department of Legal Medicine, Nippon Medical School, 1715 Kamagari, Inzai-shi, Chiba 270-1694, Japan.
COMMENT: Original data are in the 20230324_Revised.xlsx file.
COMMENT: This record was created by the financial support of MEXT/JSPS KAKENHI Grant Number 23HP8017 to the Mass Spectrometry Society of Japan.
CH$NAME: Oxazepam
CH$COMPOUND_CLASS: Non-natural product
CH$FORMULA: C15H11ClN2O2
CH$EXACT_MASS: 286.05090
CH$SMILES: C1=CC=C(C=C1)C2=NC(C(=O)NC3=C2C=C(C=C3)Cl)O
CH$IUPAC: InChI=1S/C15H11ClN2O2/c16-10-6-7-12-11(8-10)13(9-4-2-1-3-5-9)18-15(20)14(19)17-12/h1-8,15,20H,(H,17,19)
CH$LINK: CAS 604-75-1
CH$LINK: CHEMSPIDER 4455
CH$LINK: INCHIKEY ADIMAYPTOBDMTL-UHFFFAOYSA-N
CH$LINK: PUBCHEM CID:4616
AC$INSTRUMENT: LCMS-8040 coupled to Nexera XR (Shimadzu, Kyoro, Japan).
AC$INSTRUMENT_TYPE: LC-ESI-QQ
AC$MASS_SPECTROMETRY: MS_TYPE MS2
AC$MASS_SPECTROMETRY: ION_MODE POSITIVE
AC$MASS_SPECTROMETRY: COLLISION_ENERGY 50 V
AC$MASS_SPECTROMETRY: IONIZATION ESI
AC$CHROMATOGRAPHY: COLUMN_NAME InertSustain C18 ID 2.1 microm, 2.1 x 100 mm (GL Science, Tokyo, Japan).
AC$CHROMATOGRAPHY: FLOW_GRADIENT 90/10 at 0 min, linear gradient from 90/10 to 2/98 at 0-9 min, 2/98 at 9-12 min, linear gradient from 2/98 to 90/10 at 12-12.1 min, 90/10 at 12.1-15 min.
AC$CHROMATOGRAPHY: FLOW_RATE 200 microL/min
AC$CHROMATOGRAPHY: RETENTION_TIME 8.957 min
AC$CHROMATOGRAPHY: SOLVENT A water with 10 mM ammonium formate
AC$CHROMATOGRAPHY: SOLVENT B methanol
MS$FOCUSED_ION: PRECURSOR_M/Z 287.05818
MS$FOCUSED_ION: PRECURSOR_TYPE [M+H]+
PK$SPLASH: splash10-0ug3-4910000000-b9dc088160ef3dc6aa4e
PK$NUM_PEAK: 24
PK$PEAK: m/z int. rel.int.
  77 7948 802
  90 816 82
  91 816 82
  92 816 82
  93 6420 648
  100 2228 225
  104 9900 999
  111 2656 268
  118 1559 157
  135 816 82
  136 4949 499
  138 3505 354
  150 407 41
  151 779 79
  153 407 41
  163 1606 162
  178 816 82
  194 792 80
  205 407 41
  214 407 41
  229 1271 128
  240.6 2052 207
  241.4 816 82
  269 407 41
//
