ACCESSION: MSBNK-MSSJ-MSJ02750
RECORD_TITLE: Aldicarb; LC-ESI-QTOF; MS2; [M+H]+; CID; CE 50 V
DATE: 2023.10.22
AUTHORS: Atsushi Yamamoto, Faculty of Environmental Studies, Tottori University of Environmental Studies, 1-1, Wakabadai-kita, Tottori City, Tottori 689-1111, Japan.
LICENSE: CC BY
COPYRIGHT: Atsushi Yamamoto, Faculty of Environmental Studies, Tottori University of Environmental Studies, 1-1, Wakabadai-kita, Tottori City, Tottori 689-1111, Japan.
COMMENT: This record was created by the financial support of MEXT/JSPS KAKENHI Grant Number 23HP8017 to the Mass Spectrometry Society of Japan.
CH$NAME: Aldicarb
CH$COMPOUND_CLASS: Non-natural product
CH$FORMULA: C7H14N2O2S
CH$EXACT_MASS: 190.077599
CH$SMILES: CC(C)(C=NOC(=O)NC)SC
CH$IUPAC: InChI=1S/C7H14N2O2S/c1-7(2,12-4)5-9-11-6(10)8-3/h5H,1-4H3,(H,8,10)/b9-5+
CH$LINK: CAS 116-06-3
CH$LINK: CHEMSPIDER 2002
CH$LINK: INCHIKEY QGLZXHRNAYXIBU-WEVVVXLNSA-N
CH$LINK: PUBCHEM CID:9570071
AC$INSTRUMENT: X500R QTOF (AB Sciex LLC, MA, USA) coupled to ExionLC AD (AB Sciex LLC, MA, USA).
AC$INSTRUMENT_TYPE: LC-ESI-QTOF
AC$MASS_SPECTROMETRY: MS_TYPE MS2
AC$MASS_SPECTROMETRY: ION_MODE POSITIVE
AC$MASS_SPECTROMETRY: COLLISION_ENERGY 50 V
AC$MASS_SPECTROMETRY: COLLISION_GAS N2
AC$MASS_SPECTROMETRY: FRAGMENTATION_MODE CID
AC$MASS_SPECTROMETRY: IONIZATION ESI
AC$CHROMATOGRAPHY: COLUMN_NAME TSKgel ODS-100S 5 um, 2.1 mm × 250 mm, TOSOH
AC$CHROMATOGRAPHY: FLOW_GRADIENT 95/5 at 0 min, 95/5 at 3 min, 0/100 at 13 min, 0/100 at 23 min, 95/5 at 23.1 min, 95/5 at 28 min
AC$CHROMATOGRAPHY: FLOW_RATE 200 ul/min
AC$CHROMATOGRAPHY: RETENTION_TIME 12.7 min
AC$CHROMATOGRAPHY: SOLVENT A water with 20 mM formic acid aquatic solution
AC$CHROMATOGRAPHY: SOLVENT B methanol with 20 mM Formic acid methanolic solution
MS$FOCUSED_ION: PRECURSOR_M/Z 191.084876
MS$FOCUSED_ION: PRECURSOR_TYPE [M+H]+
PK$SPLASH: splash10-000e-9000000000-247fc3f363857b057957
PK$ANNOTATION: m/z rel.int. formula exact_mass error(ppm) SMILES_of_ion HR_rules
  39.0226 689 [C3H8-5H]+ 39.022925 0(8.34) CCC True
  41.0384 999 [C3H8-3H]+ 41.038575 0(4.28) CCC True
  46.9947 444 [CH4S-H]+ 46.994999 0(6.35) SC True
  58.9947 588 [C2H6S-3H]+ 58.994996 0(5.02) S(C)C True
  89.0428 625 [C4H10S-H]+ 89.04195 0.001(9.55) S(C)C(C)C True
PK$NUM_PEAK: 6
PK$PEAK: m/z int. rel.int.
  39.0226 0.2 689
  41.0384 0.3 999
  46.9947 0.2 444
  49.0101 0.3 742
  58.9947 0.2 588
  89.0428 0.2 625
//
