ACCESSION: MSBNK-MSSJ-MSJ01774
RECORD_TITLE: Acetazolamide; LC-ESI-QQ; MS2; ESI; NEGATIVE; CID; CE 30 V; [M-H]-
DATE: 2023.03.28
AUTHORS: Koji Yamaguchi, Department of Legal Medicine, Nippon Medical School, 1715 Kamagari, Inzai-shi, Chiba 270-1694, Japan.
LICENSE: CC BY
COPYRIGHT: Koji Yamaguchi, Department of Legal Medicine, Nippon Medical School, 1715 Kamagari, Inzai-shi, Chiba 270-1694, Japan.
COMMENT: Original data are in the 20230328-2.xlsx file.
COMMENT: This record was created by the financial support of MEXT/JSPS KAKENHI Grant Number 23HP8017 to the Mass Spectrometry Society of Japan.
CH$NAME: Acetazolamide
CH$COMPOUND_CLASS: Non-natural product
CH$FORMULA: C4H6N4O3S2
CH$EXACT_MASS: 221.988117
CH$SMILES: CC(=O)NC1=NN=C(S1)S(=O)(=O)N
CH$IUPAC: InChI=1S/C4H6N4O3S2/c1-2(9)6-3-7-8-4(12-3)13(5,10)11/h1H3,(H2,5,10,11)(H,6,7,9)
CH$LINK: CAS 59-66-5
CH$LINK: CHEMSPIDER 1909
CH$LINK: INCHIKEY BZKPWHYZMXOIDC-UHFFFAOYSA-N
CH$LINK: PUBCHEM CID:1986
AC$INSTRUMENT: LCMS-8040 coupled to Nexera XR (Shimadzu, Kyoto, Japan).
AC$INSTRUMENT_TYPE: LC-ESI-QQ
AC$MASS_SPECTROMETRY: MS_TYPE MS2
AC$MASS_SPECTROMETRY: ION_MODE NEGATIVE
AC$MASS_SPECTROMETRY: COLLISION_ENERGY 30 V
AC$MASS_SPECTROMETRY: FRAGMENTATION_MODE CID
AC$MASS_SPECTROMETRY: IONIZATION ESI
AC$CHROMATOGRAPHY: COLUMN_NAME InertSustain C18 ID 2.1 microm, 2.1 x 100 mm (GL Science, Tokyo, Japan).
AC$CHROMATOGRAPHY: FLOW_GRADIENT 90/10 at 0 min, linear gradient from 90/10 to 2/98 at 0-9 min, 2/98 at 9-12 min, linear gradient from 2/98 to 90/10 at 12-12.1 min, 90/10 at 12.1-15 min.
AC$CHROMATOGRAPHY: FLOW_RATE 200 microl/min
AC$CHROMATOGRAPHY: RETENTION_TIME 4.122 min
AC$CHROMATOGRAPHY: SOLVENT A water with 10 mM ammonium formate
AC$CHROMATOGRAPHY: SOLVENT B methanol
MS$FOCUSED_ION: PRECURSOR_M/Z 220.98084
MS$FOCUSED_ION: PRECURSOR_TYPE [M-H]-
PK$SPLASH: splash10-001i-9000000000-538ef4ac05eacfa2b904
PK$NUM_PEAK: 10
PK$PEAK: m/z int. rel.int.
  41.1 17475 173
  58.0 23186 229
  62.1 15468 153
  64.1 6047 60
  68.1 1813 18
  73.0 1457 14
  77.9 1136 11
  80.1 27389 271
  83.1 101133 999
  220.9 2002 20
//
