ACCESSION: MSBNK-MSSJ-MSJ02767
RECORD_TITLE: Chloridazon; LC-ESI-QTOF; MS2; [M-H]-; CID; CE 20V
DATE: 2023.10.22
AUTHORS: Atsushi Yamamoto, Faculty of Environmental Studies, Tottori University of Environmental Studies, 1-1, Wakabadai-kita, Tottori City, Tottori 689-1111, Japan.
LICENSE: CC BY
COPYRIGHT: Atsushi Yamamoto, Faculty of Environmental Studies, Tottori University of Environmental Studies, 1-1, Wakabadai-kita, Tottori City, Tottori 689-1111, Japan.
COMMENT: This record was created by the financial support of MEXT/JSPS KAKENHI Grant Number 23HP8017 to the Mass Spectrometry Society of Japan.
CH$NAME: Chloridazon
CH$COMPOUND_CLASS: Non-natural product
CH$FORMULA: C10H8ClN3O
CH$EXACT_MASS: 221.03559
CH$SMILES: C1=CC=C(C=C1)N2C(=O)C(=C(C=N2)N)Cl
CH$IUPAC: InChI=1S/C10H8ClN3O/c11-9-8(12)6-13-14(10(9)15)7-4-2-1-3-5-7/h1-6H,12H2
CH$LINK: CAS 1698-60-8
CH$LINK: CHEMSPIDER 14790
CH$LINK: INCHIKEY WYKYKTKDBLFHCY-UHFFFAOYSA-N
CH$LINK: PUBCHEM CID:15546
AC$INSTRUMENT: X500R QTOF (AB Sciex LLC, MA, USA) coupled to ExionLC AD (AB Sciex LLC, MA, USA).
AC$INSTRUMENT_TYPE: LC-ESI-QTOF
AC$MASS_SPECTROMETRY: MS_TYPE MS2
AC$MASS_SPECTROMETRY: ION_MODE NEGATIVE
AC$MASS_SPECTROMETRY: COLLISION_ENERGY 20 V
AC$MASS_SPECTROMETRY: COLLISION_GAS N2
AC$MASS_SPECTROMETRY: FRAGMENTATION_MODE CID
AC$MASS_SPECTROMETRY: IONIZATION ESI
AC$CHROMATOGRAPHY: COLUMN_NAME TSKgel ODS-100S 5 um, 2.1 mm × 250 mm, TOSOH
AC$CHROMATOGRAPHY: FLOW_GRADIENT 95/5 at 0 min, 95/5 at 3 min, 0/100 at 13 min, 0/100 at 23 min, 95/5 at 23.1 min, 95/5 at 28 min
AC$CHROMATOGRAPHY: FLOW_RATE 200 ul/min
AC$CHROMATOGRAPHY: RETENTION_TIME 11.7 min
AC$CHROMATOGRAPHY: SOLVENT A water with 20 mM formic acid aquatic solution
AC$CHROMATOGRAPHY: SOLVENT B methanol with 20 mM Formic acid methanolic solution
MS$FOCUSED_ION: PRECURSOR_M/Z 220.028313
MS$FOCUSED_ION: PRECURSOR_TYPE [M-H]-
PK$SPLASH: splash10-00di-1290000000-290779748253db2a7c29
PK$ANNOTATION: m/z rel.int. formula exact_mass error(ppm) SMILES_of_ion HR_rules
  41.9985 17 [CH3NO-3H]- 41.998539 0(0.92) O=CN True
  73.9802 46 [C2H4ClN-3H]- 73.980301 0(1.36) ClC=CN True
  74.9643 56 [C2H3ClO-3H]- 74.964317 0(0.23) O=CCCl True
  100.9906 29 [C3H5ClN2-3H]- 100.991195 0.001(5.9) ClC=C(N)C=N True
  117.0458 47 [C7H8N2-3H]- 117.045822 0(0.19) N(=C)NC=1C=CC=CC1 True
  144.0567 31 [C8H11N3-5H]- 144.056715 0(0.1) N(=CCN)NC=1C=CC=CC1 True
  220.0278 999 [C10H8ClN3O-H]- 220.028307 0.001(2.3) O=C1C(Cl)=C(N)C=NN1C=2C=CC=CC2 True
PK$NUM_PEAK: 10
PK$PEAK: m/z int. rel.int.
  34.9694 35.8 65
  41.9985 9.6 17
  73.9802 25.3 46
  74.9643 30.9 56
  100.9672 42.3 77
  100.9906 15.9 29
  117.0458 26.1 47
  144.0567 17.2 31
  150.0115 47.3 86
  220.0278 551.1 999
//
