ACCESSION: MSBNK-MSSJ-MSJ02504
RECORD_TITLE: Cinosulfuron; LC-ESI-QTOF; MS2; [M+H]+; CID; CE 50V
DATE: 2023.04.05
AUTHORS: Atsushi Yamamoto, Faculty of Environmental Studies, Tottori University of Environmental Studies, 1-1, Wakabadai-kita, Tottori City, Tottori 689-1111, Japan.
LICENSE: CC BY
COPYRIGHT: Atsushi Yamamoto, Faculty of Environmental Studies, Tottori University of Environmental Studies, 1-1, Wakabadai-kita, Tottori City, Tottori 689-1111, Japan.
COMMENT: This record was created by the financial support of MEXT/JSPS KAKENHI Grant Number 23HP8017 to the Mass Spectrometry Society of Japan.
CH$NAME: Cinosulfuron
CH$COMPOUND_CLASS: Non-natural product
CH$FORMULA: C15H19N5O7S
CH$EXACT_MASS: 413.100519
CH$SMILES: COCCOC1=CC=CC=C1S(=O)(=O)NC(=O)NC2=NC(=NC(=N2)OC)OC
CH$IUPAC: InChI=1S/C15H19N5O7S/c1-24-8-9-27-10-6-4-5-7-11(10)28(22,23)20-13(21)16-12-17-14(25-2)19-15(18-12)26-3/h4-7H,8-9H2,1-3H3,(H2,16,17,18,19,20,21)
CH$LINK: CAS 94593-91-6
CH$LINK: CHEMSPIDER 83438
CH$LINK: INCHIKEY WMLPCIHUFDKWJU-UHFFFAOYSA-N
CH$LINK: PUBCHEM CID:92420
AC$INSTRUMENT: X500R QTOF (AB Sciex LLC, MA, USA) coupled to ExionLC AD (AB Sciex LLC, MA, USA).
AC$INSTRUMENT_TYPE: LC-ESI-QTOF
AC$MASS_SPECTROMETRY: MS_TYPE MS2
AC$MASS_SPECTROMETRY: ION_MODE POSITIVE
AC$MASS_SPECTROMETRY: COLLISION_ENERGY 50 V
AC$MASS_SPECTROMETRY: COLLISION_GAS N2
AC$MASS_SPECTROMETRY: FRAGMENTATION_MODE CID
AC$MASS_SPECTROMETRY: IONIZATION ESI
AC$CHROMATOGRAPHY: COLUMN_NAME AQ-C18HP 3 microm, 2.1 mm × 150 mm (GL Science, Tokyo, Japan).
AC$CHROMATOGRAPHY: FLOW_GRADIENT 90/10 at 0 min, 90/10 at 8 min, 0/100 at 23 min, 0/100 at 30 min, 90/10 at 30.1 min, 90/10 at 40 min
AC$CHROMATOGRAPHY: FLOW_RATE 200 microL/min
AC$CHROMATOGRAPHY: RETENTION_TIME 28.9 min
AC$CHROMATOGRAPHY: SOLVENT A water with 2 mM Ammonium bicarbonate
AC$CHROMATOGRAPHY: SOLVENT B methanol with 2 mM Ammmonium bicarbonate
MS$FOCUSED_ION: PRECURSOR_M/Z 414.107796
MS$FOCUSED_ION: PRECURSOR_TYPE [M+H]+
PK$SPLASH: splash10-001i-5900000000-5025579b4e1eccb43d44
PK$ANNOTATION: m/z rel.int. formula exact_mass error(ppm) SMILES_of_ion HR_rules
  43.0288 55 [CH4N2-H]+ 43.029075 0(6.4) N=CN True
  45.0333 57 [C2H6O-H]+ 45.033493 0(4.28) O(C)C True
  57.0447 188 [C2H4N2+H]+ 57.044725 0(0.44) N=CN=C True
  58.0287 45 [C2H5NO-H]+ 58.02874 0(0.68) N=COC True
  59.0491 104 [C3H8O-H]+ 59.049141 0(0.69) O(C)CC True
  69.0082 138 [C2H4N2O-3H]+ 69.00834 0(2.03) O=CNC=N True
  72.0446 55 [C3H7NO-H]+ 72.044391 0(2.9) N(=COC)C True
  77.0384 51 [C6H6-H]+ 77.038578 0(2.31) C=1C=CC=CC1 True
  83.024 999 [C3H6N2O-3H]+ 83.023988 0(0.14) N=CN=COC True
  101.0342 88 [C3H6N2O2-H]+ 101.034557 0(3.53) N=C(O)N=COC True
  141.0006 383 [C6H6O2S-H]+ 141.000476 0(0.88) O=S(=O)C=1C=CC=CC1 True
  157.0723 403 [C5H8N4O2+H]+ 157.072004 0(1.88) N=1C(=NC(=NC1OC)N)OC True
  183.0112 513 [C8H10O3S-3H]+ 183.011041 0(0.87) O=S(=O)C=1C=CC=CC1OCC True
  183.0512 775 [C6H8N4O3-H]+ 183.051273 0(0.4) O=CNC=1N=C(N=C(N1)OC)OC True
PK$NUM_PEAK: 22
PK$PEAK: m/z int. rel.int.
  43.0288 0.7 55
  45.0333 0.8 57
  57.0447 2.5 188
  58.0287 0.6 45
  59.0491 1.4 104
  65.0386 0.9 67
  69.0082 1.9 138
  72.0446 0.7 55
  77.0384 0.7 51
  83.024 13.5 999
  91.0543 4.6 344
  97.0107 5.9 437
  101.0342 1.2 88
  109.0102 0.7 53
  113.0055 6.5 481
  121.0284 6.5 483
  125.0056 5.4 399
  137.0056 5.0 375
  141.0006 5.2 383
  157.0723 5.4 403
  183.0112 6.9 513
  183.0512 10.4 775
//
