ACCESSION: MSBNK-MSSJ-MSJ01986
RECORD_TITLE: Clemastine; LC-ESI-QQ; MS2; ESI; POSITIVE; CID; CE 50 V; [M+H]+
DATE: 2023.03.28
AUTHORS: Koji Yamaguchi, Department of Legal Medicine, Nippon Medical School, 1715 Kamagari, Inzai-shi, Chiba 270-1694, Japan.
LICENSE: CC BY
COPYRIGHT: Koji Yamaguchi, Department of Legal Medicine, Nippon Medical School, 1715 Kamagari, Inzai-shi, Chiba 270-1694, Japan.
COMMENT: Original data are in the 20230405-1.xlsx file.
COMMENT: This record was created by the financial support of MEXT/JSPS KAKENHI Grant Number 23HP8017 to the Mass Spectrometry Society of Japan.
CH$NAME: Clemastine
CH$COMPOUND_CLASS: Non-natural product
CH$FORMULA: C21H26ClNO
CH$EXACT_MASS: 343.170288
CH$SMILES: C[C@@](C1=CC=CC=C1)(C2=CC=C(C=C2)Cl)OCC[C@H]3CCCN3C
CH$IUPAC: InChI=1S/C21H26ClNO/c1-21(17-7-4-3-5-8-17,18-10-12-19(22)13-11-18)24-16-14-20-9-6-15-23(20)2/h3-5,7-8,10-13,20H,6,9,14-16H2,1-2H3/t20-,21-/m1/s1
CH$LINK: CAS 15686-51-8
CH$LINK: CHEMSPIDER 25129
CH$LINK: INCHIKEY YNNUSGIPVFPVBX-NHCUHLMSSA-N
CH$LINK: PUBCHEM CID:26987
AC$INSTRUMENT: LCMS-8040 coupled to Nexera XR (Shimadzu, Kyoto, Japan).
AC$INSTRUMENT_TYPE: LC-ESI-QQ
AC$MASS_SPECTROMETRY: MS_TYPE MS2
AC$MASS_SPECTROMETRY: ION_MODE POSITIVE
AC$MASS_SPECTROMETRY: COLLISION_ENERGY 50 V
AC$MASS_SPECTROMETRY: FRAGMENTATION_MODE CID
AC$MASS_SPECTROMETRY: IONIZATION ESI
AC$CHROMATOGRAPHY: COLUMN_NAME InertSustain C18 ID 2.1 microm, 2.1 x 100 mm (GL Science, Tokyo, Japan).
AC$CHROMATOGRAPHY: FLOW_GRADIENT 90/10 at 0 min, linear gradient from 90/10 to 2/98 at 0-9 min, 2/98 at 9-12 min, linear gradient from 2/98 to 90/10 at 12-12.1 min, 90/10 at 12.1-15 min.
AC$CHROMATOGRAPHY: FLOW_RATE 200 microl/min
AC$CHROMATOGRAPHY: RETENTION_TIME 9.361 min
AC$CHROMATOGRAPHY: SOLVENT A water with 10 mM ammonium formate
AC$CHROMATOGRAPHY: SOLVENT B methanol
MS$FOCUSED_ION: PRECURSOR_M/Z 344.177565
MS$FOCUSED_ION: PRECURSOR_TYPE [M+H]+
PK$SPLASH: splash10-0v09-0900000000-474ff213f5766d0fe528
PK$NUM_PEAK: 20
PK$PEAK: m/z int. rel.int.
  44.3 20618 66
  55.3 4564 15
  58.2 5258 17
  70.2 3266 10
  75.2 4235 14
  77.3 38005 121
  79.3 8636 28
  81.3 10771 34
  84.4 6206 20
  101.2 105933 339
  102.2 94857 303
  103.2 247203 790
  130.3 19431 62
  137.1 224732 718
  165.1 312543 999
  178.1 139253 445
  179.1 139903 447
  180.1 106711 341
  200.0 5163 17
  215.0 17188 55
//
