ACCESSION: MSBNK-MSSJ-MSJ02906
RECORD_TITLE: Indanofan; LC-ESI-QTOF; MS2; [M+H]+; CID; CE 60V
DATE: 2023.10.22
AUTHORS: Atsushi Yamamoto, Faculty of Environmental Studies, Tottori University of Environmental Studies, 1-1, Wakabadai-kita, Tottori City, Tottori 689-1111, Japan.
LICENSE: CC BY
COPYRIGHT: Atsushi Yamamoto, Faculty of Environmental Studies, Tottori University of Environmental Studies, 1-1, Wakabadai-kita, Tottori City, Tottori 689-1111, Japan.
COMMENT: This record was created by the financial support of MEXT/JSPS KAKENHI Grant Number 23HP8017 to the Mass Spectrometry Society of Japan.
CH$NAME: Indanofan
CH$COMPOUND_CLASS: Non-natural product
CH$FORMULA: C20H17ClO3
CH$EXACT_MASS: 340.086622
CH$SMILES: CCC1(C(=O)C2=CC=CC=C2C1=O)CC3(CO3)C4=CC(=CC=C4)Cl
CH$IUPAC: InChI=1S/C20H17ClO3/c1-2-19(17(22)15-8-3-4-9-16(15)18(19)23)11-20(12-24-20)13-6-5-7-14(21)10-13/h3-10H,2,11-12H2,1H3
CH$LINK: CAS 133220-30-1
CH$LINK: CHEMSPIDER 9221265
CH$LINK: INCHIKEY PMAAYIYCDXGUAP-UHFFFAOYSA-N
CH$LINK: PUBCHEM CID:11046097
AC$INSTRUMENT: X500R QTOF (AB Sciex LLC, MA, USA) coupled to ExionLC AD (AB Sciex LLC, MA, USA).
AC$INSTRUMENT_TYPE: LC-ESI-QTOF
AC$MASS_SPECTROMETRY: MS_TYPE MS2
AC$MASS_SPECTROMETRY: ION_MODE POSITIVE
AC$MASS_SPECTROMETRY: COLLISION_ENERGY 60 V
AC$MASS_SPECTROMETRY: COLLISION_GAS N2
AC$MASS_SPECTROMETRY: FRAGMENTATION_MODE CID
AC$MASS_SPECTROMETRY: IONIZATION ESI
AC$CHROMATOGRAPHY: COLUMN_NAME TSKgel ODS-100S 5 um, 2.1 mm × 250 mm, TOSOH
AC$CHROMATOGRAPHY: FLOW_GRADIENT 95/5 at 0 min, 95/5 at 3 min, 0/100 at 13 min, 0/100 at 23 min, 95/5 at 23.1 min, 95/5 at 28 min
AC$CHROMATOGRAPHY: FLOW_RATE 200 ul/min
AC$CHROMATOGRAPHY: RETENTION_TIME 15.2 min
AC$CHROMATOGRAPHY: SOLVENT A water with 20 mM formic acid aquatic solution
AC$CHROMATOGRAPHY: SOLVENT B methanol with 20 mM Formic acid methanolic solution
MS$FOCUSED_ION: PRECURSOR_M/Z 341.093899
MS$FOCUSED_ION: PRECURSOR_TYPE [M+H]+
PK$SPLASH: splash10-0lfu-1900000000-5dfae7b93d0d8c726b45
PK$ANNOTATION: m/z rel.int. formula exact_mass error(ppm) SMILES_of_ion HR_rules
  43.0177 55 [C2H4O-H]+ 43.017841 0(3.28) O1CC1 True
  77.0383 268 [C6H6-H]+ 77.038578 0(3.6) C=1C=CC=CC1 True
  89.0382 116 [C7H8-3H]+ 89.038575 0(4.22) C=1C=CC(=CC1)C True
  91.0539 593 [C7H8-H]+ 91.054226 0(3.58) C=1C=CC(=CC1)C True
  103.0539 569 [C8H10-3H]+ 103.054223 0(3.14) C=1C=CC(=CC1)CC True
  105.0333 290 [C7H6O-H]+ 105.033489 0(1.8) O=CC=1C=CC=CC1 True
  115.0539 999 [C9H12-5H]+ 115.054229 0(2.86) C=1C=CC(=CC1)C(C)C True
  117.0695 240 [C9H12-3H]+ 117.069879 0(3.24) C=1C=CC(=CC1)C(C)C True
  131.0489 336 [C9H10O-3H]+ 131.049142 0(1.85) O=C(C=1C=CC=CC1)CC True
  141.0694 386 [C11H16-7H]+ 141.069875 0(3.36) C=1C=CC(=CC1)CCCCC True
  145.0642 106 [C10H12O-3H]+ 145.064798 0.001(4.12) O=C(C=1C=CC=CC1)CCC True
  155.0497 392 [C11H14O-7H]+ 155.049138 0.001(3.63) O1CC1(C=2C=CC=CC2)CCC True
  159.0437 397 [C10H8O2-H]+ 159.044056 0(2.24) O=C1C=2C=CC=CC2C(=O)C1C True
  169.0644 117 [C12H16O-7H]+ 169.064793 0(2.33) O=C(C=1C=CC=CC1)C(CC)CC True
  173.0593 302 [C11H10O2-H]+ 173.059711 0(2.38) O=C1C=2C=CC=CC2C(=O)C1CC True
  175.0752 218 [C11H10O2+H]+ 175.075361 0(0.92) O=C1C=2C=CC=CC2C(=O)C1CC True
PK$NUM_PEAK: 26
PK$PEAK: m/z int. rel.int.
  43.0177 4.2 55
  77.0383 20.7 268
  89.0382 8.9 116
  91.0539 45.7 593
  98.9993 3.5 46
  103.0539 43.8 569
  105.0333 22.4 290
  115.0539 77.0 999
  116.0616 12.3 160
  117.0695 18.5 240
  125.0149 31.7 411
  127.054 15.4 200
  128.0618 32.2 418
  129.069 11.1 144
  131.0489 25.9 336
  131.085 14.0 182
  132.0566 13.1 170
  141.0694 29.8 386
  145.0642 8.2 106
  155.0497 30.2 392
  159.0437 30.6 397
  160.0516 7.2 94
  169.0644 9.0 117
  173.0593 23.3 302
  175.0752 16.8 218
  202.0772 7.9 102
//
