ACCESSION: MSBNK-MSSJ-MSJ02512
RECORD_TITLE: Cinosulfuron; LC-ESI-QTOF; MS2; [M-H]-; CID; CE 60V
DATE: 2023.04.05
AUTHORS: Atsushi Yamamoto, Faculty of Environmental Studies, Tottori University of Environmental Studies, 1-1, Wakabadai-kita, Tottori City, Tottori 689-1111, Japan.
LICENSE: CC BY
COPYRIGHT: Atsushi Yamamoto, Faculty of Environmental Studies, Tottori University of Environmental Studies, 1-1, Wakabadai-kita, Tottori City, Tottori 689-1111, Japan.
COMMENT: This record was created by the financial support of MEXT/JSPS KAKENHI Grant Number 23HP8017 to the Mass Spectrometry Society of Japan.
CH$NAME: Cinosulfuron
CH$COMPOUND_CLASS: Non-natural product
CH$FORMULA: C15H19N5O7S
CH$EXACT_MASS: 413.100519
CH$SMILES: COCCOC1=CC=CC=C1S(=O)(=O)NC(=O)NC2=NC(=NC(=N2)OC)OC
CH$IUPAC: InChI=1S/C15H19N5O7S/c1-24-8-9-27-10-6-4-5-7-11(10)28(22,23)20-13(21)16-12-17-14(25-2)19-15(18-12)26-3/h4-7H,8-9H2,1-3H3,(H2,16,17,18,19,20,21)
CH$LINK: CAS 94593-91-6
CH$LINK: CHEMSPIDER 83438
CH$LINK: INCHIKEY WMLPCIHUFDKWJU-UHFFFAOYSA-N
CH$LINK: PUBCHEM CID:92420
AC$INSTRUMENT: X500R QTOF (AB Sciex LLC, MA, USA) coupled to ExionLC AD (AB Sciex LLC, MA, USA).
AC$INSTRUMENT_TYPE: LC-ESI-QTOF
AC$MASS_SPECTROMETRY: MS_TYPE MS2
AC$MASS_SPECTROMETRY: ION_MODE NEGATIVE
AC$MASS_SPECTROMETRY: COLLISION_ENERGY 60 V
AC$MASS_SPECTROMETRY: COLLISION_GAS N2
AC$MASS_SPECTROMETRY: FRAGMENTATION_MODE CID
AC$MASS_SPECTROMETRY: IONIZATION ESI
AC$CHROMATOGRAPHY: COLUMN_NAME AQ-C18HP 3 microm, 2.1 mm × 150 mm (GL Science, Tokyo, Japan).
AC$CHROMATOGRAPHY: FLOW_GRADIENT 90/10 at 0 min, 90/10 at 8 min, 0/100 at 23 min, 0/100 at 30 min, 90/10 at 30.1 min, 90/10 at 40 min
AC$CHROMATOGRAPHY: FLOW_RATE 200 microL/min
AC$CHROMATOGRAPHY: RETENTION_TIME 28.9 min
AC$CHROMATOGRAPHY: SOLVENT A water with 2 mM Ammonium bicarbonate
AC$CHROMATOGRAPHY: SOLVENT B methanol with 2 mM Ammmonium bicarbonate
MS$FOCUSED_ION: PRECURSOR_M/Z 412.093242
MS$FOCUSED_ION: PRECURSOR_TYPE [M-H]-
PK$SPLASH: splash10-0a4i-3900000000-77b66482a65158be0c10
PK$ANNOTATION: m/z rel.int. formula exact_mass error(ppm) SMILES_of_ion HR_rules
  41.0146 44 [CH4N2-3H]- 41.014522 0(1.89) N=CN True
  41.9985 110 [CH3NO-3H]- 41.998539 0(0.92) O=CN True
  55.0302 100 [C2H4N2-H]- 55.030172 0(0.5) N=CN=C True
  66.0097 288 [C2H5N3-5H]- 66.009771 0(1.07) N=C(N=C)N True
  97.0274 37 [C3H3N3O]- 97.028159 0.001(7.83) OC=1N=CN=CN1 False
  98.0363 57 [C3H7N3O-3H]- 98.035988 0(3.19) N=C(N=COC)N True
  123.0312 358 [C4H6N4O-3H]- 123.031235 0(0.28) N=1C=NC(=NC1OC)N True
  125.0466 97 [C4H6N4O-H]- 125.046885 0(2.28) N=1C=NC(=NC1OC)N True
  140.034 82 [C4H6N4O2-2H]- 140.033971 0(0.21) OC=1N=C(N=C(N1)N)OC False
  155.0574 999 [C5H8N4O2-H]- 155.057451 0(0.33) N=1C(=NC(=NC1OC)N)OC True
PK$NUM_PEAK: 11
PK$PEAK: m/z int. rel.int.
  41.0146 1.3 44
  41.9985 3.4 110
  55.0302 3.1 100
  66.0097 8.8 288
  97.0274 1.1 37
  98.0363 1.7 57
  123.0312 11.0 358
  125.0466 3.0 97
  140.034 2.5 82
  141.0419 2.0 67
  155.0574 30.7 999
//
