ACCESSION: MSBNK-MSSJ-MSJ02703
RECORD_TITLE: Cyclosulfamuron; LC-ESI-QTOF; MS2; [M+H]+; CID; CE 40V
DATE: 2023.04.05
AUTHORS: Atsushi Yamamoto, Faculty of Environmental Studies, Tottori University of Environmental Studies, 1-1, Wakabadai-kita, Tottori City, Tottori 689-1111, Japan.
LICENSE: CC BY
COPYRIGHT: Atsushi Yamamoto, Faculty of Environmental Studies, Tottori University of Environmental Studies, 1-1, Wakabadai-kita, Tottori City, Tottori 689-1111, Japan.
COMMENT: This record was created by the financial support of MEXT/JSPS KAKENHI Grant Number 23HP8017 to the Mass Spectrometry Society of Japan.
CH$NAME: cyclosulfamuron
CH$COMPOUND_CLASS: Non-natural product
CH$FORMULA: C17H19N5O6S
CH$EXACT_MASS: 421.105605
CH$SMILES: COC1=CC(=NC(=N1)NC(=O)NS(=O)(=O)NC2=CC=CC=C2C(=O)C3CC3)OC
CH$IUPAC: InChI=1S/C17H19N5O6S/c1-27-13-9-14(28-2)19-16(18-13)20-17(24)22-29(25,26)21-12-6-4-3-5-11(12)15(23)10-7-8-10/h3-6,9-10,21H,7-8H2,1-2H3,(H2,18,19,20,22,24)
CH$LINK: CAS 136849-15-5
CH$LINK: CHEMSPIDER 4953619
CH$LINK: INCHIKEY OFSLKOLYLQSJPB-UHFFFAOYSA-N
CH$LINK: PUBCHEM CID:6451137
AC$INSTRUMENT: X500R QTOF (AB Sciex LLC, MA, USA) coupled to ExionLC AD (AB Sciex LLC, MA, USA).
AC$INSTRUMENT_TYPE: LC-ESI-QTOF
AC$MASS_SPECTROMETRY: MS_TYPE MS2
AC$MASS_SPECTROMETRY: ION_MODE POSITIVE
AC$MASS_SPECTROMETRY: COLLISION_ENERGY 40 V
AC$MASS_SPECTROMETRY: COLLISION_GAS N2
AC$MASS_SPECTROMETRY: FRAGMENTATION_MODE CID
AC$MASS_SPECTROMETRY: IONIZATION ESI
AC$CHROMATOGRAPHY: COLUMN_NAME AQ-C18HP 3 microm, 2.1 mm × 150 mm (GL Science, Tokyo, Japan).
AC$CHROMATOGRAPHY: FLOW_GRADIENT 90/10 at 0 min, 90/10 at 8 min, 0/100 at 23 min, 0/100 at 30 min, 90/10 at 30.1 min, 90/10 at 40 min
AC$CHROMATOGRAPHY: FLOW_RATE 200 microL/min
AC$CHROMATOGRAPHY: RETENTION_TIME 34.5 min
AC$CHROMATOGRAPHY: SOLVENT A water with 2 mM Ammonium bicarbonate
AC$CHROMATOGRAPHY: SOLVENT B methanol with 2 mM Ammmonium bicarbonate
MS$FOCUSED_ION: PRECURSOR_M/Z 422.112882
MS$FOCUSED_ION: PRECURSOR_TYPE [M+H]+
PK$SPLASH: splash10-014i-0790000000-31b9bd8b0b64dc5db69f
PK$ANNOTATION: m/z rel.int. formula exact_mass error(ppm) SMILES_of_ion HR_rules
  97.0395 30 [C4H4N2O+H]+ 97.03964 0(1.45) OC=1N=CN=CC1 True
  124.0507 143 [C5H7N3O-H]+ 124.050541 0(1.29) N=1C=CC(=NC1N)OC True
  127.0501 88 [C5H6N2O2+H]+ 127.050207 0(0.84) OC1=NC=NC(OC)=C1 True
  139.0377 245 [C5H7N3O2-2H]+ 139.037634 0(0.47) OC=1N=C(N=C(OC)C1)N False
  154.0611 288 [C6H9N3O2-H]+ 154.0611 0(0) N=1C(=NC(OC)=CC1OC)N True
  156.0768 102 [C6H9N3O2+H]+ 156.07675 0(0.32) N=1C(=NC(OC)=CC1OC)N True
  182.0562 202 [C7H9N3O3-H]+ 182.056018 0(1) O=CNC=1N=C(OC)C=C(N1)OC True
  218.0231 999 [C6H11N3O4S-3H]+ 218.023004 0(0.44) O=C(NC=NC=CCOC)NS(=O)=O True
  236.0336 210 [C6H11N3O5S-H]+ 236.033573 0(0.12) O=C(NC=NC(O)=CCOC)NS(=O)=O True
  261.0289 151 [C7H10N4O5S-H]+ 261.028827 0(0.28) O=C(NC=1N=C(OC)C=C(N1)OC)NS(=O)=O True
PK$NUM_PEAK: 10
PK$PEAK: m/z int. rel.int.
  97.0395 0.6 30
  124.0507 3.0 143
  127.0501 1.9 88
  139.0377 5.2 245
  154.0611 6.1 288
  156.0768 2.2 102
  182.0562 4.3 202
  218.0231 21.2 999
  236.0336 4.5 210
  261.0289 3.2 151
//
