ACCESSION: MSBNK-MSSJ-MSJ00803
RECORD_TITLE: L-Arginine; ESI-QTOF; MS2; POSITIVE; [M+H]+; CID; 40 V
DATE: 2021.11.16
AUTHORS: Atsushi Yamamoto, Faculty of Environmental Studies, Tottori University of Environmental Studies, 1-1, Wakabadai-kita, Tottori City, Tottori 689-1111, Japan.
LICENSE: CC BY
COPYRIGHT: Atsushi Yamamoto, Faculty of Environmental Studies, Tottori University of Environmental Studies, 1-1, Wakabadai-kita, Tottori City, Tottori 689-1111, Japan.
COMMENT: The sample was injected by direct infusion.
COMMENT: This record was created by the financial support of MEXT/JSPS KAKENHI Grant Number 21HP8020 to the Mass Spectrometry Society of Japan.
CH$NAME: L-Arginine
CH$COMPOUND_CLASS: L-alpha-Amino acid
CH$FORMULA: C6H14N4O2
CH$EXACT_MASS: 174.11166
CH$SMILES: C(C[C@@H](C(=O)O)N)CN=C(N)N
CH$IUPAC: InChI=1S/C6H14N4O2/c7-4(5(11)12)2-1-3-10-6(8)9/h4H,1-3,7H2,(H,11,12)(H4,8,9,10)/t4-/m0/s1
CH$LINK: CAS 74-79-3
CH$LINK: CHEBI CHEBI:16467
CH$LINK: CHEMSPIDER 6082
CH$LINK: INCHIKEY ODKSFYDXXFIFQN-BYPYZUCNSA-N
CH$LINK: PUBCHEM CID:6322
AC$INSTRUMENT: X500R QTOF (AB Sciex LLC, USA)
AC$INSTRUMENT_TYPE: ESI-QTOF
AC$MASS_SPECTROMETRY: MS_TYPE MS2
AC$MASS_SPECTROMETRY: ION_MODE POSITIVE
AC$MASS_SPECTROMETRY: COLLISION_ENERGY 40 V
AC$MASS_SPECTROMETRY: FRAGMENTATION_MODE CID
AC$MASS_SPECTROMETRY: IONIZATION ESI
MS$FOCUSED_ION: PRECURSOR_M/Z 175.11894
MS$FOCUSED_ION: PRECURSOR_TYPE [M+H]+
PK$SPLASH: splash10-00di-9000000000-652b43504682ca917623
PK$ANNOTATION: m/z formula exact_mass error(ppm) SMILES_of_ion HR_rules
  30.0334 [CH3N+H]+ 30.033825 14.15 N=C True
  43.0288 [CH4N2-H]+ 43.029075 6.4 N=CN True
  60.0554 [CH5N3+H]+ 60.055624 3.73 N=C(N)N True
  70.0642 [C4H11N-3H]+ 70.065126 13.21 NCCCC True
PK$NUM_PEAK: 4
PK$PEAK: m/z int. rel.int.
  30.0334 1.831 16
  43.0288 3.087 27
  60.0554 9.797 86
  70.0642 114.417 999
//
