ACCESSION: MSBNK-MSSJ-MSJ02785
RECORD_TITLE: Tebuthiuron; LC-ESI-QTOF; MS2; [M+H]+; CID; CE 60V
DATE: 2023.10.22
AUTHORS: Atsushi Yamamoto, Faculty of Environmental Studies, Tottori University of Environmental Studies, 1-1, Wakabadai-kita, Tottori City, Tottori 689-1111, Japan.
LICENSE: CC BY
COPYRIGHT: Atsushi Yamamoto, Faculty of Environmental Studies, Tottori University of Environmental Studies, 1-1, Wakabadai-kita, Tottori City, Tottori 689-1111, Japan.
COMMENT: This record was created by the financial support of MEXT/JSPS KAKENHI Grant Number 23HP8017 to the Mass Spectrometry Society of Japan.
CH$NAME: Tebuthiuron
CH$COMPOUND_CLASS: Non-natural product
CH$FORMULA: C9H16N4OS
CH$EXACT_MASS: 228.104482
CH$SMILES: CC(C)(C)C1=NN=C(S1)N(C)C(=O)NC
CH$IUPAC: InChI=1S/C9H16N4OS/c1-9(2,3)6-11-12-8(15-6)13(5)7(14)10-4/h1-5H3,(H,10,14)
CH$LINK: CAS 34014-18-1
CH$LINK: CHEMSPIDER 5190
CH$LINK: INCHIKEY HBPDKDSFLXWOAE-UHFFFAOYSA-N
CH$LINK: PUBCHEM CID:5383
AC$INSTRUMENT: X500R QTOF (AB Sciex LLC, MA, USA) coupled to ExionLC AD (AB Sciex LLC, MA, USA).
AC$INSTRUMENT_TYPE: LC-ESI-QTOF
AC$MASS_SPECTROMETRY: MS_TYPE MS2
AC$MASS_SPECTROMETRY: ION_MODE POSITIVE
AC$MASS_SPECTROMETRY: COLLISION_ENERGY 60 V
AC$MASS_SPECTROMETRY: COLLISION_GAS N2
AC$MASS_SPECTROMETRY: FRAGMENTATION_MODE CID
AC$MASS_SPECTROMETRY: IONIZATION ESI
AC$CHROMATOGRAPHY: COLUMN_NAME TSKgel ODS-100S 5 um, 2.1 mm × 250 mm, TOSOH
AC$CHROMATOGRAPHY: FLOW_GRADIENT 95/5 at 0 min, 95/5 at 3 min, 0/100 at 13 min, 0/100 at 23 min, 95/5 at 23.1 min, 95/5 at 28 min
AC$CHROMATOGRAPHY: FLOW_RATE 200 ul/min
AC$CHROMATOGRAPHY: RETENTION_TIME 13.4 min
AC$CHROMATOGRAPHY: SOLVENT A water with 20 mM formic acid aquatic solution
AC$CHROMATOGRAPHY: SOLVENT B methanol with 20 mM Formic acid methanolic solution
MS$FOCUSED_ION: PRECURSOR_M/Z 229.111759
MS$FOCUSED_ION: PRECURSOR_TYPE [M+H]+
PK$SPLASH: splash10-0c03-9400000000-f40a8e3c777a1cbddac0
PK$ANNOTATION: m/z rel.int. formula exact_mass error(ppm) SMILES_of_ion HR_rules
  30.0337 52 [CH5N-H]+ 30.033825 0(4.15) NC True
  39.0228 96 [C3H8-5H]+ 39.022925 0(3.21) CCC True
  41.0384 211 [C3H8-3H]+ 41.038575 0(4.28) CCC True
  43.0289 277 [CH4N2-H]+ 43.029075 0(4.07) N=CN True
  44.0494 53 [C2H7N-H]+ 44.049476 0(1.73) N(C)C True
  57.0445 697 [C2H4N2+H]+ 57.044725 0(3.95) N(N=C)=C True
  58.9947 94 [C2H6S-3H]+ 58.994996 0(5.02) S(C)C True
  62.0057 625 [CH3NS+H]+ 62.005896 0(3.15) N=CS True
  74.0057 999 [C2H5NS-H]+ 74.005893 0(2.61) N=CSC True
  89.0168 221 [C2H6N2S-H]+ 89.016796 0(0.05) N=C(S)NC True
  100.0214 71 [C4H9NS-3H]+ 100.021547 0(1.47) N=C(S)C(C)C True
  116.0277 514 [C3H5N3S+H]+ 116.027693 0(0.06) N=1N=C(SC1)NC True
  142.0433 546 [C5H9N3S-H]+ 142.043338 0(0.27) N=1N=C(SC1N)C(C)C True
  156.059 548 [C6H11N3S-H]+ 156.058994 0(0.04) N=1N=C(SC1N)C(C)(C)C True
PK$NUM_PEAK: 17
PK$PEAK: m/z int. rel.int.
  30.0337 9.2 52
  39.0228 17.0 96
  41.0384 37.4 211
  42.0336 19.9 112
  43.0289 49.2 277
  44.0494 9.4 53
  57.0445 123.9 697
  57.0688 4.2 24
  58.9947 16.8 94
  59.9901 11.2 63
  62.0057 111.0 625
  74.0057 177.6 999
  89.0168 39.3 221
  100.0214 12.6 71
  116.0277 91.4 514
  142.0433 97.0 546
  156.059 97.3 548
//
