ACCESSION: MSBNK-MSSJ-MSJ02877
RECORD_TITLE: Azamethiophos; LC-ESI-QTOF; MS2; [M+H]+; CID; CE 50V
DATE: 2023.10.22
AUTHORS: Atsushi Yamamoto, Faculty of Environmental Studies, Tottori University of Environmental Studies, 1-1, Wakabadai-kita, Tottori City, Tottori 689-1111, Japan.
LICENSE: CC BY
COPYRIGHT: Atsushi Yamamoto, Faculty of Environmental Studies, Tottori University of Environmental Studies, 1-1, Wakabadai-kita, Tottori City, Tottori 689-1111, Japan.
COMMENT: This record was created by the financial support of MEXT/JSPS KAKENHI Grant Number 23HP8017 to the Mass Spectrometry Society of Japan.
CH$NAME: Azamethiophos
CH$COMPOUND_CLASS: Non-natural product
CH$FORMULA: C9H10ClN2O5PS
CH$EXACT_MASS: 323.973657
CH$SMILES: COP(=O)(OC)SCN1C2=C(C=C(C=N2)Cl)OC1=O
CH$IUPAC: InChI=1S/C9H10ClN2O5PS/c1-15-18(14,16-2)19-5-12-8-7(17-9(12)13)3-6(10)4-11-8/h3-4H,5H2,1-2H3
CH$LINK: CAS 35575-96-3
CH$LINK: CHEMSPIDER 64559
CH$LINK: INCHIKEY VNKBTWQZTQIWDV-UHFFFAOYSA-N
CH$LINK: PUBCHEM CID:71482
AC$INSTRUMENT: X500R QTOF (AB Sciex LLC, MA, USA) coupled to ExionLC AD (AB Sciex LLC, MA, USA).
AC$INSTRUMENT_TYPE: LC-ESI-QTOF
AC$MASS_SPECTROMETRY: MS_TYPE MS2
AC$MASS_SPECTROMETRY: ION_MODE POSITIVE
AC$MASS_SPECTROMETRY: COLLISION_ENERGY 50 V
AC$MASS_SPECTROMETRY: COLLISION_GAS N2
AC$MASS_SPECTROMETRY: FRAGMENTATION_MODE CID
AC$MASS_SPECTROMETRY: IONIZATION ESI
AC$CHROMATOGRAPHY: COLUMN_NAME TSKgel ODS-100S 5 um, 2.1 mm × 250 mm, TOSOH
AC$CHROMATOGRAPHY: FLOW_GRADIENT 95/5 at 0 min, 95/5 at 3 min, 0/100 at 13 min, 0/100 at 23 min, 95/5 at 23.1 min, 95/5 at 28 min
AC$CHROMATOGRAPHY: FLOW_RATE 200 ul/min
AC$CHROMATOGRAPHY: RETENTION_TIME 12.9 min
AC$CHROMATOGRAPHY: SOLVENT A water with 20 mM formic acid aquatic solution
AC$CHROMATOGRAPHY: SOLVENT B methanol with 20 mM Formic acid methanolic solution
MS$FOCUSED_ION: PRECURSOR_M/Z 324.980934
MS$FOCUSED_ION: PRECURSOR_TYPE [M+H]+
PK$SPLASH: splash10-03di-3900000000-03698c049c758bb57cfe
PK$ANNOTATION: m/z rel.int. formula exact_mass error(ppm) SMILES_of_ion HR_rules
  75.0102 63 [C5H5N-4H]+ 75.010349 0(1.99) N=1C=CC=CC1 False
  76.018 419 [C5H5N-3H]+ 76.018174 0(2.3) N=1C=CC=CC1 True
  111.9945 999 [C5H4ClN-H]+ 111.994854 0(3.16) ClC=1C=NC=CC1 True
  130.0054 304 [C5H4ClNO+H]+ 130.005415 0(0.11) ClC1=CN=CC(O)=C1 True
  139.0056 361 [C6H7ClN2-3H]+ 139.005746 0(1.05) ClC1=CN=C(C=C1)NC True
PK$NUM_PEAK: 6
PK$PEAK: m/z int. rel.int.
  75.0102 19.0 63
  76.018 127.3 419
  84.9838 24.8 82
  111.9945 303.7 999
  130.0054 92.5 304
  139.0056 109.9 361
//
