ACCESSION: MSBNK-MSSJ-MSJ00137
RECORD_TITLE: beta-Carotene; LC-ESI-QTOF; MS2; POSITIVE; ESI; [M]+; COLLISION_ENERGY 5 V.
DATE: 2019.05.10
AUTHORS: Takashi Maoka, Research Institute for Production Development, Kyoto 606-0805, Japan.
LICENSE: CC BY
COPYRIGHT: Takashi Maoka, Research Institute for Production Development, Kyoto 606-0805, Japan.
PUBLICATION: Takashi Maoka, Structural studies of carotenoids in plants, animals, and food products, in Chapter 7, Carotenoids Nutrition, Analysis and Technology, Edited by Agnieska Kaezor and Malgorzata Baranska, Wiley Blackwell, UK, pp. 103-129, (2016).
COMMENT: Window width to select the precursor ion was 3 Da.
COMMENT: CONE_VOLTAGE is 10 V.
COMMENT: This record was created by the financial support of MEXT/JSPS KAKENHI Grant Number 19HP8024 to the Mass Spectrometry Society of Japan.
CH$NAME: beta-Carotene
CH$NAME: beta,beta-Carotene
CH$COMPOUND_CLASS: Natural product; carotenoids, carotene
CH$FORMULA: C40H56
CH$EXACT_MASS: 536.43820
CH$SMILES: CC1=C(C(CCC1)(C)C)/C=C/C(=C/C=C/C(=C/C=C/C=C(/C=C/C=C(/C=C/C2=C(CCCC2(C)C)C)\C)\C)/C)/C
CH$IUPAC: InChI=1S/C40H56/c1-31(19-13-21-33(3)25-27-37-35(5)23-15-29-39(37,7)8)17-11-12-18-32(2)20-14-22-34(4)26-28-38-36(6)24-16-30-40(38,9)10/h11-14,17-22,25-28H,15-16,23-24,29-30H2,1-10H3/b12-11+,19-13+,20-14+,27-25+,28-26+,31-17+,32-18+,33-21+,34-22+
CH$LINK: CHEMSPIDER 4444129
CH$LINK: INCHIKEY OENHQHLEOONYIE-JLTXGRSLSA-N
CH$LINK: LIPIDBANK VCA0001
CH$LINK: PUBCHEM CID:5280489
AC$INSTRUMENT: Xevo G2-S QtOF, Waters (USA) coupled to ACQUITY UPLC, Waters (USA).
AC$INSTRUMENT_TYPE: LC-ESI-QTOF
AC$MASS_SPECTROMETRY: MS_TYPE MS2
AC$MASS_SPECTROMETRY: ION_MODE POSITIVE
AC$MASS_SPECTROMETRY: COLLISION_ENERGY 5 V
AC$MASS_SPECTROMETRY: COLLISION_GAS Ar
AC$MASS_SPECTROMETRY: IONIZATION ESI
AC$CHROMATOGRAPHY: COLUMN_NAME BEH C18, I.D. 2.1 mm, length 100 mm, thickness 1.7 micrometer.
AC$CHROMATOGRAPHY: FLOW_GRADIENT Methanol-CH3CN (35:65) as a mobile phase at a flow rate of 0.4 mL/min.
MS$FOCUSED_ION: ION_TYPE [M]+
MS$FOCUSED_ION: PRECURSOR_M/Z 536.43765
PK$SPLASH: splash10-000i-0000090000-c974a2d9f20a0d3e063c
PK$NUM_PEAK: 5
PK$PEAK: m/z int. rel.int.
  444.375 15810 17
  535.43 170400 185
  536.438 921600 999
  537.441 381200 413
  538.444 69080 75
//
