ACCESSION: MSBNK-MSSJ-MSJ02495
RECORD_TITLE: Imazosulfuron; LC-ESI-QTOF; MS2; [M-H]-; CID; CE 40V
DATE: 2023.04.05
AUTHORS: Atsushi Yamamoto, Faculty of Environmental Studies, Tottori University of Environmental Studies, 1-1, Wakabadai-kita, Tottori City, Tottori 689-1111, Japan.
LICENSE: CC BY
COPYRIGHT: Atsushi Yamamoto, Faculty of Environmental Studies, Tottori University of Environmental Studies, 1-1, Wakabadai-kita, Tottori City, Tottori 689-1111, Japan.
COMMENT: This record was created by the financial support of MEXT/JSPS KAKENHI Grant Number 23HP8017 to the Mass Spectrometry Society of Japan.
CH$NAME: Imazosulfuron
CH$COMPOUND_CLASS: Non-natural product
CH$FORMULA: C14H13ClN6O5S
CH$EXACT_MASS: 412.035666
CH$SMILES: COC1=CC(=NC(=N1)NC(=O)NS(=O)(=O)C2=C(N=C3N2C=CC=C3)Cl)OC
CH$IUPAC: InChI=1S/C14H13ClN6O5S/c1-25-9-7-10(26-2)18-13(17-9)19-14(22)20-27(23,24)12-11(15)16-8-5-3-4-6-21(8)12/h3-7H,1-2H3,(H2,17,18,19,20,22)
CH$LINK: CAS 122548-33-8
CH$LINK: CHEMSPIDER 83451
CH$LINK: INCHIKEY NAGRVUXEKKZNHT-UHFFFAOYSA-N
CH$LINK: PUBCHEM CID:92433
AC$INSTRUMENT: X500R QTOF (AB Sciex LLC, MA, USA) coupled to ExionLC AD (AB Sciex LLC, MA, USA).
AC$INSTRUMENT_TYPE: LC-ESI-QTOF
AC$MASS_SPECTROMETRY: MS_TYPE MS2
AC$MASS_SPECTROMETRY: ION_MODE NEGATIVE
AC$MASS_SPECTROMETRY: COLLISION_ENERGY 40 V
AC$MASS_SPECTROMETRY: COLLISION_GAS N2
AC$MASS_SPECTROMETRY: FRAGMENTATION_MODE CID
AC$MASS_SPECTROMETRY: IONIZATION ESI
AC$CHROMATOGRAPHY: COLUMN_NAME AQ-C18HP 3 microm, 2.1 mm × 150 mm (GL Science, Tokyo, Japan).
AC$CHROMATOGRAPHY: FLOW_GRADIENT 90/10 at 0 min, 90/10 at 8 min, 0/100 at 23 min, 0/100 at 30 min, 90/10 at 30.1 min, 90/10 at 40 min
AC$CHROMATOGRAPHY: FLOW_RATE 200 microL/min
AC$CHROMATOGRAPHY: RETENTION_TIME 31.9 min
AC$CHROMATOGRAPHY: SOLVENT A water with 2 mM Ammonium bicarbonate
AC$CHROMATOGRAPHY: SOLVENT B methanol with 2 mM Ammmonium bicarbonate
MS$FOCUSED_ION: PRECURSOR_M/Z 411.028389
MS$FOCUSED_ION: PRECURSOR_TYPE [M-H]-
PK$SPLASH: splash10-0ufr-1940000000-033d024938add6ade4c7
PK$ANNOTATION: m/z rel.int. formula exact_mass error(ppm) SMILES_of_ion HR_rules
  65.0145 27 [C3H6N2-5H]- 65.014524 0(0.37) N(C=C)=CN True
  77.9657 209 [H3NO2S-3H]- 77.965523 0(2.28) O=S(=O)N True
  107.0126 30 [C4H5N3O-4H]- 107.012507 0(0.87) OC1=NC(=NC=C1)N False
  122.0363 102 [C5H7N3O-3H]- 122.035988 0(2.56) N=1C=CC(=NC1N)OC True
  139.0389 84 [C5H7N3O2-2H]- 139.038732 0(1.21) OC=1N=C(N=C(OC)C1)N False
  154.0625 999 [C6H9N3O2-H]- 154.062197 0(1.97) N=1C(=NC(OC)=CC1OC)N True
  229.9801 508 [C7H6ClN3O2S-H]- 229.979647 0(1.97) O=S(=O)(N)C1=C(Cl)N=C2C=CC=CN21 True
  255.9595 77 [C8H6ClN3O3S-3H]- 255.958916 0.001(2.28) O=CNS(=O)(=O)C1=C(Cl)N=C2C=CC=CN21 True
PK$NUM_PEAK: 8
PK$PEAK: m/z int. rel.int.
  65.0145 1.6 27
  77.9657 12.6 209
  107.0126 1.8 30
  122.0363 6.2 102
  139.0389 5.1 84
  154.0625 60.2 999
  229.9801 30.6 508
  255.9595 4.6 77
//
