ACCESSION: MSBNK-MSSJ-MSJ02542
RECORD_TITLE: Propoxycarbazone; LC-ESI-QTOF; MS2; [M+H]+; CID; CE 10V
DATE: 2023.04.05
AUTHORS: Atsushi Yamamoto, Faculty of Environmental Studies, Tottori University of Environmental Studies, 1-1, Wakabadai-kita, Tottori City, Tottori 689-1111, Japan.
LICENSE: CC BY
COPYRIGHT: Atsushi Yamamoto, Faculty of Environmental Studies, Tottori University of Environmental Studies, 1-1, Wakabadai-kita, Tottori City, Tottori 689-1111, Japan.
COMMENT: This record was created by the financial support of MEXT/JSPS KAKENHI Grant Number 23HP8017 to the Mass Spectrometry Society of Japan.
CH$NAME: Propoxycarbazone
CH$COMPOUND_CLASS: Non-natural product
CH$FORMULA: C15H18N4O7S
CH$EXACT_MASS: 398.08962
CH$SMILES: CCCOC1=NN(C(=O)N1C)C(=O)NS(=O)(=O)C2=CC=CC=C2C(=O)OC
CH$IUPAC: InChI=1S/C15H18N4O7S/c1-4-9-26-14-16-19(15(22)18(14)2)13(21)17-27(23,24)11-8-6-5-7-10(11)12(20)25-3/h5-8H,4,9H2,1-3H3,(H,17,21)
CH$LINK: CAS 145026-81-9
CH$LINK: CHEMSPIDER 154427
CH$LINK: INCHIKEY JTHMVYBOQLDDIY-UHFFFAOYSA-N
CH$LINK: PUBCHEM CID:177355
AC$INSTRUMENT: X500R QTOF (AB Sciex LLC, MA, USA) coupled to ExionLC AD (AB Sciex LLC, MA, USA).
AC$INSTRUMENT_TYPE: LC-ESI-QTOF
AC$MASS_SPECTROMETRY: MS_TYPE MS2
AC$MASS_SPECTROMETRY: ION_MODE POSITIVE
AC$MASS_SPECTROMETRY: COLLISION_ENERGY 10 V
AC$MASS_SPECTROMETRY: COLLISION_GAS N2
AC$MASS_SPECTROMETRY: FRAGMENTATION_MODE CID
AC$MASS_SPECTROMETRY: IONIZATION ESI
AC$CHROMATOGRAPHY: COLUMN_NAME AQ-C18HP 3 microm, 2.1 mm × 150 mm (GL Science, Tokyo, Japan).
AC$CHROMATOGRAPHY: FLOW_GRADIENT 90/10 at 0 min, 90/10 at 8 min, 0/100 at 23 min, 0/100 at 30 min, 90/10 at 30.1 min, 90/10 at 40 min
AC$CHROMATOGRAPHY: FLOW_RATE 200 microL/min
AC$CHROMATOGRAPHY: RETENTION_TIME 31.7 min
AC$CHROMATOGRAPHY: SOLVENT A water with 2 mM Ammonium bicarbonate
AC$CHROMATOGRAPHY: SOLVENT B methanol with 2 mM Ammmonium bicarbonate
MS$FOCUSED_ION: PRECURSOR_M/Z 399.096897
MS$FOCUSED_ION: PRECURSOR_TYPE [M+H]+
PK$SPLASH: splash10-00kb-0409000000-b7593e1deb664fbdde02
PK$ANNOTATION: m/z rel.int. formula exact_mass error(ppm) SMILES_of_ion HR_rules
  158.0924 364 [C6H11N3O2+H]+ 158.092405 0(0.03) O=C1NN=C(OCCC)N1C True
  199.0057 527 [C8H8O4S-H]+ 199.005954 0(1.28) O=C(OC)C=1C=CC=CC1S(=O)=O True
  325.0229 44 [C11H10N4O6S-H]+ 325.023731 0.001(2.56) O=C(OC)C=1C=CC=CC1S(=O)(=O)NC(=O)N2N=CNC2=O True
  367.0699 999 [C14H16N4O6S-H]+ 367.070667 0.001(2.09) O=CC=1C=CC=CC1S(=O)(=O)NC(=O)N2N=C(OCCC)N(C2=O)C True
  399.0965 740 [C15H18N4O7S+H]+ 399.096907 0(1.02) O=C(OC)C=1C=CC=CC1S(=O)(=O)NC(=O)N2N=C(OCCC)N(C2=O)C True
PK$NUM_PEAK: 6
PK$PEAK: m/z int. rel.int.
  158.0924 30.0 364
  199.0057 43.4 527
  215.114 3.4 41
  325.0229 3.7 44
  367.0699 82.2 999
  399.0965 60.9 740
//
