ACCESSION: MSBNK-MSSJ-MSJ01684
RECORD_TITLE: Fludiazepam; LC-ESI-QQ; MS2; ESI; POSITIVE; CID; CE 20 V; [M+H]+
DATE: 2023.03.27
AUTHORS: Koji Yamaguchi, Department of Legal Medicine, Nippon Medical School, 1715 Kamagari, Inzai-shi, Chiba 270-1694, Japan.
LICENSE: CC BY
COPYRIGHT: Koji Yamaguchi, Department of Legal Medicine, Nippon Medical School, 1715 Kamagari, Inzai-shi, Chiba 270-1694, Japan.
COMMENT: Original data are in the 20230327-3.xlsx file.
COMMENT: This record was created by the financial support of MEXT/JSPS KAKENHI Grant Number 23HP8017 to the Mass Spectrometry Society of Japan.
CH$NAME: Fludiazepam
CH$COMPOUND_CLASS: Non-natural product
CH$FORMULA: C16H12ClFN2O
CH$EXACT_MASS: 302.062211
CH$SMILES: CN1C(=O)CN=C(C2=C1C=CC(=C2)Cl)C3=CC=CC=C3F
CH$IUPAC: InChI=1S/C16H12ClFN2O/c1-20-14-7-6-10(17)8-12(14)16(19-9-15(20)21)11-4-2-3-5-13(11)18/h2-8H,9H2,1H3
CH$LINK: CAS 3900-31-0
CH$LINK: CHEMSPIDER 3252
CH$LINK: INCHIKEY ROYOYTLGDLIGBX-UHFFFAOYSA-N
CH$LINK: PUBCHEM CID:3369
AC$INSTRUMENT: LCMS-8040 coupled to Nexera XR (Shimadzu, Kyoto, Japan).
AC$INSTRUMENT_TYPE: LC-ESI-QQ
AC$MASS_SPECTROMETRY: MS_TYPE MS2
AC$MASS_SPECTROMETRY: ION_MODE POSITIVE
AC$MASS_SPECTROMETRY: COLLISION_ENERGY 20 V
AC$MASS_SPECTROMETRY: FRAGMENTATION_MODE CID
AC$MASS_SPECTROMETRY: IONIZATION ESI
AC$CHROMATOGRAPHY: COLUMN_NAME InertSustain C18 ID 2.1 microm, 2.1 x 100 mm (GL Science, Tokyo, Japan).
AC$CHROMATOGRAPHY: FLOW_GRADIENT 90/10 at 0 min, linear gradient from 90/10 to 2/98 at 0-9 min, 2/98 at 9-12 min, linear gradient from 2/98 to 90/10 at 12-12.1 min, 90/10 at 12.1-15 min.
AC$CHROMATOGRAPHY: FLOW_RATE 200 microl/min
AC$CHROMATOGRAPHY: RETENTION_TIME 9.408 min
AC$CHROMATOGRAPHY: SOLVENT A water with 10 mM ammonium formate
AC$CHROMATOGRAPHY: SOLVENT B methanol
MS$FOCUSED_ION: PRECURSOR_M/Z 303.069488
MS$FOCUSED_ION: PRECURSOR_TYPE [M+H]+
PK$SPLASH: splash10-0udi-0019000000-c47eab46875fd958b54a
PK$NUM_PEAK: 8
PK$PEAK: m/z int. rel.int.
  123.1 22555 13
  154.2 83906 47
  182.1 29294 16
  211.2 90723 51
  240.2 54079 30
  246.2 39874 22
  275.2 80413 45
  303.2 1778382 999
//
