ACCESSION: MSBNK-MSSJ-MSJ02674
RECORD_TITLE: Fluazifop; LC-ESI-QTOF; MS2; [M+H]+; CID; CE 30V
DATE: 2023.04.05
AUTHORS: Atsushi Yamamoto, Faculty of Environmental Studies, Tottori University of Environmental Studies, 1-1, Wakabadai-kita, Tottori City, Tottori 689-1111, Japan.
LICENSE: CC BY
COPYRIGHT: Atsushi Yamamoto, Faculty of Environmental Studies, Tottori University of Environmental Studies, 1-1, Wakabadai-kita, Tottori City, Tottori 689-1111, Japan.
COMMENT: This record was created by the financial support of MEXT/JSPS KAKENHI Grant Number 23HP8017 to the Mass Spectrometry Society of Japan.
CH$NAME: Fluazifop
CH$COMPOUND_CLASS: Non-natural product
CH$FORMULA: C15H12F3NO4
CH$EXACT_MASS: 327.071842
CH$SMILES: CC(C(=O)O)OC1=CC=C(C=C1)OC2=NC=C(C=C2)C(F)(F)F
CH$IUPAC: InChI=1S/C15H12F3NO4/c1-9(14(20)21)22-11-3-5-12(6-4-11)23-13-7-2-10(8-19-13)15(16,17)18/h2-9H,1H3,(H,20,21)
CH$LINK: CAS 69335-91-7
CH$LINK: CHEMSPIDER 82803
CH$LINK: INCHIKEY YUVKUEAFAVKILW-UHFFFAOYSA-N
CH$LINK: PUBCHEM CID:91701
AC$INSTRUMENT: X500R QTOF (AB Sciex LLC, MA, USA) coupled to ExionLC AD (AB Sciex LLC, MA, USA).
AC$INSTRUMENT_TYPE: LC-ESI-QTOF
AC$MASS_SPECTROMETRY: MS_TYPE MS2
AC$MASS_SPECTROMETRY: ION_MODE POSITIVE
AC$MASS_SPECTROMETRY: COLLISION_ENERGY 30 V
AC$MASS_SPECTROMETRY: COLLISION_GAS N2
AC$MASS_SPECTROMETRY: FRAGMENTATION_MODE CID
AC$MASS_SPECTROMETRY: IONIZATION ESI
AC$CHROMATOGRAPHY: COLUMN_NAME AQ-C18HP 3 microm, 2.1 mm × 150 mm (GL Science, Tokyo, Japan).
AC$CHROMATOGRAPHY: FLOW_GRADIENT 90/10 at 0 min, 90/10 at 8 min, 0/100 at 23 min, 0/100 at 30 min, 90/10 at 30.1 min, 90/10 at 40 min
AC$CHROMATOGRAPHY: FLOW_RATE 200 microL/min
AC$CHROMATOGRAPHY: RETENTION_TIME 32.5 min
AC$CHROMATOGRAPHY: SOLVENT A water with 2 mM Ammonium bicarbonate
AC$CHROMATOGRAPHY: SOLVENT B methanol with 2 mM Ammmonium bicarbonate
MS$FOCUSED_ION: PRECURSOR_M/Z 328.079119
MS$FOCUSED_ION: PRECURSOR_TYPE [M+H]+
PK$SPLASH: splash10-0kai-0090000000-e2448aa039d61fd423f4
PK$ANNOTATION: m/z rel.int. formula exact_mass error(ppm) SMILES_of_ion HR_rules
  119.0492 79 [C8H10O-3H]+ 119.049142 0(0.49) O(C=1C=CC=CC1)CC True
  227.0555 123 [C13H11NO3-2H]+ 227.0577 0.002(9.69) O=CCOC1=CC=C(OC2=NC=CC=C2)C=C1 False
  238.0475 245 [C12H8F3NO-H]+ 238.047428 0(0.3) FC(F)(F)C1=CN=C(OC=2C=CC=CC2)C=C1 True
  254.0424 186 [C12H8F3NO2-H]+ 254.042347 0(0.21) FC(F)(F)C1=CN=C(OC2=CC=C(O)C=C2)C=C1 True
  255.0501 344 [C12H8F3NO2]+ 255.050172 0(0.28) FC(F)(F)C1=CN=C(OC2=CC=C(O)C=C2)C=C1 False
  282.0736 999 [C14H12F3NO2-H]+ 282.073627 0(0.1) FC(F)(F)C1=CN=C(OC2=CC=C(OCC)C=C2)C=C1 True
  328.079 176 [C15H12F3NO4+H]+ 328.079115 0(0.35) O=C(O)C(OC1=CC=C(OC2=NC=C(C=C2)C(F)(F)F)C=C1)C True
PK$NUM_PEAK: 10
PK$PEAK: m/z int. rel.int.
  91.0542 20.1 236
  119.0492 6.7 79
  227.0555 10.4 123
  238.0475 20.8 245
  254.0424 15.8 186
  254.078 35.2 415
  255.0501 29.2 344
  256.0579 26.4 310
  282.0736 84.9 999
  328.079 14.9 176
//
