ACCESSION: MSBNK-MSSJ-MSJ02901
RECORD_TITLE: Indanofan; LC-ESI-QTOF; MS2; [M+H]+; CID; CE 10V
DATE: 2023.10.22
AUTHORS: Atsushi Yamamoto, Faculty of Environmental Studies, Tottori University of Environmental Studies, 1-1, Wakabadai-kita, Tottori City, Tottori 689-1111, Japan.
LICENSE: CC BY
COPYRIGHT: Atsushi Yamamoto, Faculty of Environmental Studies, Tottori University of Environmental Studies, 1-1, Wakabadai-kita, Tottori City, Tottori 689-1111, Japan.
COMMENT: This record was created by the financial support of MEXT/JSPS KAKENHI Grant Number 23HP8017 to the Mass Spectrometry Society of Japan.
CH$NAME: Indanofan
CH$COMPOUND_CLASS: Non-natural product
CH$FORMULA: C20H17ClO3
CH$EXACT_MASS: 340.086622
CH$SMILES: CCC1(C(=O)C2=CC=CC=C2C1=O)CC3(CO3)C4=CC(=CC=C4)Cl
CH$IUPAC: InChI=1S/C20H17ClO3/c1-2-19(17(22)15-8-3-4-9-16(15)18(19)23)11-20(12-24-20)13-6-5-7-14(21)10-13/h3-10H,2,11-12H2,1H3
CH$LINK: CAS 133220-30-1
CH$LINK: CHEMSPIDER 9221265
CH$LINK: INCHIKEY PMAAYIYCDXGUAP-UHFFFAOYSA-N
CH$LINK: PUBCHEM CID:11046097
AC$INSTRUMENT: X500R QTOF (AB Sciex LLC, MA, USA) coupled to ExionLC AD (AB Sciex LLC, MA, USA).
AC$INSTRUMENT_TYPE: LC-ESI-QTOF
AC$MASS_SPECTROMETRY: MS_TYPE MS2
AC$MASS_SPECTROMETRY: ION_MODE POSITIVE
AC$MASS_SPECTROMETRY: COLLISION_ENERGY 10 V
AC$MASS_SPECTROMETRY: COLLISION_GAS N2
AC$MASS_SPECTROMETRY: FRAGMENTATION_MODE CID
AC$MASS_SPECTROMETRY: IONIZATION ESI
AC$CHROMATOGRAPHY: COLUMN_NAME TSKgel ODS-100S 5 um, 2.1 mm × 250 mm, TOSOH
AC$CHROMATOGRAPHY: FLOW_GRADIENT 95/5 at 0 min, 95/5 at 3 min, 0/100 at 13 min, 0/100 at 23 min, 95/5 at 23.1 min, 95/5 at 28 min
AC$CHROMATOGRAPHY: FLOW_RATE 200 ul/min
AC$CHROMATOGRAPHY: RETENTION_TIME 15.2 min
AC$CHROMATOGRAPHY: SOLVENT A water with 20 mM formic acid aquatic solution
AC$CHROMATOGRAPHY: SOLVENT B methanol with 20 mM Formic acid methanolic solution
MS$FOCUSED_ION: PRECURSOR_M/Z 341.093899
MS$FOCUSED_ION: PRECURSOR_TYPE [M+H]+
PK$SPLASH: splash10-002o-0709000000-7060138a0f9a170ede6f
PK$ANNOTATION: m/z rel.int. formula exact_mass error(ppm) SMILES_of_ion HR_rules
  173.0961 52 [C12H16O-3H]+ 173.096094 0(0.04) O1CC1(C=2C=CC=CC2)CCCC True
  175.0751 796 [C11H10O2+H]+ 175.075361 0(1.49) O=C1C=2C=CC=CC2C(=O)C1CC True
  187.0752 576 [C12H12O2-H]+ 187.075351 0(0.81) O=C1C=2C=CC=CC2C(=O)C1(C)CC True
  295.0886 152 [C19H21ClO-5H]+ 295.088409 0(0.65) O=C(C=1C=CC=CC1)C(CC)CC(C=2C=CC=C(Cl)C2)C True
  313.0991 188 [C19H19ClO2-H]+ 313.098987 0(0.36) O=C(C=1C=CC=CC1)C(CC)CC2(OC2)C=3C=CC=C(Cl)C3 True
  323.0833 483 [C20H19ClO2-3H]+ 323.083337 0(0.12) O=C1C=2C=CC=CC2C(=O)C1(CC)CC(C=3C=CC=C(Cl)C3)C True
  341.0935 999 [C20H17ClO3+H]+ 341.093885 0(1.13) O=C1C=2C=CC=CC2C(=O)C1(CC)CC3(OC3)C=4C=CC=C(Cl)C4 True
PK$NUM_PEAK: 7
PK$PEAK: m/z int. rel.int.
  173.0961 21.0 52
  175.0751 322.9 796
  187.0752 233.4 576
  295.0886 61.7 152
  313.0991 76.3 188
  323.0833 196.0 483
  341.0935 405.1 999
//
