ACCESSION: MSBNK-MSSJ-MSJ02795
RECORD_TITLE: Clothianidin; LC-ESI-QTOF; MS2; [M+H]+; CID; CE 20V
DATE: 2023.10.22
AUTHORS: Atsushi Yamamoto, Faculty of Environmental Studies, Tottori University of Environmental Studies, 1-1, Wakabadai-kita, Tottori City, Tottori 689-1111, Japan.
LICENSE: CC BY
COPYRIGHT: Atsushi Yamamoto, Faculty of Environmental Studies, Tottori University of Environmental Studies, 1-1, Wakabadai-kita, Tottori City, Tottori 689-1111, Japan.
COMMENT: This record was created by the financial support of MEXT/JSPS KAKENHI Grant Number 23HP8017 to the Mass Spectrometry Society of Japan.
CH$NAME: Clothianidin
CH$COMPOUND_CLASS: Non-natural product
CH$FORMULA: C6H8ClN5O2S
CH$EXACT_MASS: 249.008723
CH$SMILES: CNC(=N[N+](=O)[O-])NCC1=CN=C(S1)Cl
CH$IUPAC: InChI=1S/C6H8ClN5O2S/c1-8-6(11-12(13)14)10-3-4-2-9-5(7)15-4/h2H,3H2,1H3,(H2,8,10,11)
CH$LINK: CAS 210880-92-5
CH$LINK: CHEMSPIDER 184723
CH$LINK: INCHIKEY PGOOBECODWQEAB-UHFFFAOYSA-N
CH$LINK: PUBCHEM CID:86287519
AC$INSTRUMENT: X500R QTOF (AB Sciex LLC, MA, USA) coupled to ExionLC AD (AB Sciex LLC, MA, USA).
AC$INSTRUMENT_TYPE: LC-ESI-QTOF
AC$MASS_SPECTROMETRY: MS_TYPE MS2
AC$MASS_SPECTROMETRY: ION_MODE POSITIVE
AC$MASS_SPECTROMETRY: COLLISION_ENERGY 20 V
AC$MASS_SPECTROMETRY: COLLISION_GAS N2
AC$MASS_SPECTROMETRY: FRAGMENTATION_MODE CID
AC$MASS_SPECTROMETRY: IONIZATION ESI
AC$CHROMATOGRAPHY: COLUMN_NAME TSKgel ODS-100S 5 um, 2.1 mm × 250 mm, TOSOH
AC$CHROMATOGRAPHY: FLOW_GRADIENT 95/5 at 0 min, 95/5 at 3 min, 0/100 at 13 min, 0/100 at 23 min, 95/5 at 23.1 min, 95/5 at 28 min
AC$CHROMATOGRAPHY: FLOW_RATE 200 ul/min
AC$CHROMATOGRAPHY: RETENTION_TIME 11.2 min
AC$CHROMATOGRAPHY: SOLVENT A water with 20 mM formic acid aquatic solution
AC$CHROMATOGRAPHY: SOLVENT B methanol with 20 mM Formic acid methanolic solution
MS$FOCUSED_ION: PRECURSOR_M/Z 250.016
MS$FOCUSED_ION: PRECURSOR_TYPE [M+H]+
PK$SPLASH: splash10-0159-0900000000-9c75aed2a8bf4aa00fdb
PK$ANNOTATION: m/z rel.int. formula exact_mass error(ppm) SMILES_of_ion HR_rules
  86.0057 19 [C3H3NS+H]+ 86.005896 0(2.27) N1=CSC=C1 True
  110.071 103 [C5H11N3-3H]+ 110.071275 0(2.5) N=C(NC)NCC=C True
  113.0165 183 [C4H6N2S-H]+ 113.016796 0(2.62) N1=CSC(=C1)CN True
  131.9666 811 [C4H4ClNS-H]+ 131.966922 0(2.44) ClC1=NC=C(S1)C True
  146.9771 35 [C4H5ClN2S-H]+ 146.977817 0.001(4.88) ClC1=NC=C(S1)CN True
  168.0462 251 [C6H10N4S-2H]+ 168.046423 0(1.33) N=C(NC)NCC=1SC=NC1 False
  169.0537 999 [C6H10N4S-H]+ 169.054248 0.001(3.24) N=C(NC)NCC=1SC=NC1 True
PK$NUM_PEAK: 10
PK$PEAK: m/z int. rel.int.
  86.0057 3.4 19
  110.071 18.8 103
  111.0789 4.2 23
  113.0165 33.5 183
  131.9666 147.8 811
  146.9771 6.4 35
  147.9856 4.1 23
  168.0462 45.8 251
  169.0537 182.1 999
  174.9727 9.1 50
//
