ACCESSION: MSBNK-MSSJ-MSJ02873
RECORD_TITLE: Azamethiophos; LC-ESI-QTOF; MS2; [M+H]+; CID; CE 10V
DATE: 2023.10.22
AUTHORS: Atsushi Yamamoto, Faculty of Environmental Studies, Tottori University of Environmental Studies, 1-1, Wakabadai-kita, Tottori City, Tottori 689-1111, Japan.
LICENSE: CC BY
COPYRIGHT: Atsushi Yamamoto, Faculty of Environmental Studies, Tottori University of Environmental Studies, 1-1, Wakabadai-kita, Tottori City, Tottori 689-1111, Japan.
COMMENT: This record was created by the financial support of MEXT/JSPS KAKENHI Grant Number 23HP8017 to the Mass Spectrometry Society of Japan.
CH$NAME: Azamethiophos
CH$COMPOUND_CLASS: Non-natural product
CH$FORMULA: C9H10ClN2O5PS
CH$EXACT_MASS: 323.973657
CH$SMILES: COP(=O)(OC)SCN1C2=C(C=C(C=N2)Cl)OC1=O
CH$IUPAC: InChI=1S/C9H10ClN2O5PS/c1-15-18(14,16-2)19-5-12-8-7(17-9(12)13)3-6(10)4-11-8/h3-4H,5H2,1-2H3
CH$LINK: CAS 35575-96-3
CH$LINK: CHEMSPIDER 64559
CH$LINK: INCHIKEY VNKBTWQZTQIWDV-UHFFFAOYSA-N
CH$LINK: PUBCHEM CID:71482
AC$INSTRUMENT: X500R QTOF (AB Sciex LLC, MA, USA) coupled to ExionLC AD (AB Sciex LLC, MA, USA).
AC$INSTRUMENT_TYPE: LC-ESI-QTOF
AC$MASS_SPECTROMETRY: MS_TYPE MS2
AC$MASS_SPECTROMETRY: ION_MODE POSITIVE
AC$MASS_SPECTROMETRY: COLLISION_ENERGY 10 V
AC$MASS_SPECTROMETRY: COLLISION_GAS N2
AC$MASS_SPECTROMETRY: FRAGMENTATION_MODE CID
AC$MASS_SPECTROMETRY: IONIZATION ESI
AC$CHROMATOGRAPHY: COLUMN_NAME TSKgel ODS-100S 5 um, 2.1 mm × 250 mm, TOSOH
AC$CHROMATOGRAPHY: FLOW_GRADIENT 95/5 at 0 min, 95/5 at 3 min, 0/100 at 13 min, 0/100 at 23 min, 95/5 at 23.1 min, 95/5 at 28 min
AC$CHROMATOGRAPHY: FLOW_RATE 200 ul/min
AC$CHROMATOGRAPHY: RETENTION_TIME 12.9 min
AC$CHROMATOGRAPHY: SOLVENT A water with 20 mM formic acid aquatic solution
AC$CHROMATOGRAPHY: SOLVENT B methanol with 20 mM Formic acid methanolic solution
MS$FOCUSED_ION: PRECURSOR_M/Z 324.980934
MS$FOCUSED_ION: PRECURSOR_TYPE [M+H]+
PK$SPLASH: splash10-00e9-0509000000-6788d5e80498e48c74e5
PK$ANNOTATION: m/z rel.int. formula exact_mass error(ppm) SMILES_of_ion HR_rules
  111.9948 19 [C5H4ClN-H]+ 111.994854 0(0.48) ClC=1C=NC=CC1 True
  139.0057 49 [C6H7ClN2-3H]+ 139.005746 0(0.33) ClC1=CN=C(C=C1)NC True
  182.9953 559 [C7H5ClN2O2-H]+ 182.995578 0(1.52) O=C1OC2=CC(Cl)=CN=C2N1C True
  324.9808 999 [C9H10ClN2O5PS+H]+ 324.98094 0(0.43) O=C1OC2=CC(Cl)=CN=C2N1CSP(=O)(OC)OC True
PK$NUM_PEAK: 5
PK$PEAK: m/z int. rel.int.
  111.9948 11.2 19
  139.0057 28.3 49
  182.9953 325.7 559
  324.9808 581.9 999
  325.9837 64.2 110
//
