ACCESSION: MSBNK-MSSJ-MSJ01698
RECORD_TITLE: Haloxazolam; LC-ESI-QQ; MS2; ESI; NEGATIVE; CID; CE 40 V; [M+H]+
DATE: 2023.03.27
AUTHORS: Koji Yamaguchi, Department of Legal Medicine, Nippon Medical School, 1715 Kamagari, Inzai-shi, Chiba 270-1694, Japan.
LICENSE: CC BY
COPYRIGHT: Koji Yamaguchi, Department of Legal Medicine, Nippon Medical School, 1715 Kamagari, Inzai-shi, Chiba 270-1694, Japan.
COMMENT: Original data are in the 20230327-3.xlsx file.
COMMENT: This record was created by the financial support of MEXT/JSPS KAKENHI Grant Number 23HP8017 to the Mass Spectrometry Society of Japan.
CH$NAME: Haloxazolam
CH$COMPOUND_CLASS: Non-natural product
CH$FORMULA: C17H14BrFN2O2
CH$EXACT_MASS: 376.022261
CH$SMILES: C1COC2(N1CC(=O)NC3=C2C=C(C=C3)Br)C4=CC=CC=C4F
CH$IUPAC: InChI=1S/C17H14BrFN2O2/c18-11-5-6-15-13(9-11)17(12-3-1-2-4-14(12)19)21(7-8-23-17)10-16(22)20-15/h1-6,9H,7-8,10H2,(H,20,22)
CH$LINK: CAS 59128-97-1
CH$LINK: CHEMSPIDER 3442
CH$LINK: INCHIKEY XDKCGKQHVBOOHC-UHFFFAOYSA-N
CH$LINK: PUBCHEM CID:3563
AC$INSTRUMENT: LCMS-8040 coupled to Nexera XR (Shimadzu, Kyoto, Japan).
AC$INSTRUMENT_TYPE: LC-ESI-QQ
AC$MASS_SPECTROMETRY: MS_TYPE MS2
AC$MASS_SPECTROMETRY: ION_MODE NEGATIVE
AC$MASS_SPECTROMETRY: COLLISION_ENERGY 40 V
AC$MASS_SPECTROMETRY: FRAGMENTATION_MODE CID
AC$MASS_SPECTROMETRY: IONIZATION ESI
AC$CHROMATOGRAPHY: COLUMN_NAME InertSustain C18 ID 2.1 microm, 2.1 x 100 mm (GL Science, Tokyo, Japan).
AC$CHROMATOGRAPHY: FLOW_GRADIENT 90/10 at 0 min, linear gradient from 90/10 to 2/98 at 0-9 min, 2/98 at 9-12 min, linear gradient from 2/98 to 90/10 at 12-12.1 min, 90/10 at 12.1-15 min.
AC$CHROMATOGRAPHY: FLOW_RATE 200 microl/min
AC$CHROMATOGRAPHY: RETENTION_TIME 9.644 min
AC$CHROMATOGRAPHY: SOLVENT A water with 10 mM ammonium formate
AC$CHROMATOGRAPHY: SOLVENT B methanol
MS$FOCUSED_ION: PRECURSOR_M/Z 375.014984
MS$FOCUSED_ION: PRECURSOR_TYPE [M-H]-
PK$SPLASH: splash10-004i-9011000000-dfe861776ee243df3cc6
PK$NUM_PEAK: 17
PK$PEAK: m/z int. rel.int.
  26.1 868 22
  42.2 868 22
  79.0 39662 999
  89.1 868 22
  95.3 868 22
  101.9 434 11
  127.9 434 11
  179.6 434 11
  195.7 1168 29
  215.2 434 11
  222.0 2830 71
  281.6 868 22
  283.0 1915 48
  297.0 2736 69
  312.1 868 22
  323.7 434 11
  325.0 6434 162
//
