ACCESSION: MSBNK-MSSJ-MSJ02388
RECORD_TITLE: Acarbose; ESI-QQ; MS2; POSITIVE; [M+H]+; CID; CE: 5 eV
DATE: 2022.12.21
AUTHORS: Yoshinao Wada, Osaka Women's and Children's Hospital, Osaka Prefectural Hospital Organization, 840 Murodou, Izumi City, Osaka 594-1101, Japan.
LICENSE: CC BY
COPYRIGHT: Yoshinao Wada, Osaka Women's and Children's Hospital, Osaka Prefectural Hospital Organization, 840 Murodou, Izumi City, Osaka 594-1101, Japan.
COMMENT: QTRAP 4500 is a "QqQ" type instrument. In MassBank, type QqQ is classified into "QQ". Stepsize is 0.10 Da.
COMMENT: This record was created by the financial support of MEXT/JSPS KAKENHI Grant Number 22HP8019 to the Mass Spectrometry Society of Japan.
COMMENT: The sample was injected by direct infusion.
CH$NAME: Acarbose
CH$COMPOUND_CLASS: Non-natural product.
CH$FORMULA: C25H43NO18
CH$EXACT_MASS: 645.248015
CH$SMILES: C[C@@H]1[C@H]([C@@H]([C@H]([C@H](O1)O[C@@H]2[C@H](O[C@@H]([C@@H]([C@H]2O)O)O[C@@H]3[C@H](O[C@H]([C@@H]([C@H]3O)O)O)CO)CO)O)O)N[C@H]4C=C([C@H]([C@@H]([C@H]4O)O)O)CO
CH$IUPAC: InChI=1S/C25H43NO18/c1-6-11(26-8-2-7(3-27)12(30)15(33)13(8)31)14(32)19(37)24(40-6)43-22-10(5-29)42-25(20(38)17(22)35)44-21-9(4-28)41-23(39)18(36)16(21)34/h2,6,8-39H,3-5H2,1H3/t6-,8+,9-,10-,11-,12-,13+,14+,15+,16-,17-,18-,19-,20-,21-,22-,23-,24-,25-/m1/s1
CH$LINK: CHEBI CHEBI:2376
CH$LINK: CHEMSPIDER 392239
CH$LINK: INCHIKEY XUFXOAAUWZOOIT-SXARVLRPSA-N
CH$LINK: PUBCHEM CID:444254
AC$INSTRUMENT: Triple Quad 4500 (AB Sciex Pte. Ltd., USA)
AC$INSTRUMENT_TYPE: LC-ESI-QQ
AC$MASS_SPECTROMETRY: MS_TYPE MS2
AC$MASS_SPECTROMETRY: ION_MODE POSITIVE
AC$MASS_SPECTROMETRY: COLLISION_ENERGY 5 eV
AC$MASS_SPECTROMETRY: FRAGMENTATION_MODE CID
AC$MASS_SPECTROMETRY: IONIZATION ESI
MS$FOCUSED_ION: PRECURSOR_M/Z 646.25529
MS$FOCUSED_ION: PRECURSOR_TYPE [M+H]+
PK$SPLASH: splash10-0002-0000009000-9e361ebf176ddfd99e8e
PK$ANNOTATION: m/z rel.int. formula exact_mass error(ppm) SMILES_of_ion HR_rules
  304.0882 9 [C13H23NO7-H]+ 304.139087 0.051(167.34) OCC1=CC(NC2C(O)C(O)COC2C)C(O)C(O)C1O True
  646.2268 999 [C25H43NO18+H]+ 646.255323 0.029(44.14) OCC1=CC(NC2C(O)C(O)C(OC2C)OC3C(O)C(O)C(OC3CO)OC4C(O)C(O)C(O)OC4CO)C(O)C(O)C1O True
PK$NUM_PEAK: 7
PK$PEAK: m/z int. rel.int.
  304.0882 4.9150 9
  591.8516 6.9867 13
  609.8442 9.3583 18
  610.9421 0.56333 1
  627.8792 6.1717 12
  628.8580 1.2017 2
  646.2268 519.67 999
//
