ACCESSION: MSBNK-MSSJ-MSJ02880
RECORD_TITLE: Epoxiconazole; LC-ESI-QTOF; MS2; [M+H]+; CID; CE 10V
DATE: 2023.10.22
AUTHORS: Atsushi Yamamoto, Faculty of Environmental Studies, Tottori University of Environmental Studies, 1-1, Wakabadai-kita, Tottori City, Tottori 689-1111, Japan.
LICENSE: CC BY
COPYRIGHT: Atsushi Yamamoto, Faculty of Environmental Studies, Tottori University of Environmental Studies, 1-1, Wakabadai-kita, Tottori City, Tottori 689-1111, Japan.
COMMENT: This record was created by the financial support of MEXT/JSPS KAKENHI Grant Number 23HP8017 to the Mass Spectrometry Society of Japan.
CH$NAME: Epoxiconazole
CH$COMPOUND_CLASS: Non-natural product
CH$FORMULA: C17H13ClFN3O
CH$EXACT_MASS: 329.073118
CH$SMILES: C1=CC=C(C(=C1)[C@@H]2[C@@](O2)(CN3C=NC=N3)C4=CC=C(C=C4)F)Cl
CH$IUPAC: InChI=1S/C17H13ClFN3O/c18-15-4-2-1-3-14(15)16-17(23-16,9-22-11-20-10-21-22)12-5-7-13(19)8-6-12/h1-8,10-11,16H,9H2/t16-,17-/m1/s1
CH$LINK: CAS 133855-98-8
CH$LINK: CHEMSPIDER 97030
CH$LINK: INCHIKEY ZMYFCFLJBGAQRS-IAGOWNOFSA-N
CH$LINK: PUBCHEM CID:107901
AC$INSTRUMENT: X500R QTOF (AB Sciex LLC, MA, USA) coupled to ExionLC AD (AB Sciex LLC, MA, USA).
AC$INSTRUMENT_TYPE: LC-ESI-QTOF
AC$MASS_SPECTROMETRY: MS_TYPE MS2
AC$MASS_SPECTROMETRY: ION_MODE POSITIVE
AC$MASS_SPECTROMETRY: COLLISION_ENERGY 10 V
AC$MASS_SPECTROMETRY: COLLISION_GAS N2
AC$MASS_SPECTROMETRY: FRAGMENTATION_MODE CID
AC$MASS_SPECTROMETRY: IONIZATION ESI
AC$CHROMATOGRAPHY: COLUMN_NAME TSKgel ODS-100S 5 um, 2.1 mm × 250 mm, TOSOH
AC$CHROMATOGRAPHY: FLOW_GRADIENT 95/5 at 0 min, 95/5 at 3 min, 0/100 at 13 min, 0/100 at 23 min, 95/5 at 23.1 min, 95/5 at 28 min
AC$CHROMATOGRAPHY: FLOW_RATE 200 ul/min
AC$CHROMATOGRAPHY: RETENTION_TIME 15.0 min
AC$CHROMATOGRAPHY: SOLVENT A water with 20 mM formic acid aquatic solution
AC$CHROMATOGRAPHY: SOLVENT B methanol with 20 mM Formic acid methanolic solution
MS$FOCUSED_ION: PRECURSOR_M/Z 330.080395
MS$FOCUSED_ION: PRECURSOR_TYPE [M+H]+
PK$SPLASH: splash10-001i-0309000000-f58466afe553fabb4b20
PK$ANNOTATION: m/z rel.int. formula exact_mass error(ppm) SMILES_of_ion HR_rules
  121.045 246 [C8H9F-3H]+ 121.044809 0(1.58) FC1=CC=C(C=C1)CC True
  123.0243 117 [C7H7FO-3H]+ 123.024072 0(1.85) FC1=CC=C(C=C1)CO True
  141.0104 51 [C7H7ClO-H]+ 141.010166 0(1.66) ClC=1C=CC=CC1CO True
  330.0834 999 [C17H13ClFN3O+H]+ 330.080397 0.003(9.1) FC1=CC=C(C=C1)C2(OC2C=3C=CC=CC3Cl)CN4N=CN=C4 True
PK$NUM_PEAK: 4
PK$PEAK: m/z int. rel.int.
  121.045 131.3 246
  123.0243 62.2 117
  141.0104 27.2 51
  330.0834 532.4 999
//
