ACCESSION: MSBNK-MSSJ-MSJ04059
RECORD_TITLE: 6-(4-{[2-(decanoylamino)ethyl]amino}-4-oxobutanamido)-N,N-dimethylhexan-1-amine N-oxide; ESI-QTOF; MS2; ESI; [M-H]-; CE 20 V
DATE: 2023.02.09
AUTHORS: Atsushi Yamamoto, Faculty of Environmental Studies, Tottori University of Environmental Studies, 1-1, Wakabadai-kita, Tottori City, Tottori 689-1111, Japan.
LICENSE: CC BY
COPYRIGHT: Atsushi Yamamoto, Faculty of Environmental Studies, Tottori University of Environmental Studies, 1-1, Wakabadai-kita, Tottori City, Tottori 689-1111, Japan.
PUBLICATION: Atsushi Yamamoto, Naoji Tokai, Rie Kakehashi, Daisuke Saigusa, Mass Spectrometry, vol. 13, in press (2024).
COMMENT: This record was created by the financial supports of the Shin-MassBank project and the Mass Spectrometry Society of Japan.
COMMENT: Capillary Voltages were 5,500 V for the positive ion mode analyses and 4,500 V for the negative ion mode analyses.
CH$NAME: 6-(4-{[2-(decanoylamino)ethyl]amino}-4-oxobutanamido)-N,N-dimethylhexan-1-amine N-oxide
CH$NAME: AAO 9-2-2-6
CH$COMPOUND_CLASS: Non-natural product
CH$FORMULA: C24H48N4O4
CH$EXACT_MASS: 456.367540
CH$SMILES: O=C(NCCNC(=O)CCCCCCCCC)CCC(=O)NCCCCCC[N+]([O-])(C)C
CH$IUPAC: InChI=1S/C24H48N4O4/c1-4-5-6-7-8-9-12-15-22(29)26-19-20-27-24(31)17-16-23(30)25-18-13-10-11-14-21-28(2,3)32/h4-21H2,1-3H3,(H,25,30)(H,26,29)(H,27,31)
CH$LINK: INCHIKEY JCPCPGACRLHKHX-UHFFFAOYSA-N
AC$INSTRUMENT: X500R QTOF (AB Sciex LLC, MA, USA)
AC$INSTRUMENT_TYPE: ESI-QTOF
AC$MASS_SPECTROMETRY: MS_TYPE MS2
AC$MASS_SPECTROMETRY: ION_MODE NEGATIVE
AC$MASS_SPECTROMETRY: COLLISION_ENERGY 20 V
AC$MASS_SPECTROMETRY: COLLISION_GAS N2
AC$MASS_SPECTROMETRY: FRAGMENTATION_MODE CID
AC$MASS_SPECTROMETRY: IONIZATION ESI
MS$FOCUSED_ION: PRECURSOR_M/Z 455.360263 
MS$FOCUSED_ION: PRECURSOR_TYPE [M-H]-
PK$SPLASH: splash10-0006-0009100000-736e6d524348df87dd4e
PK$ANNOTATION: m/z rel.int formula calculated_m/z Mass_Diff(ppm) SMILES Rule_of_HR
  213.19693 16 [C12H26N2O-H]- 213.197237 0(1.58ppm) O=C(NCCN)CCCCCCCCC True
  295.20243 27 [C16H30N2O3-3H]- 295.20272 0(1.09ppm) O=CCCC(=O)NCCNC(=O)CCCCCCCCC True
  394.30697 999 [C22H43N3O3-3H]- 394.307518 0.001(1.31ppm) O=C(NCCNC(=O)CCCCCCCCC)CCC(=O)NCCCCCC True
  455.35959 142 [C24H48N4O4-H]- 455.360277 0.001(1.49ppm) O=C(NCCNC(=O)CCCCCCCCC)CCC(=O)NCCCCCC[N+]([O-])(C)C True
PK$NUM_PEAK: 7
PK$PEAK: m/z int. rel.int.
  98.02458 0.209 3
  180.10271 0.294 4
  213.19693 1.298 16
  295.20243 2.169 27
  394.30697 81.213 999
  440.33610 1.496 18
  455.35959 11.523 142
//
