ACCESSION: MSBNK-MSSJ-MSJ02808
RECORD_TITLE: Imidacloprid; LC-ESI-QTOF; MS2; [M+H]+; CID; CE 10V
DATE: 2023.10.22
AUTHORS: Atsushi Yamamoto, Faculty of Environmental Studies, Tottori University of Environmental Studies, 1-1, Wakabadai-kita, Tottori City, Tottori 689-1111, Japan.
LICENSE: CC BY
COPYRIGHT: Atsushi Yamamoto, Faculty of Environmental Studies, Tottori University of Environmental Studies, 1-1, Wakabadai-kita, Tottori City, Tottori 689-1111, Japan.
COMMENT: This record was created by the financial support of MEXT/JSPS KAKENHI Grant Number 23HP8017 to the Mass Spectrometry Society of Japan.
CH$NAME: Imidacloprid
CH$COMPOUND_CLASS: Non-natural product
CH$FORMULA: C9H10ClN5O2
CH$EXACT_MASS: 255.052302
CH$SMILES: C1CN(C(=N[N+](=O)[O-])N1)CC2=CN=C(C=C2)Cl
CH$IUPAC: InChI=1S/C9H10ClN5O2/c10-8-2-1-7(5-12-8)6-14-4-3-11-9(14)13-15(16)17/h1-2,5H,3-4,6H2,(H,11,13)
CH$LINK: CAS 138261-41-3
CH$LINK: CHEMSPIDER 77934
CH$LINK: INCHIKEY YWTYJOPNNQFBPC-UHFFFAOYSA-N
CH$LINK: PUBCHEM CID:86287518
AC$INSTRUMENT: X500R QTOF (AB Sciex LLC, MA, USA) coupled to ExionLC AD (AB Sciex LLC, MA, USA).
AC$INSTRUMENT_TYPE: LC-ESI-QTOF
AC$MASS_SPECTROMETRY: MS_TYPE MS2
AC$MASS_SPECTROMETRY: ION_MODE POSITIVE
AC$MASS_SPECTROMETRY: COLLISION_ENERGY 10 V
AC$MASS_SPECTROMETRY: COLLISION_GAS N2
AC$MASS_SPECTROMETRY: FRAGMENTATION_MODE CID
AC$MASS_SPECTROMETRY: IONIZATION ESI
AC$CHROMATOGRAPHY: COLUMN_NAME TSKgel ODS-100S 5 um, 2.1 mm × 250 mm, TOSOH
AC$CHROMATOGRAPHY: FLOW_GRADIENT 95/5 at 0 min, 95/5 at 3 min, 0/100 at 13 min, 0/100 at 23 min, 95/5 at 23.1 min, 95/5 at 28 min
AC$CHROMATOGRAPHY: FLOW_RATE 200 ul/min
AC$CHROMATOGRAPHY: RETENTION_TIME 11.1 min
AC$CHROMATOGRAPHY: SOLVENT A water with 20 mM formic acid aquatic solution
AC$CHROMATOGRAPHY: SOLVENT B methanol with 20 mM Formic acid methanolic solution
MS$FOCUSED_ION: PRECURSOR_M/Z 256.059579
MS$FOCUSED_ION: PRECURSOR_TYPE [M+H]+
PK$SPLASH: splash10-0a4i-0190000000-f1e99ca4c55cc98f2bd5
PK$ANNOTATION: m/z rel.int. formula exact_mass error(ppm) SMILES_of_ion HR_rules
  84.0556 23 [C3H7N3-H]+ 84.055622 0(0.26) N=C1NCCN1 True
  175.0978 173 [C9H12N4-H]+ 175.097828 0(0.16) N=C1NCCN1CC=2C=NC=CC2 True
  209.0587 282 [C9H11ClN4-H]+ 209.058857 0(0.75) ClC1=NC=C(C=C1)CN2C(=N)NCC2 True
  256.0591 999 [C9H10ClN5O2+H]+ 256.059584 0(1.89) O=[N+]([O-])N=C1NCCN1CC2=CN=C(Cl)C=C2 True
PK$NUM_PEAK: 7
PK$PEAK: m/z int. rel.int.
  84.0556 10.8 23
  174.0899 13.4 28
  175.0978 81.2 173
  209.0587 132.6 282
  210.0666 130.8 278
  212.0585 79.9 170
  256.0591 470.3 999
//
