ACCESSION: MSBNK-MSSJ-MSJ02518
RECORD_TITLE: Foramsulfuron; LC-ESI-QTOF; MS2; [M+H]+; CID; CE 50V
DATE: 2023.04.05
AUTHORS: Atsushi Yamamoto, Faculty of Environmental Studies, Tottori University of Environmental Studies, 1-1, Wakabadai-kita, Tottori City, Tottori 689-1111, Japan.
LICENSE: CC BY
COPYRIGHT: Atsushi Yamamoto, Faculty of Environmental Studies, Tottori University of Environmental Studies, 1-1, Wakabadai-kita, Tottori City, Tottori 689-1111, Japan.
COMMENT: This record was created by the financial support of MEXT/JSPS KAKENHI Grant Number 23HP8017 to the Mass Spectrometry Society of Japan.
CH$NAME: Foramsulfuron
CH$COMPOUND_CLASS: Non-natural product
CH$FORMULA: C17H20N6O7S
CH$EXACT_MASS: 452.111418
CH$SMILES: CN(C)C(=O)C1=C(C=C(C=C1)NC=O)S(=O)(=O)NC(=O)NC2=NC(=CC(=N2)OC)OC
CH$IUPAC: InChI=1S/C17H20N6O7S/c1-23(2)15(25)11-6-5-10(18-9-24)7-12(11)31(27,28)22-17(26)21-16-19-13(29-3)8-14(20-16)30-4/h5-9H,1-4H3,(H,18,24)(H2,19,20,21,22,26)
CH$LINK: CAS 173159-57-4
CH$LINK: CHEMSPIDER 9594484
CH$LINK: INCHIKEY PXDNXJSDGQBLKS-UHFFFAOYSA-N
CH$LINK: PUBCHEM CID:11419598
AC$INSTRUMENT: X500R QTOF (AB Sciex LLC, MA, USA) coupled to ExionLC AD (AB Sciex LLC, MA, USA).
AC$INSTRUMENT_TYPE: LC-ESI-QTOF
AC$MASS_SPECTROMETRY: MS_TYPE MS2
AC$MASS_SPECTROMETRY: ION_MODE POSITIVE
AC$MASS_SPECTROMETRY: COLLISION_ENERGY 50 V
AC$MASS_SPECTROMETRY: COLLISION_GAS N2
AC$MASS_SPECTROMETRY: FRAGMENTATION_MODE CID
AC$MASS_SPECTROMETRY: IONIZATION ESI
AC$CHROMATOGRAPHY: COLUMN_NAME AQ-C18HP 3 microm, 2.1 mm × 150 mm (GL Science, Tokyo, Japan).
AC$CHROMATOGRAPHY: FLOW_GRADIENT 90/10 at 0 min, 90/10 at 8 min, 0/100 at 23 min, 0/100 at 30 min, 90/10 at 30.1 min, 90/10 at 40 min
AC$CHROMATOGRAPHY: FLOW_RATE 200 microL/min
AC$CHROMATOGRAPHY: RETENTION_TIME 27.5 min
AC$CHROMATOGRAPHY: SOLVENT A water with 2 mM Ammonium bicarbonate
AC$CHROMATOGRAPHY: SOLVENT B methanol with 2 mM Ammmonium bicarbonate
MS$FOCUSED_ION: PRECURSOR_M/Z 453.118695
MS$FOCUSED_ION: PRECURSOR_TYPE [M+H]+
PK$SPLASH: splash10-001i-1910000000-cc6e19723d0756b34cf2
PK$ANNOTATION: m/z rel.int. formula exact_mass error(ppm) SMILES_of_ion HR_rules
  83.024 262 [C3H6N2O-3H]+ 83.023988 0(0.14) N=CN=COC True
  100.0394 23 [C4H7NO2-H]+ 100.039302 0(0.97) N=C(O)C=COC True
  139.0502 341 [C6H8N2O2-H]+ 139.050205 0(0.04) N=1C=NC(OC)=CC1OC True
  148.0393 41 [C8H7NO2-H]+ 148.03931 0(0.07) O=CNC1=CC=C(C=O)C=C1 True
  156.0768 89 [C6H9N3O2+H]+ 156.07675 0(0.32) N=1C(=NC(OC)=CC1OC)N True
  157.0608 134 [C6H10N2O3-H]+ 157.060764 0(0.23) O=CNCN=C(O)C=COC True
  182.0561 999 [C7H9N3O3-H]+ 182.056018 0(0.45) O=CNC=1N=C(OC)C=C(N1)OC True
  212.001 115 [C8H7NO4S-H]+ 212.001209 0(0.99) O=CNC1=CC=C(C=O)C(=C1)S(=O)=O True
  227.0124 71 [C8H8N2O4S-H]+ 227.012104 0(1.31) O=CNC1=CC=C(C(=O)N)C(=C1)S(=O)=O True
  255.0438 122 [C10H12N2O4S-H]+ 255.043415 0(1.51) O=CNC1=CC=C(C(=O)N(C)C)C(=C1)S(=O)=O True
PK$NUM_PEAK: 10
PK$PEAK: m/z int. rel.int.
  83.024 13.8 262
  100.0394 1.2 23
  139.0502 17.9 341
  148.0393 2.2 41
  156.0768 4.7 89
  157.0608 7.1 134
  182.0561 52.6 999
  212.001 6.1 115
  227.0124 3.8 71
  255.0438 6.4 122
//
