ACCESSION: MSBNK-MSSJ-MSJ02745
RECORD_TITLE: Methomyl; LC-ESI-QTOF; MS2; [M+H]+; CID; CE 60V
DATE: 2023.10.22
AUTHORS: Atsushi Yamamoto, Faculty of Environmental Studies, Tottori University of Environmental Studies, 1-1, Wakabadai-kita, Tottori City, Tottori 689-1111, Japan.
LICENSE: CC BY
COPYRIGHT: Atsushi Yamamoto, Faculty of Environmental Studies, Tottori University of Environmental Studies, 1-1, Wakabadai-kita, Tottori City, Tottori 689-1111, Japan.
COMMENT: This record was created by the financial support of MEXT/JSPS KAKENHI Grant Number 23HP8017 to the Mass Spectrometry Society of Japan.
CH$NAME: Methomyl
CH$COMPOUND_CLASS: Non-natural product
CH$FORMULA: C5H10N2O2S
CH$EXACT_MASS: 162.046299
CH$SMILES: CC(=NOC(=O)NC)SC
CH$IUPAC: InChI=1S/C5H10N2O2S/c1-4(10-3)7-9-5(8)6-2/h1-3H3,(H,6,8)
CH$LINK: CAS 16752-77-5
CH$LINK: CHEMSPIDER 3966
CH$LINK: INCHIKEY UHXUZOCRWCRNSJ-UHFFFAOYSA-N
CH$LINK: PUBCHEM CID:4109
AC$INSTRUMENT: X500R QTOF (AB Sciex LLC, MA, USA) coupled to ExionLC AD (AB Sciex LLC, MA, USA).
AC$INSTRUMENT_TYPE: LC-ESI-QTOF
AC$MASS_SPECTROMETRY: MS_TYPE MS2
AC$MASS_SPECTROMETRY: ION_MODE POSITIVE
AC$MASS_SPECTROMETRY: COLLISION_ENERGY 60 V
AC$MASS_SPECTROMETRY: COLLISION_GAS N2
AC$MASS_SPECTROMETRY: FRAGMENTATION_MODE CID
AC$MASS_SPECTROMETRY: IONIZATION ESI
AC$CHROMATOGRAPHY: COLUMN_NAME TSKgel ODS-100S 5 um, 2.1 mm × 250 mm, TOSOH
AC$CHROMATOGRAPHY: FLOW_GRADIENT 95/5 at 0 min, 95/5 at 3 min, 0/100 at 13 min, 0/100 at 23 min, 95/5 at 23.1 min, 95/5 at 28 min
AC$CHROMATOGRAPHY: FLOW_RATE 200 ul/min
AC$CHROMATOGRAPHY: RETENTION_TIME 10.1 min
AC$CHROMATOGRAPHY: SOLVENT A water with 20 mM formic acid aquatic solution
AC$CHROMATOGRAPHY: SOLVENT B methanol with 20 mM Formic acid methanolic solution
MS$FOCUSED_ION: PRECURSOR_M/Z 163.053576
MS$FOCUSED_ION: PRECURSOR_TYPE [M+H]+
PK$SPLASH: splash10-006x-9000000000-24c9bc196c7143cf5cd7
PK$ANNOTATION: m/z rel.int. formula exact_mass error(ppm) SMILES_of_ion HR_rules
  31.0178 63 [CH2O+H]+ 31.017841 0(1.33) O=C True
  42.0337 307 [C2H5N-H]+ 42.033825 0(2.96) N=CC True
  44.9793 999 [CH4S-3H]+ 44.979349 0(1.08) SC True
  46.9947 271 [CH4S-H]+ 46.994999 0(6.35) SC True
  58.0285 197 [C2H5NO-H]+ 58.02874 0(4.13) O=CNC True
  58.9948 115 [C2H6S-3H]+ 58.994996 0(3.33) SCC True
  71.9902 666 [C2H5NS-3H]+ 71.990243 0(0.6) N=C(S)C True
PK$NUM_PEAK: 10
PK$PEAK: m/z int. rel.int.
  31.0178 0.6 63
  42.0337 3.1 307
  44.9793 10.0 999
  45.9871 0.5 46
  46.9947 2.7 271
  56.0493 0.6 62
  58.0285 2.0 197
  58.9948 1.1 115
  71.9902 6.6 666
  72.998 6.2 617
//
