ACCESSION: MSBNK-MSSJ-MSJ00486
RECORD_TITLE: Tyramine; LC-ESI-QQ; MS2; POSITIVE; [M+H]+; CID; 30 V
DATE: 2021.01.24
AUTHORS: Daiki Asakawa, National Institute of Advanced Industrial Science and Technology, 1-1-1 Umezono, Tsukuba, Ibaraki 305-8568, Japan.
LICENSE: CC BY
COPYRIGHT: Daiki Asakawa, National Institute of Advanced Industrial Science and Technology, 1-1-1 Umezono, Tsukuba, Ibaraki 305-8568, Japan.
PUBLICATION: Daiki Asakawa, Hajime Mizuno, Eiji Sugiyama, and Kenichiro Todoroki, Anal. Chem., 92 (17), 12033-12039 (2020). [DOI: 10.1021/acs.analchem.0c02667]
COMMENT: This record was created by the financial support of MEXT/JSPS KAKENHI Grant Number 20HP8016 to the Mass Spectrometry Society of Japan.
CH$NAME: Tyramine
CH$COMPOUND_CLASS: Non-natural product; Tyramine
CH$FORMULA: C8H11NO
CH$EXACT_MASS: 137.08406
CH$SMILES: C1=CC(=CC=C1CCN)O
CH$IUPAC: InChI=1S/C8H11NO/c9-6-5-7-1-3-8(10)4-2-7/h1-4,10H,5-6,9H2
CH$LINK: CAS 51-67-2
CH$LINK: CHEBI CHEBI:15760
CH$LINK: CHEMSPIDER 5408
CH$LINK: INCHIKEY DZGWFCGJZKJUFP-UHFFFAOYSA-N
CH$LINK: PUBCHEM CID:5610
AC$INSTRUMENT: Xevo TQS micro (Waters, MA, USA) coupled to ACQUITY UPLC H-Class (Waters, MA, USA)
AC$INSTRUMENT_TYPE: LC-ESI-QQ
AC$MASS_SPECTROMETRY: MS_TYPE MS2
AC$MASS_SPECTROMETRY: ION_MODE POSITIVE
AC$MASS_SPECTROMETRY: COLLISION_ENERGY 30 V
AC$MASS_SPECTROMETRY: FRAGMENTATION_MODE CID
AC$MASS_SPECTROMETRY: IONIZATION ESI
AC$CHROMATOGRAPHY: COLUMN_NAME Acquity UPLC BEH AMIDE column (1.7 µm, 2.1 x 150 mm; Waters, MA, USA)
AC$CHROMATOGRAPHY: FLOW_GRADIENT 0-2 min, 100% MPB; 2-2.5 min, 90-70% MPB; 2.5-3 min, 70% MPB; 3-5 min, 100% MPB
AC$CHROMATOGRAPHY: FLOW_RATE 0.4 mL/min
AC$CHROMATOGRAPHY: SOLVENT A consisted of 95:5 water:acetonitrile containing either 100 mM ammonium formate buffered to pH 3.0
AC$CHROMATOGRAPHY: SOLVENT MPB consisted of 15:85 water:acetonitrile containing 100 mM ammonium formate buffered to pH 3.0
AC$CHROMATOGRAPHY: COLUMN_TEMPERATURE 40 C
MS$FOCUSED_ION: PRECURSOR_M/Z 138.091337
MS$FOCUSED_ION: PRECURSOR_TYPE [M+H]+
PK$SPLASH: splash10-004i-9000000000-e3169cadbdc6aa41f839
PK$NUM_PEAK: 34
PK$PEAK: m/z int. rel.int.
  38.7 10.72 14
  39.1 10.17 13
  40.6 5.996 8
  40.9 7.83 10
  41.3 4.552 6
  50.9 61.47 79
  51.2 19.53 25
  51.3 10.51 13
  53.0 5.007 6
  55.0 4.496 6
  64.5 7.614 10
  64.8 12.12 16
  65.0 34.33 44
  65.3 12.9 17
  77.0 778.1 999
  77.9 10.08 13
  78.1 4.485 6
  90.8 75.48 97
  91.1 29.19 37
  91.3 54.67 70
  92.9 8.136 10
  93.2 11.01 14
  93.7 10.26 13
  93.9 5.178 7
  94.2 13.68 18
  102.0 3.833 5
  102.3 4.707 6
  102.6 12.26 16
  102.8 29.25 38
  103.1 34.41 44
  103.2 18.32 24
  103.4 8.135 10
  120.9 6.95 9
  121.3 6.206 8
//
