ACCESSION: MSBNK-MSSJ-MSJ04153
RECORD_TITLE: 6-(4-{[3-(tetradecanoylamino)propyl]amino}-4-oxobutanamido)-N,N-dimethylhexan-1-amine N-oxide; ESI-QTOF; MS2; ESI; [M-H]-; CE 30 V
DATE: 2023.02.09
AUTHORS: Atsushi Yamamoto, Faculty of Environmental Studies, Tottori University of Environmental Studies, 1-1, Wakabadai-kita, Tottori City, Tottori 689-1111, Japan.
LICENSE: CC BY
COPYRIGHT: Atsushi Yamamoto, Faculty of Environmental Studies, Tottori University of Environmental Studies, 1-1, Wakabadai-kita, Tottori City, Tottori 689-1111, Japan.
PUBLICATION: Atsushi Yamamoto, Naoji Tokai, Rie Kakehashi, Daisuke Saigusa, Mass Spectrometry, vol. 13, in press (2024).
COMMENT: This record was created by the financial supports of the Shin-MassBank project and the Mass Spectrometry Society of Japan.
COMMENT: Capillary Voltages were 5,500 V for the positive ion mode analyses and 4,500 V for the negative ion mode analyses.
CH$NAME: 6-(4-{[3-(tetradecanoylamino)propyl]amino}-4-oxobutanamido)-N,N-dimethylhexan-1-amine N-oxide
CH$NAME: AAO 13-3-2-6
CH$COMPOUND_CLASS: Non-natural product
CH$FORMULA: C29H58N4O4
CH$EXACT_MASS: 526.445790
CH$SMILES: O=C(NCCCNC(=O)CCCCCCCCCCCCC)CCC(=O)NCCCCCC[N+]([O-])(C)C
CH$IUPAC: InChI=1S/C29H58N4O4/c1-4-5-6-7-8-9-10-11-12-13-16-20-27(34)31-24-19-25-32-29(36)22-21-28(35)30-23-17-14-15-18-26-33(2,3)37/h4-26H2,1-3H3,(H,30,35)(H,31,34)(H,32,36)
CH$LINK: INCHIKEY OMYAINPKEMZLND-UHFFFAOYSA-N
AC$INSTRUMENT: X500R QTOF (AB Sciex LLC, MA, USA)
AC$INSTRUMENT_TYPE: ESI-QTOF
AC$MASS_SPECTROMETRY: MS_TYPE MS2
AC$MASS_SPECTROMETRY: ION_MODE NEGATIVE
AC$MASS_SPECTROMETRY: COLLISION_ENERGY 30 V
AC$MASS_SPECTROMETRY: COLLISION_GAS N2
AC$MASS_SPECTROMETRY: FRAGMENTATION_MODE CID
AC$MASS_SPECTROMETRY: IONIZATION ESI
MS$FOCUSED_ION: PRECURSOR_M/Z 525.438513
MS$FOCUSED_ION: PRECURSOR_TYPE [M-H]-
PK$SPLASH: splash10-03di-0020900000-6490cf8e0c58179b87a6
PK$ANNOTATION: m/z rel.int formula calculated_m/z Mass_Diff(ppm) SMILES Rule_of_HR
  180.10304 26 [C10H19NO2-5H]- 180.10301 0(0.05ppm) O=CCCC(=O)NCCCCCC True
  254.18746 18 [C13H27N3O2-3H]- 254.187401 0(0.39ppm) O=C(NCCCN)CCC(=O)NCCCCCC True
  283.27547 300 [C17H36N2O-H]- 283.275499 0(0ppm) O=C(NCCCN)CCCCCCCCCCCCC True
  365.28104 65 [C21H40N2O3-3H]- 365.280968 0(0.09ppm) O=CCCC(=O)NCCCNC(=O)CCCCCCCCCCCCC True
  464.38569 999 [C27H53N3O3-3H]- 464.385765 0(0.14ppm) O=C(NCCCNC(=O)CCCCCCCCCCCCC)CCC(=O)NCCCCCC True
  493.41217 22 [C28H58N4O3-5H]- 493.412321 0(0.24ppm) O=C(NCCCCCC[NH+]([O-])C)CCCNCCCNC(=O)CCCCCCCCCCCCC True
PK$NUM_PEAK: 9
PK$PEAK: m/z int. rel.int.
  98.02466 0.03061 6
  180.10304 0.14672 26
  254.18746 0.10238 18
  283.27547 1.66167 300
  365.28104 0.35892 65
  446.37493 0.04511 8
  464.38569 5.53449 999
  493.41217 0.12065 22
  510.41500 0.13347 24
//
