ACCESSION: MSBNK-MSSJ-MSJ00490
RECORD_TITLE: Tyramine; LC-ESI-QQ; MS2; POSITIVE; [M+H-NH3]+; CID; 30 V
DATE: 2021.02.19
AUTHORS: Daiki Asakawa, National Institute of Advanced Industrial Science and Technology, 1-1-1 Umezono, Tsukuba, Ibaraki 305-8568, Japan.
LICENSE: CC BY
COPYRIGHT: Daiki Asakawa, National Institute of Advanced Industrial Science and Technology, 1-1-1 Umezono, Tsukuba, Ibaraki 305-8568, Japan.
PUBLICATION: Daiki Asakawa, Hajime Mizuno, Eiji Sugiyama, and Kenichiro Todoroki, Anal. Chem., 92 (17), 12033-12039 (2020). [DOI: 10.1021/acs.analchem.0c02667]
COMMENT: This record was created by the financial support of MEXT/JSPS KAKENHI Grant Number 20HP8016 to the Mass Spectrometry Society of Japan.
CH$NAME: Tyramine
CH$COMPOUND_CLASS: Non-natural product; Tyramine
CH$FORMULA: C8H11NO
CH$EXACT_MASS: 137.08406
CH$SMILES: C1=CC(=CC=C1CCN)O
CH$IUPAC: InChI=1S/C8H11NO/c9-6-5-7-1-3-8(10)4-2-7/h1-4,10H,5-6,9H2
CH$LINK: CAS 51-67-2
CH$LINK: CHEBI CHEBI:15760
CH$LINK: CHEMSPIDER 5408
CH$LINK: INCHIKEY DZGWFCGJZKJUFP-UHFFFAOYSA-N
CH$LINK: PUBCHEM CID:5610
AC$INSTRUMENT: Xevo TQS micro (Waters, MA, USA) coupled to ACQUITY UPLC H-Class (Waters, MA, USA)
AC$INSTRUMENT_TYPE: LC-ESI-QQ
AC$MASS_SPECTROMETRY: MS_TYPE MS2
AC$MASS_SPECTROMETRY: ION_MODE POSITIVE
AC$MASS_SPECTROMETRY: COLLISION_ENERGY 30 V
AC$MASS_SPECTROMETRY: FRAGMENTATION_MODE CID
AC$MASS_SPECTROMETRY: IONIZATION ESI
AC$CHROMATOGRAPHY: COLUMN_NAME Acquity UPLC BEH AMIDE column (1.7 µm, 2.1 x 150 mm; Waters, MA, USA)
AC$CHROMATOGRAPHY: FLOW_GRADIENT 0-2 min, 100% MPB; 2-2.5 min, 90-70% MPB; 2.5-3 min, 70% MPB; 3-5 min, 100% MPB
AC$CHROMATOGRAPHY: FLOW_RATE 0.4 mL/min
AC$CHROMATOGRAPHY: SOLVENT A consisted of 95:5 water:acetonitrile containing either 100 mM ammonium formate buffered to pH 3.0
AC$CHROMATOGRAPHY: SOLVENT MPB consisted of 15:85 water:acetonitrile containing 100 mM ammonium formate buffered to pH 3.0
AC$CHROMATOGRAPHY: COLUMN_TEMPERATURE 40 C
MS$FOCUSED_ION: PRECURSOR_M/Z 121.06479
MS$FOCUSED_ION: PRECURSOR_TYPE [M+H-NH3]+
PK$SPLASH: splash10-004i-9000000000-3d612619f2651e850625
PK$NUM_PEAK: 32
PK$PEAK: m/z int. rel.int.
  38.8 306 125
  39.2 114 47
  40.8 101 41
  41.2 45 19
  50.9 560 229
  51.1 388 159
  52.9 81 33
  54.9 32 13
  55.2 14 6
  64.7 130 53
  65.0 323 132
  65.8 40 16
  66.1 29 12
  66.3 21 8
  75.2 17 7
  77.0 2440 999
  77.9 19 8
  78.1 21 9
  78.4 17 7
  90.9 207 85
  91.2 134 55
  92.9 26 11
  93.2 15 6
  93.7 45 18
  93.9 40 16
  94.1 83 34
  101.9 23 9
  102.4 14 6
  102.7 30 12
  102.9 56 23
  103.2 32 13
  103.4 23 9
//
