ACCESSION: MSBNK-MSSJ-MSJ02989
RECORD_TITLE: Novaluron; LC-ESI-QTOF; MS2; [M-H]-; CID; CE 50V
DATE: 2023.10.22
AUTHORS: Atsushi Yamamoto, Faculty of Environmental Studies, Tottori University of Environmental Studies, 1-1, Wakabadai-kita, Tottori City, Tottori 689-1111, Japan.
LICENSE: CC BY
COPYRIGHT: Atsushi Yamamoto, Faculty of Environmental Studies, Tottori University of Environmental Studies, 1-1, Wakabadai-kita, Tottori City, Tottori 689-1111, Japan.
COMMENT: This record was created by the financial support of MEXT/JSPS KAKENHI Grant Number 23HP8017 to the Mass Spectrometry Society of Japan.
CH$NAME: Novaluron
CH$COMPOUND_CLASS: Non-natural product
CH$FORMULA: C17H9ClF8N2O4
CH$EXACT_MASS: 492.01231
CH$SMILES: C1=CC(=C(C(=C1)F)C(=O)NC(=O)NC2=CC(=C(C=C2)OC(C(OC(F)(F)F)F)(F)F)Cl)F
CH$IUPAC: InChI=1S/C17H9ClF8N2O4/c18-8-6-7(4-5-11(8)31-16(22,23)14(21)32-17(24,25)26)27-15(30)28-13(29)12-9(19)2-1-3-10(12)20/h1-6,14H,(H2,27,28,29,30)
CH$LINK: CAS 116714-46-6
CH$LINK: CHEMSPIDER 84442
CH$LINK: INCHIKEY NJPPVKZQTLUDBO-UHFFFAOYSA-N
CH$LINK: PUBCHEM CID:93541
AC$INSTRUMENT: X500R QTOF (AB Sciex LLC, MA, USA) coupled to ExionLC AD (AB Sciex LLC, MA, USA).
AC$INSTRUMENT_TYPE: LC-ESI-QTOF
AC$MASS_SPECTROMETRY: MS_TYPE MS2
AC$MASS_SPECTROMETRY: ION_MODE NEGATIVE
AC$MASS_SPECTROMETRY: COLLISION_ENERGY 50 V
AC$MASS_SPECTROMETRY: COLLISION_GAS N2
AC$MASS_SPECTROMETRY: FRAGMENTATION_MODE CID
AC$MASS_SPECTROMETRY: IONIZATION ESI
AC$CHROMATOGRAPHY: COLUMN_NAME TSKgel ODS-100S 5 um, 2.1 mm × 250 mm, TOSOH
AC$CHROMATOGRAPHY: FLOW_GRADIENT 95/5 at 0 min, 95/5 at 3 min, 0/100 at 13 min, 0/100 at 23 min, 95/5 at 23.1 min, 95/5 at 28 min
AC$CHROMATOGRAPHY: FLOW_RATE 200 ul/min
AC$CHROMATOGRAPHY: RETENTION_TIME 15.6 min
AC$CHROMATOGRAPHY: SOLVENT A water with 20 mM formic acid aquatic solution
AC$CHROMATOGRAPHY: SOLVENT B methanol with 20 mM Formic acid methanolic solution
MS$FOCUSED_ION: PRECURSOR_M/Z 491.005033
MS$FOCUSED_ION: PRECURSOR_TYPE [M-H]-
PK$SPLASH: splash10-000x-9301000000-2b5527b47bf1ce5614c2
PK$ANNOTATION: m/z rel.int. formula exact_mass error(ppm) SMILES_of_ion HR_rules
  41.9985 953 [CH3NO-3H]- 41.998539 0(0.92) O=CN True
  84.9906 999 [CHF3O-H]- 84.990671 0(0.84) FC(F)(F)O True
  93.0144 92 [C6H5F-3H]- 93.014602 0(2.18) FC=1C=CC=CC1 True
  113.0207 250 [C6H4F2-H]- 113.02083 0(1.15) FC1=CC=CC(F)=C1 True
  140.9985 209 [C6H6ClNO-2H]- 140.998692 0(1.36) ClC1=CC(N)=CC=C1O False
  162.9822 64 [C3H3F5O2-3H]- 162.982399 0(1.22) FC(F)OC(F)C(F)(F)O True
  167.9857 63 [C7H6ClNO2-3H]- 167.985786 0(0.51) O=CNC1=CC=C(O)C(Cl)=C1 True
  305.013 379 [C14H10ClFN2O3-3H]- 305.013481 0(1.58) O=C(NC(=O)C=1C=CC=CC1F)NC2=CC=C(O)C(Cl)=C2 True
PK$NUM_PEAK: 10
PK$PEAK: m/z int. rel.int.
  34.9693 3.1 23
  41.9985 127.5 953
  84.9906 133.7 999
  93.0144 12.3 92
  113.0207 33.5 250
  140.9985 28.0 209
  162.9822 8.5 64
  165.9938 18.6 139
  167.9857 8.5 63
  305.013 50.7 379
//
