ACCESSION: MSBNK-MSSJ-MSJ02930
RECORD_TITLE: Anilofos; LC-ESI-QTOF; MS2; [M+H]+; CID; CE 20V
DATE: 2023.10.22
AUTHORS: Atsushi Yamamoto, Faculty of Environmental Studies, Tottori University of Environmental Studies, 1-1, Wakabadai-kita, Tottori City, Tottori 689-1111, Japan.
LICENSE: CC BY
COPYRIGHT: Atsushi Yamamoto, Faculty of Environmental Studies, Tottori University of Environmental Studies, 1-1, Wakabadai-kita, Tottori City, Tottori 689-1111, Japan.
COMMENT: This record was created by the financial support of MEXT/JSPS KAKENHI Grant Number 23HP8017 to the Mass Spectrometry Society of Japan.
CH$NAME: Anilofos
CH$COMPOUND_CLASS: Non-natural product
CH$FORMULA: C13H19ClNO3PS2
CH$EXACT_MASS: 367.023251
CH$SMILES: CC(C)N(C1=CC=C(C=C1)Cl)C(=O)CSP(=S)(OC)OC
CH$IUPAC: InChI=1S/C13H19ClNO3PS2/c1-10(2)15(12-7-5-11(14)6-8-12)13(16)9-21-19(20,17-3)18-4/h5-8,10H,9H2,1-4H3
CH$LINK: CAS 64249-01-0
CH$LINK: CHEMSPIDER 82790
CH$LINK: INCHIKEY NXQDBZGWYSEGFL-UHFFFAOYSA-N
CH$LINK: PUBCHEM CID:91687
AC$INSTRUMENT: X500R QTOF (AB Sciex LLC, MA, USA) coupled to ExionLC AD (AB Sciex LLC, MA, USA).
AC$INSTRUMENT_TYPE: LC-ESI-QTOF
AC$MASS_SPECTROMETRY: MS_TYPE MS2
AC$MASS_SPECTROMETRY: ION_MODE POSITIVE
AC$MASS_SPECTROMETRY: COLLISION_ENERGY 20 V
AC$MASS_SPECTROMETRY: COLLISION_GAS N2
AC$MASS_SPECTROMETRY: FRAGMENTATION_MODE CID
AC$MASS_SPECTROMETRY: IONIZATION ESI
AC$CHROMATOGRAPHY: COLUMN_NAME TSKgel ODS-100S 5 um, 2.1 mm × 250 mm, TOSOH
AC$CHROMATOGRAPHY: FLOW_GRADIENT 95/5 at 0 min, 95/5 at 3 min, 0/100 at 13 min, 0/100 at 23 min, 95/5 at 23.1 min, 95/5 at 28 min
AC$CHROMATOGRAPHY: FLOW_RATE 200 ul/min
AC$CHROMATOGRAPHY: RETENTION_TIME 15.4 min
AC$CHROMATOGRAPHY: SOLVENT A water with 20 mM formic acid aquatic solution
AC$CHROMATOGRAPHY: SOLVENT B methanol with 20 mM Formic acid methanolic solution
MS$FOCUSED_ION: PRECURSOR_M/Z 368.030528
MS$FOCUSED_ION: PRECURSOR_TYPE [M+H]+
PK$SPLASH: splash10-00dj-0902000000-d3863c9768c283dc59ff
PK$ANNOTATION: m/z rel.int. formula exact_mass error(ppm) SMILES_of_ion HR_rules
  124.9816 564 [C2H7O2PS-H]+ 124.982067 0(3.73) S=P(OC)OC True
  156.9543 136 [C2H7O2PS2-H]+ 156.954136 0(1.05) S=P(S)(OC)OC True
  170.0731 107 [C9H12ClN+H]+ 170.073103 0(0.02) ClC1=CC=C(C=C1)NC(C)C True
  170.9693 999 [C3H9O2PS2-H]+ 170.969791 0(2.87) S=P(OC)(OC)SC True
  198.9643 987 [C4H9O3PS2-H]+ 198.964695 0(1.98) O=CCSP(=S)(OC)OC True
  368.0301 765 [C13H19ClNO3PS2+H]+ 368.030531 0(1.17) O=C(N(C1=CC=C(Cl)C=C1)C(C)C)CSP(=S)(OC)OC True
PK$NUM_PEAK: 7
PK$PEAK: m/z int. rel.int.
  124.9816 237.5 564
  156.9543 57.3 136
  170.0731 45.2 107
  170.9693 420.6 999
  198.9643 415.6 987
  226.0452 88.3 210
  368.0301 322.3 765
//
