ACCESSION: MSBNK-MSSJ-MSJ01738
RECORD_TITLE: Lormetazepam; LC-ESI-QQ; MS2; ESI; POSITIVE; CID; CE 20 V; [M+H]+
DATE: 2023.03.27
AUTHORS: Koji Yamaguchi, Department of Legal Medicine, Nippon Medical School, 1715 Kamagari, Inzai-shi, Chiba 270-1694, Japan.
LICENSE: CC BY
COPYRIGHT: Koji Yamaguchi, Department of Legal Medicine, Nippon Medical School, 1715 Kamagari, Inzai-shi, Chiba 270-1694, Japan.
COMMENT: Original data are in the 20230328-1.xlsx file.
COMMENT: This record was created by the financial support of MEXT/JSPS KAKENHI Grant Number 23HP8017 to the Mass Spectrometry Society of Japan.
CH$NAME: Lormetazepam
CH$COMPOUND_CLASS: Non-natural product
CH$FORMULA: C16H12Cl2N2O2
CH$EXACT_MASS: 334.027576
CH$SMILES: CN1C2=C(C=C(C=C2)Cl)C(=NC(C1=O)O)C3=CC=CC=C3Cl
CH$IUPAC: InChI=1S/C16H12Cl2N2O2/c1-20-13-7-6-9(17)8-11(13)14(19-15(21)16(20)22)10-4-2-3-5-12(10)18/h2-8,15,21H,1H3
CH$LINK: CAS 848-75-9
CH$LINK: CHEMSPIDER 12750
CH$LINK: INCHIKEY FJIKWRGCXUCUIG-UHFFFAOYSA-N
CH$LINK: PUBCHEM CID:13314
AC$INSTRUMENT: LCMS-8040 coupled to Nexera XR (Shimadzu, Kyoto, Japan).
AC$INSTRUMENT_TYPE: LC-ESI-QQ
AC$MASS_SPECTROMETRY: MS_TYPE MS2
AC$MASS_SPECTROMETRY: ION_MODE POSITIVE
AC$MASS_SPECTROMETRY: IONIZATION ESI
AC$MASS_SPECTROMETRY: COLLISION_ENERGY 20 V
AC$MASS_SPECTROMETRY: FRAGMENTATION_MODE CID
AC$CHROMATOGRAPHY: COLUMN_NAME InertSustain C18 ID 2.1 microm, 2.1 x 100 mm (GL Science, Tokyo, Japan).
AC$CHROMATOGRAPHY: FLOW_GRADIENT 90/10 at 0 min, linear gradient from 90/10 to 2/98 at 0-9 min, 2/98 at 9-12 min, linear gradient from 2/98 to 90/10 at 12-12.1 min, 90/10 at 12.1-15 min.
AC$CHROMATOGRAPHY: FLOW_RATE 200 microl/min
AC$CHROMATOGRAPHY: RETENTION_TIME 9.178 min
AC$CHROMATOGRAPHY: SOLVENT A water with 10 mM ammonium formate
AC$CHROMATOGRAPHY: SOLVENT B methanol
MS$FOCUSED_ION: PRECURSOR_M/Z 335.034853
MS$FOCUSED_ION: PRECURSOR_TYPE [M+H]+
PK$SPLASH: splash10-000i-0091000000-b952b2f820eeeb943a60
PK$NUM_PEAK: 7
PK$PEAK: m/z int. rel.int.
  180.1 3512 10
  243.2 4334 13
  250.1 5772 17
  262.1 12783 37
  289.1 342211 999
  317.1 27635 81
  335.2 23590 69
//
