ACCESSION: MSBNK-MSSJ-MSJ02673
RECORD_TITLE: Fluazifop; LC-ESI-QTOF; MS2; [M+H]+; CID; CE 20V
DATE: 2023.04.05
AUTHORS: Atsushi Yamamoto, Faculty of Environmental Studies, Tottori University of Environmental Studies, 1-1, Wakabadai-kita, Tottori City, Tottori 689-1111, Japan.
LICENSE: CC BY
COPYRIGHT: Atsushi Yamamoto, Faculty of Environmental Studies, Tottori University of Environmental Studies, 1-1, Wakabadai-kita, Tottori City, Tottori 689-1111, Japan.
COMMENT: This record was created by the financial support of MEXT/JSPS KAKENHI Grant Number 23HP8017 to the Mass Spectrometry Society of Japan.
CH$NAME: Fluazifop
CH$COMPOUND_CLASS: Non-natural product
CH$FORMULA: C15H12F3NO4
CH$EXACT_MASS: 327.071842
CH$SMILES: CC(C(=O)O)OC1=CC=C(C=C1)OC2=NC=C(C=C2)C(F)(F)F
CH$IUPAC: InChI=1S/C15H12F3NO4/c1-9(14(20)21)22-11-3-5-12(6-4-11)23-13-7-2-10(8-19-13)15(16,17)18/h2-9H,1H3,(H,20,21)
CH$LINK: CAS 69335-91-7
CH$LINK: CHEMSPIDER 82803
CH$LINK: INCHIKEY YUVKUEAFAVKILW-UHFFFAOYSA-N
CH$LINK: PUBCHEM CID:91701
AC$INSTRUMENT: X500R QTOF (AB Sciex LLC, MA, USA) coupled to ExionLC AD (AB Sciex LLC, MA, USA).
AC$INSTRUMENT_TYPE: LC-ESI-QTOF
AC$MASS_SPECTROMETRY: MS_TYPE MS2
AC$MASS_SPECTROMETRY: ION_MODE POSITIVE
AC$MASS_SPECTROMETRY: COLLISION_ENERGY 20 V
AC$MASS_SPECTROMETRY: COLLISION_GAS N2
AC$MASS_SPECTROMETRY: FRAGMENTATION_MODE CID
AC$MASS_SPECTROMETRY: IONIZATION ESI
AC$CHROMATOGRAPHY: COLUMN_NAME AQ-C18HP 3 microm, 2.1 mm × 150 mm (GL Science, Tokyo, Japan).
AC$CHROMATOGRAPHY: FLOW_GRADIENT 90/10 at 0 min, 90/10 at 8 min, 0/100 at 23 min, 0/100 at 30 min, 90/10 at 30.1 min, 90/10 at 40 min
AC$CHROMATOGRAPHY: FLOW_RATE 200 microL/min
AC$CHROMATOGRAPHY: RETENTION_TIME 32.5 min
AC$CHROMATOGRAPHY: SOLVENT A water with 2 mM Ammonium bicarbonate
AC$CHROMATOGRAPHY: SOLVENT B methanol with 2 mM Ammmonium bicarbonate
MS$FOCUSED_ION: PRECURSOR_M/Z 328.079119
MS$FOCUSED_ION: PRECURSOR_TYPE [M+H]+
PK$SPLASH: splash10-0059-0098000000-5a0b3bc1d7042dc3941c
PK$ANNOTATION: m/z rel.int. formula exact_mass error(ppm) SMILES_of_ion HR_rules
  255.0501 102 [C12H8F3NO2]+ 255.050172 0(0.28) FC(F)(F)C1=CN=C(OC2=CC=C(O)C=C2)C=C1 False
  282.0732 794 [C14H12F3NO2-H]+ 282.073627 0(1.51) FC(F)(F)C1=CN=C(OC2=CC=C(OCC)C=C2)C=C1 True
  328.0784 999 [C15H12F3NO4+H]+ 328.079115 0.001(2.18) O=C(O)C(OC1=CC=C(OC2=NC=C(C=C2)C(F)(F)F)C=C1)C True
PK$NUM_PEAK: 6
PK$PEAK: m/z int. rel.int.
  91.0539 3.0 28
  254.0784 8.8 84
  255.0501 10.7 102
  256.0574 8.0 76
  282.0732 82.9 794
  328.0784 104.3 999
//
