ACCESSION: MSBNK-MSSJ-MSJ01529
RECORD_TITLE: Oxazepam; LC-ESI-QQ; MS2; ESI; POSITIVE; CE 10 V; [M+H]+
DATE: 2023.03.24
AUTHORS: Koji Yamaguchi, Department of Legal Medicine, Nippon Medical School, 1715 Kamagari, Inzai-shi, Chiba 270-1694, Japan.
LICENSE: CC BY
COPYRIGHT: Koji Yamaguchi, Department of Legal Medicine, Nippon Medical School, 1715 Kamagari, Inzai-shi, Chiba 270-1694, Japan.
COMMENT: Original data are in the 20230324_Revised.xlsx file
COMMENT: This record was created by the financial support of MEXT/JSPS KAKENHI Grant Number 23HP8017 to the Mass Spectrometry Society of Japan.
CH$NAME: Oxazepam
CH$COMPOUND_CLASS: Non-natural product
CH$FORMULA: C15H11ClN2O2
CH$EXACT_MASS: 286.05090
CH$SMILES: C1=CC=C(C=C1)C2=NC(C(=O)NC3=C2C=C(C=C3)Cl)O
CH$IUPAC: InChI=1S/C15H11ClN2O2/c16-10-6-7-12-11(8-10)13(9-4-2-1-3-5-9)18-15(20)14(19)17-12/h1-8,15,20H,(H,17,19)
CH$LINK: CAS 604-75-1
CH$LINK: CHEMSPIDER 4455
CH$LINK: INCHIKEY ADIMAYPTOBDMTL-UHFFFAOYSA-N
CH$LINK: PUBCHEM CID:4616
AC$INSTRUMENT: LCMS-8040 coupled to Nexera XR (Shimadzu, Kyoro, Japan).
AC$INSTRUMENT_TYPE: LC-ESI-QQ
AC$MASS_SPECTROMETRY: MS_TYPE MS2
AC$MASS_SPECTROMETRY: ION_MODE POSITIVE
AC$MASS_SPECTROMETRY: COLLISION_ENERGY 10 V
AC$MASS_SPECTROMETRY: IONIZATION ESI
AC$CHROMATOGRAPHY: COLUMN_NAME InertSustain C18 ID 2.1 microm, 2.1 x 100 mm (GL Science, Tokyo, Japan).
AC$CHROMATOGRAPHY: FLOW_GRADIENT 90/10 at 0 min, linear gradient from 90/10 to 2/98 at 0-9 min, 2/98 at 9-12 min, linear gradient from 2/98 to 90/10 at 12-12.1 min, 90/10 at 12.1-15 min.
AC$CHROMATOGRAPHY: FLOW_RATE 200 microLl/min
AC$CHROMATOGRAPHY: RETENTION_TIME 8.957 min
AC$CHROMATOGRAPHY: SOLVENT A water with 10 mM ammonium formate
AC$CHROMATOGRAPHY: SOLVENT B methanol
MS$FOCUSED_ION: PRECURSOR_M/Z 287.05818
MS$FOCUSED_ION: PRECURSOR_TYPE [M+H]+
PK$SPLASH: splash10-000i-0090000000-28b50dcb6035683be069
PK$NUM_PEAK: 6
PK$PEAK: m/z int. rel.int.
  128 1633 18
  238 1306 14
  241 5000 55
  255 1298 14
  269 21686 236
  287 91627 999
//
