ACCESSION: MSBNK-MSSJ-MSJ04173
RECORD_TITLE: 6-(4-{[5-(tetradecanoylamino)pentyl]amino}-4-oxobutanamido)-N,N-dimethylhexan-1-amine N-oxide; ESI-QTOF; MS2; ESI; [M+H]+; CE 30 V
DATE: 2023.02.09
AUTHORS: Atsushi Yamamoto, Faculty of Environmental Studies, Tottori University of Environmental Studies, 1-1, Wakabadai-kita, Tottori City, Tottori 689-1111, Japan.
LICENSE: CC BY
COPYRIGHT: Atsushi Yamamoto, Faculty of Environmental Studies, Tottori University of Environmental Studies, 1-1, Wakabadai-kita, Tottori City, Tottori 689-1111, Japan.
PUBLICATION: Atsushi Yamamoto, Naoji Tokai, Rie Kakehashi, Daisuke Saigusa, Mass Spectrometry, vol. 13, in press (2024).
COMMENT: This record was created by the financial supports of the Shin-MassBank project and the Mass Spectrometry Society of Japan.
COMMENT: Capillary Voltages were 5,500 V for the positive ion mode analyses and 4,500 V for the negative ion mode analyses.
CH$NAME: 6-(4-{[5-(tetradecanoylamino)pentyl]amino}-4-oxobutanamido)-N,N-dimethylhexan-1-amine N-oxide
CH$NAME: AAO 13-5-2-6
CH$COMPOUND_CLASS: Non-natural product
CH$FORMULA: C31H62N4O4
CH$EXACT_MASS: 554.477090
CH$SMILES: [O-][N+](C)(C)CCCCCCNC(=O)CCC(=O)NCCCCCNC(=O)CCCCCCCCCCCCC
CH$IUPAC: InChI=1S/C31H62N4O4/c1-4-5-6-7-8-9-10-11-12-13-17-22-29(36)32-26-19-16-20-27-34-31(38)24-23-30(37)33-25-18-14-15-21-28-35(2,3)39/h4-28H2,1-3H3,(H,32,36)(H,33,37)(H,34,38)
CH$LINK: INCHIKEY XULOUGQPJCXMFH-UHFFFAOYSA-N
AC$INSTRUMENT: X500R QTOF (AB Sciex LLC, MA, USA)
AC$INSTRUMENT_TYPE: ESI-QTOF
AC$MASS_SPECTROMETRY: MS_TYPE MS2
AC$MASS_SPECTROMETRY: ION_MODE POSITIVE
AC$MASS_SPECTROMETRY: COLLISION_ENERGY 30 V
AC$MASS_SPECTROMETRY: COLLISION_GAS N2
AC$MASS_SPECTROMETRY: FRAGMENTATION_MODE CID
AC$MASS_SPECTROMETRY: IONIZATION ESI
MS$FOCUSED_ION: PRECURSOR_M/Z 555.484367 
MS$FOCUSED_ION: PRECURSOR_TYPE [M+H]+
PK$SPLASH: splash10-0a4i-0000090000-9539444447992a6580cc
PK$ANNOTATION: m/z rel.int formula calculated_m/z Mass_Diff(ppm) SMILES Rule_of_HR
  313.32108 13 [C19H40N2O+H]+ 313.321333 0(0.74ppm) O=C(NCCCCCN)CCCCCCCCCCCCC True
  395.32649 24 [C23H44N2O3-H]+ 395.326831 0(0.84ppm) O=CCCC(=O)NCCCCCNC(=O)CCCCCCCCCCCCC True
  555.48257 999 [C31H62N4O4+H]+ 555.484388 0.002(3.4ppm) O=C(NCCCCCNC(=O)CCCCCCCCCCCCC)CCC(=O)NCCCCCC[N+]([O-])(C)C True
PK$NUM_PEAK: 3
PK$PEAK: m/z int. rel.int.
  313.32108 8.90 13
  395.32649 16.48 24
  555.48257 695.27 999
//
