ACCESSION: MSBNK-MSSJ-MSJ02811
RECORD_TITLE: Imidacloprid; LC-ESI-QTOF; MS2; [M+H]+; CID; CE 40V
DATE: 2023.10.22
AUTHORS: Atsushi Yamamoto, Faculty of Environmental Studies, Tottori University of Environmental Studies, 1-1, Wakabadai-kita, Tottori City, Tottori 689-1111, Japan.
LICENSE: CC BY
COPYRIGHT: Atsushi Yamamoto, Faculty of Environmental Studies, Tottori University of Environmental Studies, 1-1, Wakabadai-kita, Tottori City, Tottori 689-1111, Japan.
COMMENT: This record was created by the financial support of MEXT/JSPS KAKENHI Grant Number 23HP8017 to the Mass Spectrometry Society of Japan.
CH$NAME: Imidacloprid
CH$COMPOUND_CLASS: Non-natural product
CH$FORMULA: C9H10ClN5O2
CH$EXACT_MASS: 255.052302
CH$SMILES: C1CN(C(=N[N+](=O)[O-])N1)CC2=CN=C(C=C2)Cl
CH$IUPAC: InChI=1S/C9H10ClN5O2/c10-8-2-1-7(5-12-8)6-14-4-3-11-9(14)13-15(16)17/h1-2,5H,3-4,6H2,(H,11,13)
CH$LINK: CAS 138261-41-3
CH$LINK: CHEMSPIDER 77934
CH$LINK: INCHIKEY YWTYJOPNNQFBPC-UHFFFAOYSA-N
CH$LINK: PUBCHEM CID:86287518
AC$INSTRUMENT: X500R QTOF (AB Sciex LLC, MA, USA) coupled to ExionLC AD (AB Sciex LLC, MA, USA).
AC$INSTRUMENT_TYPE: LC-ESI-QTOF
AC$MASS_SPECTROMETRY: MS_TYPE MS2
AC$MASS_SPECTROMETRY: ION_MODE POSITIVE
AC$MASS_SPECTROMETRY: COLLISION_ENERGY 40 V
AC$MASS_SPECTROMETRY: COLLISION_GAS N2
AC$MASS_SPECTROMETRY: FRAGMENTATION_MODE CID
AC$MASS_SPECTROMETRY: IONIZATION ESI
AC$CHROMATOGRAPHY: COLUMN_NAME TSKgel ODS-100S 5 um, 2.1 mm × 250 mm, TOSOH
AC$CHROMATOGRAPHY: FLOW_GRADIENT 95/5 at 0 min, 95/5 at 3 min, 0/100 at 13 min, 0/100 at 23 min, 95/5 at 23.1 min, 95/5 at 28 min
AC$CHROMATOGRAPHY: FLOW_RATE 200 ul/min
AC$CHROMATOGRAPHY: RETENTION_TIME 11.1 min
AC$CHROMATOGRAPHY: SOLVENT A water with 20 mM formic acid aquatic solution
AC$CHROMATOGRAPHY: SOLVENT B methanol with 20 mM Formic acid methanolic solution
MS$FOCUSED_ION: PRECURSOR_M/Z 256.059579
MS$FOCUSED_ION: PRECURSOR_TYPE [M+H]+
PK$SPLASH: splash10-0a6r-0940000000-4074c9d0443d1968f4ef
PK$ANNOTATION: m/z rel.int. formula exact_mass error(ppm) SMILES_of_ion HR_rules
  56.0493 15 [C3H9N-3H]+ 56.049474 0(3.11) N(C)CC True
  84.0555 103 [C3H7N3-H]+ 84.055622 0(1.45) N=C1NCCN1 True
  90.0335 17 [C6H7N-3H]+ 90.033822 0(3.58) N=1C=CC=C(C1)C True
  92.049 17 [C6H7N-H]+ 92.049472 0(5.13) N=1C=CC=C(C1)C True
  105.0445 38 [C6H8N2-3H]+ 105.044725 0(2.14) N=1C=CC=C(C1)CN True
  107.0606 29 [C6H8N2-H]+ 107.060375 0(2.1) N=1C=CC=C(C1)CN True
  119.0602 34 [C7H10N2-3H]+ 119.060373 0(1.45) N=1C=CC=C(C1)CNC True
  126.0105 85 [C6H6ClN-H]+ 126.010502 0(0.01) ClC1=NC=C(C=C1)C True
  128.0261 64 [C6H6ClN+H]+ 128.026152 0(0.4) ClC1=NC=C(C=C1)C True
  133.075 44 [C8H12N2-3H]+ 133.076028 0.001(7.73) N=1C=CC=C(C1)CNCC True
  141.0214 44 [C6H7ClN2-H]+ 141.021396 0(0.03) ClC1=NC=C(C=C1)CN True
  146.0713 107 [C8H13N3-5H]+ 146.071273 0(0.19) N=1C=CC=C(C1)CNCCN True
  147.0664 154 [C7H10N4-3H]+ 147.066522 0(0.83) N=C(N)NCC=1C=NC=CC1 True
  148.0869 67 [C8H13N3-3H]+ 148.086923 0(0.16) N=1C=CC=C(C1)CNCCN True
  158.0714 73 [C9H13N3-5H]+ 158.071273 0(0.8) N=CN(CC=1C=NC=CC1)CC True
  167.0367 47 [C8H11ClN2-3H]+ 167.037057 0(2.14) ClC1=NC=C(C=C1)CNCC True
  173.0821 210 [C9H12N4-3H]+ 173.082177 0(0.45) N=C1NCCN1CC=2C=NC=CC2 True
  175.0977 781 [C9H12N4-H]+ 175.097828 0(0.73) N=C1NCCN1CC=2C=NC=CC2 True
  181.0276 60 [C7H9ClN4-3H]+ 181.027551 0(0.27) ClC1=NC=C(C=C1)CNC(=N)N True
  209.0588 999 [C9H11ClN4-H]+ 209.058857 0(0.27) ClC1=NC=C(C=C1)CN2C(=N)NCC2 True
PK$NUM_PEAK: 28
PK$PEAK: m/z int. rel.int.
  56.0493 2.1 15
  84.0555 14.3 103
  90.0335 2.3 17
  92.049 2.3 17
  105.0445 5.3 38
  106.0653 3.4 25
  107.0606 3.9 29
  119.0602 4.6 34
  120.0556 4.0 29
  126.0105 11.7 85
  128.0261 8.8 64
  131.0602 3.9 28
  133.064 7.1 52
  133.075 6.1 44
  134.0711 6.0 43
  141.0214 6.1 44
  146.0713 14.8 107
  147.0664 21.2 154
  148.0869 9.3 67
  158.0714 10.1 73
  159.0792 16.4 119
  167.0367 6.4 47
  173.0821 29.0 210
  174.09 22.0 159
  175.0977 107.9 781
  181.0276 8.2 60
  208.0517 5.8 42
  209.0588 138.0 999
//
