ACCESSION: MSBNK-MSSJ-MSJ00204
RECORD_TITLE: Pyraclonil; ESI-QTOF; MS2; POSITIVE; [M+H]+; CID; 40 V
DATE: 2020.03.05
AUTHORS: Atsushi Yamamoto, Faculty of Environmental Studies, Tottori University of Environmental Studies, 1-1, Wakabadai-kita, Tottori City, Tottori 689-1111, Japan.
LICENSE: CC BY
COPYRIGHT: Atsushi Yamamoto, Faculty of Environmental Studies, Tottori University of Environmental Studies, 1-1, Wakabadai-kita, Tottori City, Tottori 689-1111, Japan.
COMMENT: The sample was injected by direct infusion.
COMMENT: This record was created by the financial support of MEXT/JSPS KAKENHI Grant Number 19HP8024 to the Mass Spectrometry Society of Japan.
CH$NAME: Pyraclonil
CH$COMPOUND_CLASS: Non-natural product
CH$FORMULA: C15H15ClN6
CH$EXACT_MASS: 314.10465
CH$SMILES: CN(CC#C)C1=C(C=NN1C2=NN3CCCCC3=C2Cl)C#N
CH$IUPAC: InChI=1S/C15H15ClN6/c1-3-7-20(2)15-11(9-17)10-18-22(15)14-13(16)12-6-4-5-8-21(12)19-14/h1,10H,4-8H2,2H3
CH$LINK: CAS 158353-15-2
CH$LINK: CHEMSPIDER 9738756
CH$LINK: INCHIKEY IHHMUBRVTJMLQO-UHFFFAOYSA-N
CH$LINK: PUBCHEM CID:11563984
AC$INSTRUMENT: X500R QTOF (AB Sciex Pte. Ltd, USA)
AC$INSTRUMENT_TYPE: ESI-QTOF
AC$MASS_SPECTROMETRY: MS_TYPE MS2
AC$MASS_SPECTROMETRY: ION_MODE POSITIVE
AC$MASS_SPECTROMETRY: COLLISION_ENERGY 40 V
AC$MASS_SPECTROMETRY: FRAGMENTATION_MODE CID
AC$MASS_SPECTROMETRY: IONIZATION ESI
MS$FOCUSED_ION: PRECURSOR_M/Z 315.11193
MS$FOCUSED_ION: PRECURSOR_TYPE [M+H]+
PK$SPLASH: splash10-014i-0930000000-3352d4001c9d3d9c0c35
PK$NUM_PEAK: 8
PK$PEAK: m/z int. rel.int.
  123.092 0.5911 17
  156.0455 0.8197 24
  169.0528 34.4678 999
  214.1093 2.6931 78
  239.1048 1.4399 42
  241.1203 5.5081 160
  248.0705 2.2954 67
  275.0816 2.0585 60
//
