ACCESSION: MSBNK-MSSJ-MSJ02684
RECORD_TITLE: Fluazifop; LC-ESI-QTOF; MS2; [M-H]-; CID; CE 60V
DATE: 2023.04.05
AUTHORS: Atsushi Yamamoto, Faculty of Environmental Studies, Tottori University of Environmental Studies, 1-1, Wakabadai-kita, Tottori City, Tottori 689-1111, Japan.
LICENSE: CC BY
COPYRIGHT: Atsushi Yamamoto, Faculty of Environmental Studies, Tottori University of Environmental Studies, 1-1, Wakabadai-kita, Tottori City, Tottori 689-1111, Japan.
COMMENT: This record was created by the financial support of MEXT/JSPS KAKENHI Grant Number 23HP8017 to the Mass Spectrometry Society of Japan.
CH$NAME: Fluazifop
CH$COMPOUND_CLASS: Non-natural product
CH$FORMULA: C15H12F3NO4
CH$EXACT_MASS: 327.071842
CH$SMILES: CC(C(=O)O)OC1=CC=C(C=C1)OC2=NC=C(C=C2)C(F)(F)F
CH$IUPAC: InChI=1S/C15H12F3NO4/c1-9(14(20)21)22-11-3-5-12(6-4-11)23-13-7-2-10(8-19-13)15(16,17)18/h2-9H,1H3,(H,20,21)
CH$LINK: CAS 69335-91-7
CH$LINK: CHEMSPIDER 82803
CH$LINK: INCHIKEY YUVKUEAFAVKILW-UHFFFAOYSA-N
CH$LINK: PUBCHEM CID:91701
AC$INSTRUMENT: X500R QTOF (AB Sciex LLC, MA, USA) coupled to ExionLC AD (AB Sciex LLC, MA, USA).
AC$INSTRUMENT_TYPE: LC-ESI-QTOF
AC$MASS_SPECTROMETRY: MS_TYPE MS2
AC$MASS_SPECTROMETRY: ION_MODE NEGATIVE
AC$MASS_SPECTROMETRY: COLLISION_ENERGY 60 V
AC$MASS_SPECTROMETRY: COLLISION_GAS N2
AC$MASS_SPECTROMETRY: FRAGMENTATION_MODE CID
AC$MASS_SPECTROMETRY: IONIZATION ESI
AC$CHROMATOGRAPHY: COLUMN_NAME AQ-C18HP 3 microm, 2.1 mm × 150 mm (GL Science, Tokyo, Japan).
AC$CHROMATOGRAPHY: FLOW_GRADIENT 90/10 at 0 min, 90/10 at 8 min, 0/100 at 23 min, 0/100 at 30 min, 90/10 at 30.1 min, 90/10 at 40 min
AC$CHROMATOGRAPHY: FLOW_RATE 200 microL/min
AC$CHROMATOGRAPHY: RETENTION_TIME 32.5 min
AC$CHROMATOGRAPHY: SOLVENT A water with 2 mM Ammonium bicarbonate
AC$CHROMATOGRAPHY: SOLVENT B methanol with 2 mM Ammmonium bicarbonate
MS$FOCUSED_ION: PRECURSOR_M/Z 326.064565
MS$FOCUSED_ION: PRECURSOR_TYPE [M-H]-
PK$SPLASH: splash10-0a4i-0910000000-e4536cb5dc3a991101bc
PK$ANNOTATION: m/z rel.int. formula exact_mass error(ppm) SMILES_of_ion HR_rules
  142.0112 66 [C6H5F2NO-3H]- 142.010994 0(1.45) FC(F)C1=CN=C(O)C=C1 True
  162.0178 315 [C6H4F3NO-H]- 162.017229 0.001(3.52) FC(F)(F)C1=CN=C(O)C=C1 True
  166.0299 84 [C11H9NO-5H]- 166.029844 0(0.34) N=1C=CC=CC1OC=2C=CC=CC2 True
PK$NUM_PEAK: 13
PK$PEAK: m/z int. rel.int.
  41.0028 0.2 17
  108.0218 13.1 999
  115.0001 0.6 45
  138.0348 2.1 163
  142.0112 0.9 66
  150.0352 1.3 102
  158.0412 2.5 194
  162.0178 4.1 315
  164.0319 1.1 87
  166.0299 1.1 84
  178.0477 2.8 212
  186.0364 1.5 112
  206.043 3.5 265
//
