ACCESSION: MSBNK-MSSJ-MSJ01587
RECORD_TITLE: Clonazepam; LC-ESI-QQ; MS2; ESI; POSITIVE; CE 50 V; [M+H]+
DATE: 2023.03.24
AUTHORS: Koji Yamaguchi, Department of Legal Medicine, Nippon Medical School, 1715 Kamagari, Inzai-shi, Chiba 270-1694, Japan.
LICENSE: CC BY
COPYRIGHT: Koji Yamaguchi, Department of Legal Medicine, Nippon Medical School, 1715 Kamagari, Inzai-shi, Chiba 270-1694, Japan.
COMMENT: Original data are in the 20230324-3.xlsx file.
COMMENT: This record was created by the financial support of MEXT/JSPS KAKENHI Grant Number 23HP8017 to the Mass Spectrometry Society of Japan.
CH$NAME: Clonazepam
CH$COMPOUND_CLASS: Non-natural product
CH$FORMULA: C15H10ClN3O3
CH$EXACT_MASS: 315.04105
CH$SMILES: C1C(=O)NC2=C(C=C(C=C2)[N+](=O)[O-])C(=N1)C3=CC=CC=C3Cl
CH$IUPAC: InChI=1S/C15H10ClN3O3/c16-12-4-2-1-3-10(12)15-11-7-9(19(21)22)5-6-13(11)18-14(20)8-17-15/h1-7H,8H2,(H,18,20)
CH$LINK: CAS 1622-61-3
CH$LINK: CHEMSPIDER 2700
CH$LINK: INCHIKEY DGBIGWXXNGSACT-UHFFFAOYSA-N
CH$LINK: PUBCHEM CID:2802
AC$INSTRUMENT: LCMS-8040 coupled to Nexera XR (Shimadzu, Kyoto, Japan).
AC$INSTRUMENT_TYPE: LC-ESI-QQ
AC$MASS_SPECTROMETRY: MS_TYPE MS2
AC$MASS_SPECTROMETRY: ION_MODE POSITIVE
AC$MASS_SPECTROMETRY: COLLISION_ENERGY 50 V
AC$MASS_SPECTROMETRY: IONIZATION ESI
AC$CHROMATOGRAPHY: COLUMN_NAME InertSustain C18 ID 2.1 microm, 2.1 x 100 mm (GL Science, Tokyo, Japan).
AC$CHROMATOGRAPHY: FLOW_GRADIENT 90/10 at 0 min, linear gradient from 90/10 to 2/98 at 0-9 min, 2/98 at 9-12 min, linear gradient from 2/98 to 90/10 at 12-12.1 min, 90/10 at 12.1-15 min.
AC$CHROMATOGRAPHY: FLOW_RATE 200 microl/min
AC$CHROMATOGRAPHY: RETENTION_TIME 8.612 min
AC$CHROMATOGRAPHY: SOLVENT A water with 10 mM ammonium formate
AC$CHROMATOGRAPHY: SOLVENT B methanol
MS$FOCUSED_ION: PRECURSOR_M/Z 316.04834
MS$FOCUSED_ION: PRECURSOR_TYPE [M+H]+
PK$SPLASH: splash10-114l-0960000000-2da92a51b3648e227933
PK$NUM_PEAK: 74
PK$PEAK: m/z int. rel.int.
  31 544 26
  51 1252 60
  53 544 26
  77 1534 74
  78 1078 52
  79 271 13
  81 544 26
  90 544 26
  91 544 26
  93 263 13
  103 2045 99
  104 5793 279
  105 1089 52
  116 1724 83
  117 544 26
  125 1064 51
  126 271 13
  128 1089 52
  129 2922 141
  130 683 33
  131 1089 52
  132 544 26
  138 2525 122
  140 544 26
  150 1820 88
  151 7890 380
  152 8561 413
  153 2137 103
  157 544 26
  159 1089 52
  163 1086 52
  164 1085 52
  165 3330 160
  166 4316 208
  167 2899 140
  168 791 38
  177 1625 78
  178 3702 178
  179 7421 358
  180 8723 420
  181 1558 75
  186 991 48
  190 12780 616
  191 1826 88
  192 4239 204
  195 271 13
  197 271 13
  198 271 13
  199 1336 64
  201 519 25
  202 542 26
  203 544 26
  204 544 26
  205 7866 379
  206 13585 655
  207 4736 228
  214 20732 999
  217 544 26
  218 271 13
  222 991 48
  223 1089 52
  224 1063 51
  226 1289 62
  227 543 26
  228 544 26
  234 2728 131
  235 247 12
  239 1173 57
  240 3260 157
  241 6110 294
  251 271 13
  257 544 26
  270 1634 79
  316 407 20
//
