ACCESSION: MSBNK-MSSJ-MSJ02826
RECORD_TITLE: Chlorxuron; LC-ESI-QTOF; MS2; [M+H]+; CID; CE 50V
DATE: 2023.10.22
AUTHORS: Atsushi Yamamoto, Faculty of Environmental Studies, Tottori University of Environmental Studies, 1-1, Wakabadai-kita, Tottori City, Tottori 689-1111, Japan.
LICENSE: CC BY
COPYRIGHT: Atsushi Yamamoto, Faculty of Environmental Studies, Tottori University of Environmental Studies, 1-1, Wakabadai-kita, Tottori City, Tottori 689-1111, Japan.
COMMENT: This record was created by the financial support of MEXT/JSPS KAKENHI Grant Number 23HP8017 to the Mass Spectrometry Society of Japan.
CH$NAME: Chlorxuron
CH$COMPOUND_CLASS: Non-natural product
CH$FORMULA: C15H15ClN2O2
CH$EXACT_MASS: 290.082205
CH$SMILES: CN(C)C(=O)NC1=CC=C(C=C1)OC2=CC=C(C=C2)Cl
CH$IUPAC: InChI=1S/C15H15ClN2O2/c1-18(2)15(19)17-12-5-9-14(10-6-12)20-13-7-3-11(16)4-8-13/h3-10H,1-2H3,(H,17,19)
CH$LINK: CAS 1982-47-4
CH$LINK: CHEMSPIDER 15299
CH$LINK: INCHIKEY IVUXTESCPZUGJC-UHFFFAOYSA-N
CH$LINK: PUBCHEM CID:16115
AC$INSTRUMENT: X500R QTOF (AB Sciex LLC, MA, USA) coupled to ExionLC AD (AB Sciex LLC, MA, USA).
AC$INSTRUMENT_TYPE: LC-ESI-QTOF
AC$MASS_SPECTROMETRY: MS_TYPE MS2
AC$MASS_SPECTROMETRY: ION_MODE POSITIVE
AC$MASS_SPECTROMETRY: COLLISION_ENERGY 50 V
AC$MASS_SPECTROMETRY: COLLISION_GAS N2
AC$MASS_SPECTROMETRY: FRAGMENTATION_MODE CID
AC$MASS_SPECTROMETRY: IONIZATION ESI
AC$CHROMATOGRAPHY: COLUMN_NAME TSKgel ODS-100S 5 um, 2.1 mm × 250 mm, TOSOH
AC$CHROMATOGRAPHY: FLOW_GRADIENT 95/5 at 0 min, 95/5 at 3 min, 0/100 at 13 min, 0/100 at 23 min, 95/5 at 23.1 min, 95/5 at 28 min
AC$CHROMATOGRAPHY: FLOW_RATE 200 ul/min
AC$CHROMATOGRAPHY: RETENTION_TIME 15.0 min
AC$CHROMATOGRAPHY: SOLVENT A water with 20 mM formic acid aquatic solution
AC$CHROMATOGRAPHY: SOLVENT B methanol with 20 mM Formic acid methanolic solution
MS$FOCUSED_ION: PRECURSOR_M/Z 291.089482
MS$FOCUSED_ION: PRECURSOR_TYPE [M+H]+
PK$SPLASH: splash10-00di-9300000000-f68c9068359fc529bf75
PK$ANNOTATION: m/z rel.int. formula exact_mass error(ppm) SMILES_of_ion HR_rules
  30.0336 50 [CH5N-H]+ 30.033825 0(7.48) NC True
  44.0492 42 [C2H7N-H]+ 44.049476 0(6.27) N(C)C True
  46.0649 399 [C2H7N+H]+ 46.065126 0(4.91) N(C)C True
  56.0129 33 [C2H5NO-3H]+ 56.01309 0(3.38) O=CNC True
  72.0441 999 [C3H7NO-H]+ 72.044391 0(4.04) O=CN(C)C True
  75.0228 22 [C6H6-3H]+ 75.022928 0(1.7) C=1C=CC=CC1 True
  110.9995 52 [C6H5Cl-H]+ 110.999607 0(0.96) ClC=1C=CC=CC1 True
  218.0374 71 [C12H10ClNO-H]+ 218.036716 0.001(3.14) ClC1=CC=C(OC2=CC=C(N)C=C2)C=C1 True
PK$NUM_PEAK: 18
PK$PEAK: m/z int. rel.int.
  30.0336 6.3 50
  42.0337 1.5 12
  44.0492 5.2 42
  46.0649 50.0 399
  56.0129 4.2 33
  72.0441 125.1 999
  75.0228 2.8 22
  106.065 3.4 27
  110.9995 6.5 52
  118.0649 5.2 42
  127.0541 2.9 23
  128.0622 16.2 130
  139.0059 10.3 82
  154.0656 3.8 30
  155.0605 6.9 55
  155.0725 3.4 27
  163.0308 13.1 104
  218.0374 8.8 71
//
