ACCESSION: MSBNK-MSSJ-MSJ02775
RECORD_TITLE: Mepanipyrim; LC-ESI-QTOF; MS2; [M+H]+; CID; CE 30V
DATE: 2023.10.22
AUTHORS: Atsushi Yamamoto, Faculty of Environmental Studies, Tottori University of Environmental Studies, 1-1, Wakabadai-kita, Tottori City, Tottori 689-1111, Japan.
LICENSE: CC BY
COPYRIGHT: Atsushi Yamamoto, Faculty of Environmental Studies, Tottori University of Environmental Studies, 1-1, Wakabadai-kita, Tottori City, Tottori 689-1111, Japan.
COMMENT: This record was created by the financial support of MEXT/JSPS KAKENHI Grant Number 23HP8017 to the Mass Spectrometry Society of Japan.
CH$NAME: Mepanipyrim
CH$COMPOUND_CLASS: Non-natural product
CH$FORMULA: C14H13N3
CH$EXACT_MASS: 223.110947
CH$SMILES: CC#CC1=NC(=NC(=C1)C)NC2=CC=CC=C2
CH$IUPAC: InChI=1S/C14H13N3/c1-3-7-13-10-11(2)15-14(17-13)16-12-8-5-4-6-9-12/h4-6,8-10H,1-2H3,(H,15,16,17)
CH$LINK: CAS 110235-47-7
CH$LINK: CHEMSPIDER 77839
CH$LINK: INCHIKEY CIFWZNRJIBNXRE-UHFFFAOYSA-N
CH$LINK: PUBCHEM CID:86296
AC$INSTRUMENT: X500R QTOF (AB Sciex LLC, MA, USA) coupled to ExionLC AD (AB Sciex LLC, MA, USA).
AC$INSTRUMENT_TYPE: LC-ESI-QTOF
AC$MASS_SPECTROMETRY: MS_TYPE MS2
AC$MASS_SPECTROMETRY: ION_MODE POSITIVE
AC$MASS_SPECTROMETRY: COLLISION_ENERGY 30 V
AC$MASS_SPECTROMETRY: COLLISION_GAS N2
AC$MASS_SPECTROMETRY: FRAGMENTATION_MODE CID
AC$MASS_SPECTROMETRY: IONIZATION ESI
AC$CHROMATOGRAPHY: COLUMN_NAME TSKgel ODS-100S 5 um, 2.1 mm × 250 mm, TOSOH
AC$CHROMATOGRAPHY: FLOW_GRADIENT 95/5 at 0 min, 95/5 at 3 min, 0/100 at 13 min, 0/100 at 23 min, 95/5 at 23.1 min, 95/5 at 28 min
AC$CHROMATOGRAPHY: FLOW_RATE 200 ul/min
AC$CHROMATOGRAPHY: RETENTION_TIME 15.1 min
AC$CHROMATOGRAPHY: SOLVENT A water with 20 mM formic acid aquatic solution
AC$CHROMATOGRAPHY: SOLVENT B methanol with 20 mM Formic acid methanolic solution
MS$FOCUSED_ION: PRECURSOR_M/Z 224.118224
MS$FOCUSED_ION: PRECURSOR_TYPE [M+H]+
PK$SPLASH: splash10-00di-3490000000-6cc9139115dc62fca25f
PK$ANNOTATION: m/z rel.int. formula exact_mass error(ppm) SMILES_of_ion HR_rules
  65.0383 22 [C5H8-3H]+ 65.038575 0(4.24) C(#CCC)C True
  77.0383 91 [C6H6-H]+ 77.038578 0(3.6) C=1C=CC=CC1 True
  92.0493 180 [C6H7N-H]+ 92.049472 0(1.87) NC=1C=CC=CC1 True
  94.0649 66 [C6H7N+H]+ 94.065123 0(2.37) NC=1C=CC=CC1 True
  104.0493 271 [C7H9N-3H]+ 104.049478 0(1.71) N=C(C#CC)C=CC True
PK$NUM_PEAK: 9
PK$PEAK: m/z int. rel.int.
  65.0383 3.1 22
  77.0383 13.1 91
  92.0493 25.8 180
  94.0649 9.4 66
  104.0493 39.0 271
  130.9818 11.2 78
  148.0086 10.6 74
  195.026 8.0 56
  224.0399 143.6 999
//
