ACCESSION: MSBNK-MSSJ-MSJ02781
RECORD_TITLE: Tebuthiuron; LC-ESI-QTOF; MS2; [M+H]+; CID; CE 20V
DATE: 2023.10.22
AUTHORS: Atsushi Yamamoto, Faculty of Environmental Studies, Tottori University of Environmental Studies, 1-1, Wakabadai-kita, Tottori City, Tottori 689-1111, Japan.
LICENSE: CC BY
COPYRIGHT: Atsushi Yamamoto, Faculty of Environmental Studies, Tottori University of Environmental Studies, 1-1, Wakabadai-kita, Tottori City, Tottori 689-1111, Japan.
COMMENT: This record was created by the financial support of MEXT/JSPS KAKENHI Grant Number 23HP8017 to the Mass Spectrometry Society of Japan.
CH$NAME: Tebuthiuron
CH$COMPOUND_CLASS: Non-natural product
CH$FORMULA: C9H16N4OS
CH$EXACT_MASS: 228.104482
CH$SMILES: CC(C)(C)C1=NN=C(S1)N(C)C(=O)NC
CH$IUPAC: InChI=1S/C9H16N4OS/c1-9(2,3)6-11-12-8(15-6)13(5)7(14)10-4/h1-5H3,(H,10,14)
CH$LINK: CAS 34014-18-1
CH$LINK: CHEMSPIDER 5190
CH$LINK: INCHIKEY HBPDKDSFLXWOAE-UHFFFAOYSA-N
CH$LINK: PUBCHEM CID:5383
AC$INSTRUMENT: X500R QTOF (AB Sciex LLC, MA, USA) coupled to ExionLC AD (AB Sciex LLC, MA, USA).
AC$INSTRUMENT_TYPE: LC-ESI-QTOF
AC$MASS_SPECTROMETRY: MS_TYPE MS2
AC$MASS_SPECTROMETRY: ION_MODE POSITIVE
AC$MASS_SPECTROMETRY: COLLISION_ENERGY 20 V
AC$MASS_SPECTROMETRY: COLLISION_GAS N2
AC$MASS_SPECTROMETRY: FRAGMENTATION_MODE CID
AC$MASS_SPECTROMETRY: IONIZATION ESI
AC$CHROMATOGRAPHY: COLUMN_NAME TSKgel ODS-100S 5 um, 2.1 mm × 250 mm, TOSOH
AC$CHROMATOGRAPHY: FLOW_GRADIENT 95/5 at 0 min, 95/5 at 3 min, 0/100 at 13 min, 0/100 at 23 min, 95/5 at 23.1 min, 95/5 at 28 min
AC$CHROMATOGRAPHY: FLOW_RATE 200 ul/min
AC$CHROMATOGRAPHY: RETENTION_TIME 13.4 min
AC$CHROMATOGRAPHY: SOLVENT A water with 20 mM formic acid aquatic solution
AC$CHROMATOGRAPHY: SOLVENT B methanol with 20 mM Formic acid methanolic solution
MS$FOCUSED_ION: PRECURSOR_M/Z 229.111759
MS$FOCUSED_ION: PRECURSOR_TYPE [M+H]+
PK$SPLASH: splash10-00b9-0970000000-9debde61bba5abf95ebc
PK$ANNOTATION: m/z rel.int. formula exact_mass error(ppm) SMILES_of_ion HR_rules
  89.0169 40 [C2H6N2S-H]+ 89.016796 0(1.17) N=C(S)NC True
  116.0277 172 [C3H5N3S+H]+ 116.027693 0(0.06) N=1N=C(SC1)NC True
  157.0669 64 [C6H11N3S]+ 157.066819 0(0.52) N=1N=C(SC1N)C(C)(C)C False
  172.0903 975 [C7H13N3S+H]+ 172.0903 0(0) N=1N=C(SC1NC)C(C)(C)C True
  229.1114 999 [C9H16N4OS+H]+ 229.111753 0(1.54) O=C(NC)N(C1=NN=C(S1)C(C)(C)C)C True
PK$NUM_PEAK: 5
PK$PEAK: m/z int. rel.int.
  89.0169 16.8 40
  116.0277 71.4 172
  157.0669 26.4 64
  172.0903 405.3 975
  229.1114 415.4 999
//
