ACCESSION: MSBNK-MSSJ-MSJ02213
RECORD_TITLE: Tralkoxydim; LC-ESI-QTOF; MS2; ESI; POSITIVE; [M+H]+; CE 30 V
DATE: 2022.03.14
AUTHORS: Atsushi Yamamoto, Faculty of Environmental Studies, Tottori University of Environmental Studies, 1-1, Wakabadai-kita, Tottori City, Tottori 689-1111, Japan.
LICENSE: CC BY
COPYRIGHT: Atsushi Yamamoto, Faculty of Environmental Studies, Tottori University of Environmental Studies, 1-1, Wakabadai-kita, Tottori City, Tottori 689-1111, Japan.
COMMENT: This record was created by the financial support of MEXT/JSPS KAKENHI Grant Number 22HP8019 to the Mass Spectrometry Society of Japan.
CH$NAME: Tralkoxydim
CH$COMPOUND_CLASS: Non-natural product
CH$FORMULA: C20H27NO3
CH$EXACT_MASS: 329.19909
CH$SMILES: CCON=C(CC)C1=C(O)CC(c2c(C)cc(C)cc2C)CC1=O
CH$IUPAC: InChI=1S/C20H27NO3/c1-6-16(21-24-7-2)20-17(22)10-15(11-18(20)23)19-13(4)8-12(3)9-14(19)5/h8-9,15,22H,6-7,10-11H2,1-5H3
CH$LINK: CAS 87820-88-0
CH$LINK: CHEMSPIDER 17215911
CH$LINK: INCHIKEY DQFPEYARZIQXRM-UHFFFAOYSA-N
CH$LINK: PUBCHEM CID:135474890
AC$INSTRUMENT: ExionLC AD, AB Sciex LLC, USA; X500R QTOF, AB Sciex LLC, USA.
AC$INSTRUMENT_TYPE: LC-ESI-QTOF
AC$MASS_SPECTROMETRY: MS_TYPE MS2
AC$MASS_SPECTROMETRY: ION_MODE POSITIVE
AC$MASS_SPECTROMETRY: COLLISION_ENERGY 30 V
AC$MASS_SPECTROMETRY: IONIZATION ESI
AC$CHROMATOGRAPHY: COLUMN_NAME AQ-C18HP 3 microm, 2.1 mm × 150 mm, GL Science (Tokyo Japan)
AC$CHROMATOGRAPHY: COLUMN_TEMPERATURE 40 C
AC$CHROMATOGRAPHY: FLOW_GRADIENT 95/5 at 0 min, 95/5 at 3 min, 0/100 at 13 min, 0/100 at 23 min, 95/5 at 23.1 min, 95/5 at 28 min
AC$CHROMATOGRAPHY: FLOW_RATE 200 microl/min
AC$CHROMATOGRAPHY: RETENTION_TIME 11.25, 11.54 min
AC$CHROMATOGRAPHY: SOLVENT A water with 2 mM Ammonium bicarbonate
AC$CHROMATOGRAPHY: SOLVENT B methanol with 2 mM Ammmonium bicarbonate
MS$FOCUSED_ION: PRECURSOR_M/Z 330.20637
MS$FOCUSED_ION: PRECURSOR_TYPE [M+H]+
PK$SPLASH: splash10-000j-4910000000-a33c717003c333ceb460
PK$ANNOTATION: m/z rel.int. formula exact_mass error(ppm) SMILES_of_ion HR_rules
  72.0447 95 [C3H7NO-H]+ 72.044391 0(4.29) N(OCC)=C True
  82.0656 54 [C3H5NO2-5H]+ 81.992354 0.073(892.52) ON=CC=CO True
  96.0444 481 [C4H7NO2-5H]+ 96.008002 0.036(378.97) OC=CC=NOC True
  98.0602 310 [C4H7NO2-3H]+ 98.023652 0.037(372.71) OC=CC=NOC True
  110.0603 131 [C5H9NO2-5H]+ 110.023658 0.037(332.93) OC(=CC=NOC)C True
  122.0603 205 [C5H7NO3-7H]+ 121.987263 0.073(598.36) O=CC(=CO)C=NOC True
  133.1015 104 [C10H14-H]+ 133.101169 0(2.49) C=1C(=CC(=C(C1C)C)C)C True
  136.0759 91 [C6H9NO3-7H]+ 136.002919 0.073(536.33) O=C(C(=CO)C=NOC)C True
  138.0544 999 [C6H9NO3-5H]+ 138.018569 0.036(259.54) O=C(C(=CO)C=NOC)C True
  152.0707 147 [C7H11NO3-5H]+ 152.034225 0.036(239.86) O=C(C(C=NOC)=C(O)C)C True
  164.0708 121 [C8H13NO3-7H]+ 164.034215 0.037(222.98) O=C(C(=C(O)C)C(=NOC)C)C True
  267.1622 100 [C16H21NO3-8H]+ 267.088981 0.073(274.06) O=C(C(=CO)C=NOC)CCC=1C(=CC(=CC1C)C)C False
  284.1646 126 [C17H21NO3-3H]+ 284.128106 0.036(128.42) O=C1C(C=NOC)=C(O)CC(C=2C(=CC(=CC2C)C)C)C1 True
PK$NUM_PEAK: 14
PK$PEAK: m/z int. rel.int.
  72.0447 9.4623 95
  82.0656 5.4554 54
  96.0444 48.1683 481
  98.0602 31.0107 310
  110.0603 13.103 131
  122.0603 20.5126 205
  133.1015 10.3667 104
  136.0759 9.1432 91
  138.0544 100 999
  140.0708 11.1274 111
  152.0707 14.754 147
  164.0708 12.1229 121
  267.1622 10.0157 100
  284.1646 12.6552 126
//
