ACCESSION: MSBNK-MSSJ-MSJ02025
RECORD_TITLE: Glycitein; ESI-QTOF; MS2; POSITIVE; [M+H]+; CID; 40 V
DATE: 2021.10.17
AUTHORS: Atsushi Yamamoto, Faculty of Environmental Studies, Tottori University of Environmental Studies, 1-1, Wakabadai-kita, Tottori City, Tottori 689-1111, Japan.
LICENSE: CC BY
COPYRIGHT: Atsushi Yamamoto, Faculty of Environmental Studies, Tottori University of Environmental Studies, 1-1, Wakabadai-kita, Tottori City, Tottori 689-1111, Japan.
COMMENT: The sample was injected by direct infusion.
COMMENT: This record was created by the financial support of MEXT/JSPS KAKENHI Grant Number 21HP8020 to the Mass Spectrometry Society of Japan.
CH$NAME: Glycitein
CH$COMPOUND_CLASS: Natural product; Isoflavone
CH$FORMULA: C16H12O5
CH$EXACT_MASS: 284.06847
CH$SMILES: COC1=C(C=C2C(=C1)C(=O)C(=CO2)C3=CC=C(C=C3)O)O
CH$IUPAC: InChI=1S/C16H12O5/c1-20-15-6-11-14(7-13(15)18)21-8-12(16(11)19)9-2-4-10(17)5-3-9/h2-8,17-18H,1H3
CH$LINK: CAS 40957-83-3
CH$LINK: CHEBI CHEBI:34778
CH$LINK: CHEMSPIDER 4476508
CH$LINK: INCHIKEY DXYUAIFZCFRPTH-UHFFFAOYSA-N
CH$LINK: PUBCHEM CID:5317750
AC$INSTRUMENT: X500R QTOF (AB Sciex LLC, USA)
AC$INSTRUMENT_TYPE: ESI-QTOF
AC$MASS_SPECTROMETRY: MS_TYPE MS2
AC$MASS_SPECTROMETRY: ION_MODE POSITIVE
AC$MASS_SPECTROMETRY: COLLISION_ENERGY 40 V
AC$MASS_SPECTROMETRY: FRAGMENTATION_MODE CID
AC$MASS_SPECTROMETRY: IONIZATION ESI
MS$FOCUSED_ION: PRECURSOR_M/Z 285.07575
MS$FOCUSED_ION: PRECURSOR_TYPE [M+H]+
PK$SPLASH: splash10-00dl-0390000000-ab1f82bcf3d5a75838ab
PK$NUM_PEAK: 15
PK$PEAK: m/z int. rel.int.
  118.0411 2.8229 113
  124.0152 1.4277 57
  125.0231 1.0795 43
  139.0387 1.1782 47
  141.0696 2.1974 88
  168.0566 3.3303 133
  169.0645 4.3439 173
  196.0517 2.456 98
  197.0593 6.7548 270
  214.0623 2.3503 94
  225.0544 5.6397 225
  229.0857 3.7139 148
  242.0569 23.4172 935
  270.0518 25.0281 999
  285.0753 6.5375 261
//
