ACCESSION: MSBNK-MSSJ-MSJ02905
RECORD_TITLE: Indanofan; LC-ESI-QTOF; MS2; [M+H]+; CID; CE 50V
DATE: 2023.10.22
AUTHORS: Atsushi Yamamoto, Faculty of Environmental Studies, Tottori University of Environmental Studies, 1-1, Wakabadai-kita, Tottori City, Tottori 689-1111, Japan.
LICENSE: CC BY
COPYRIGHT: Atsushi Yamamoto, Faculty of Environmental Studies, Tottori University of Environmental Studies, 1-1, Wakabadai-kita, Tottori City, Tottori 689-1111, Japan.
COMMENT: This record was created by the financial support of MEXT/JSPS KAKENHI Grant Number 23HP8017 to the Mass Spectrometry Society of Japan.
CH$NAME: Indanofan
CH$COMPOUND_CLASS: Non-natural product
CH$FORMULA: C20H17ClO3
CH$EXACT_MASS: 340.086622
CH$SMILES: CCC1(C(=O)C2=CC=CC=C2C1=O)CC3(CO3)C4=CC(=CC=C4)Cl
CH$IUPAC: InChI=1S/C20H17ClO3/c1-2-19(17(22)15-8-3-4-9-16(15)18(19)23)11-20(12-24-20)13-6-5-7-14(21)10-13/h3-10H,2,11-12H2,1H3
CH$LINK: CAS 133220-30-1
CH$LINK: CHEMSPIDER 9221265
CH$LINK: INCHIKEY PMAAYIYCDXGUAP-UHFFFAOYSA-N
CH$LINK: PUBCHEM CID:11046097
AC$INSTRUMENT: X500R QTOF (AB Sciex LLC, MA, USA) coupled to ExionLC AD (AB Sciex LLC, MA, USA).
AC$INSTRUMENT_TYPE: LC-ESI-QTOF
AC$MASS_SPECTROMETRY: MS_TYPE MS2
AC$MASS_SPECTROMETRY: ION_MODE POSITIVE
AC$MASS_SPECTROMETRY: COLLISION_ENERGY 50 V
AC$MASS_SPECTROMETRY: COLLISION_GAS N2
AC$MASS_SPECTROMETRY: FRAGMENTATION_MODE CID
AC$MASS_SPECTROMETRY: IONIZATION ESI
AC$CHROMATOGRAPHY: COLUMN_NAME TSKgel ODS-100S 5 um, 2.1 mm × 250 mm, TOSOH
AC$CHROMATOGRAPHY: FLOW_GRADIENT 95/5 at 0 min, 95/5 at 3 min, 0/100 at 13 min, 0/100 at 23 min, 95/5 at 23.1 min, 95/5 at 28 min
AC$CHROMATOGRAPHY: FLOW_RATE 200 ul/min
AC$CHROMATOGRAPHY: RETENTION_TIME 15.2 min
AC$CHROMATOGRAPHY: SOLVENT A water with 20 mM formic acid aquatic solution
AC$CHROMATOGRAPHY: SOLVENT B methanol with 20 mM Formic acid methanolic solution
MS$FOCUSED_ION: PRECURSOR_M/Z 341.093899
MS$FOCUSED_ION: PRECURSOR_TYPE [M+H]+
PK$SPLASH: splash10-004i-0900000000-38f46eea50b159021093
PK$ANNOTATION: m/z rel.int. formula exact_mass error(ppm) SMILES_of_ion HR_rules
  43.0176 60 [C2H4O-H]+ 43.017841 0(5.6) O1CC1 True
  77.0386 112 [C6H6-H]+ 77.038578 0(0.29) C=1C=CC=CC1 True
  89.0386 57 [C7H8-3H]+ 89.038575 0(0.28) C=1C=CC(=CC1)C True
  91.0541 392 [C7H8-H]+ 91.054226 0(1.38) C=1C=CC(=CC1)C True
  103.054 415 [C8H10-3H]+ 103.054223 0(2.17) C=1C=CC(=CC1)CC True
  105.0335 197 [C7H6O-H]+ 105.033489 0(0.11) O=CC=1C=CC=CC1 True
  115.054 552 [C9H12-5H]+ 115.054229 0(1.99) C=1C=CC(=CC1)C(C)C True
  117.0697 254 [C9H12-3H]+ 117.069879 0(1.53) C=1C=CC(=CC1)C(C)C True
  131.0491 205 [C9H10O-3H]+ 131.049142 0(0.32) O=C(C=1C=CC=CC1)CC True
  133.0285 53 [C8H6O2-H]+ 133.0284 0(0.75) O=CC=1C=CC=CC1C=O True
  139.0307 135 [C8H9Cl-H]+ 139.030903 0(1.46) ClC1=CC=CC(=C1)CC True
  141.07 487 [C11H16-7H]+ 141.069875 0(0.89) C=1C=CC(=CC1)CCCCC True
  145.0645 173 [C10H12O-3H]+ 145.064798 0(2.05) O=C(C=1C=CC=CC1)CCC True
  159.0441 587 [C10H8O2-H]+ 159.044056 0(0.28) O=C1C=2C=CC=CC2C(=O)C1C True
  159.0799 63 [C11H14O-3H]+ 159.080438 0.001(3.38) O=C(C=1C=CC=CC1)C(C)CC True
  169.0647 318 [C12H16O-7H]+ 169.064793 0(0.55) O=C(C=1C=CC=CC1)C(CC)CC True
  173.0599 610 [C11H10O2-H]+ 173.059711 0(1.09) O=C1C=2C=CC=CC2C(=O)C1CC True
  175.0754 999 [C11H10O2+H]+ 175.075361 0(0.22) O=C1C=2C=CC=CC2C(=O)C1CC True
PK$NUM_PEAK: 30
PK$PEAK: m/z int. rel.int.
  43.0176 6.5 60
  77.0386 12.1 112
  89.0386 6.1 57
  91.0541 42.3 392
  103.054 44.7 415
  105.0335 21.2 197
  115.054 59.5 552
  116.0618 12.2 113
  117.0697 27.4 254
  125.0151 56.3 522
  127.0541 10.4 97
  128.062 38.5 357
  129.0697 18.0 167
  131.0491 22.1 205
  131.0853 50.6 469
  132.057 14.3 132
  133.0285 5.7 53
  139.0307 14.5 135
  141.07 52.4 487
  144.0571 8.9 82
  145.0645 18.6 173
  155.0509 26.6 246
  159.0441 63.2 587
  159.0799 6.8 63
  160.0517 14.4 134
  169.0647 34.3 318
  173.0599 65.7 610
  175.0754 107.6 999
  231.081 8.9 83
  241.101 9.3 86
//
