ACCESSION: MSBNK-MSSJ-MSJ01598
RECORD_TITLE: Clobazam; LC-ESI-QQ; MS2; ESI; POSITIVE; CE 40 V; [M+H]+
DATE: 2023.03.24
AUTHORS: Koji Yamaguchi, Department of Legal Medicine, Nippon Medical School, 1715 Kamagari, Inzai-shi, Chiba 270-1694, Japan.
LICENSE: CC BY
COPYRIGHT: Koji Yamaguchi, Department of Legal Medicine, Nippon Medical School, 1715 Kamagari, Inzai-shi, Chiba 270-1694, Japan.
COMMENT: Original data are in the 20230324-3.xlsx file.
COMMENT: This record was created by the financial support of MEXT/JSPS KAKENHI Grant Number 23HP8017 to the Mass Spectrometry Society of Japan.
CH$NAME: Clobazam
CH$COMPOUND_CLASS: Non-natural product
CH$FORMULA: C16H13ClN2O2
CH$EXACT_MASS: 300.06655
CH$SMILES: CN1C(=O)CC(=O)N(C2=C1C=CC(=C2)Cl)C3=CC=CC=C3
CH$IUPAC: InChI=1S/C16H13ClN2O2/c1-18-13-8-7-11(17)9-14(13)19(16(21)10-15(18)20)12-5-3-2-4-6-12/h2-9H,10H2,1H3
CH$LINK: CAS 22316-47-8
CH$LINK: CHEMSPIDER 2687
CH$LINK: INCHIKEY CXOXHMZGEKVPMT-UHFFFAOYSA-N
CH$LINK: PUBCHEM CID:2789
AC$INSTRUMENT: LCMS-8040 coupled to Nexera XR (Shimadzu, Kyoto, Japan).
AC$INSTRUMENT_TYPE: LC-ESI-QQ
AC$MASS_SPECTROMETRY: MS_TYPE MS2
AC$MASS_SPECTROMETRY: ION_MODE POSITIVE
AC$MASS_SPECTROMETRY: COLLISION_ENERGY 40 V
AC$MASS_SPECTROMETRY: IONIZATION ESI
AC$CHROMATOGRAPHY: COLUMN_NAME InertSustain C18 ID 2.1 microm, 2.1 x 100 mm (GL Science, Tokyo, Japan).
AC$CHROMATOGRAPHY: FLOW_GRADIENT 90/10 at 0 min, linear gradient from 90/10 to 2/98 at 0-9 min, 2/98 at 9-12 min, linear gradient from 2/98 to 90/10 at 12-12.1 min, 90/10 at 12.1-15 min.
AC$CHROMATOGRAPHY: FLOW_RATE 200 microl/min
AC$CHROMATOGRAPHY: RETENTION_TIME 8.818 min
AC$CHROMATOGRAPHY: SOLVENT A water with 10 mM ammonium formate
AC$CHROMATOGRAPHY: SOLVENT B methanol
MS$FOCUSED_ION: PRECURSOR_M/Z 301.07383
MS$FOCUSED_ION: PRECURSOR_TYPE [M+H]+
PK$SPLASH: splash10-05fr-1690000000-1ca7e9916b1d1e281dfe
PK$NUM_PEAK: 35
PK$PEAK: m/z int. rel.int.
  43 753 25
  69 2236 75
  77 6149 208
  90 753 25
  91 772 26
  105 17339 585
  111 748 25
  112 748 25
  114 298 10
  117 376 13
  118 2027 68
  119 753 25
  127 753 25
  148 1507 51
  153 11513 389
  155 376 13
  166 686 23
  167 1851 62
  179 586 20
  181 3678 124
  182 4891 165
  183 1439 49
  195 5401 182
  200 2750 93
  206 374 13
  208 753 25
  214 2883 97
  215 7632 258
  216 8155 275
  217 661 22
  223 9450 319
  224 29596 999
  244 4171 141
  255 376 13
  259 12275 414
//
