ACCESSION: MSBNK-MSSJ-MSJ01868
RECORD_TITLE: Propyphenazone; LC-ESI-QQ; MS2; ESI; POSITIVE; CID; CE 10 V; [M+H]+
DATE: 2023.03.28
AUTHORS: Koji Yamaguchi, Department of Legal Medicine, Nippon Medical School, 1715 Kamagari, Inzai-shi, Chiba 270-1694, Japan.
LICENSE: CC BY
COPYRIGHT: Koji Yamaguchi, Department of Legal Medicine, Nippon Medical School, 1715 Kamagari, Inzai-shi, Chiba 270-1694, Japan.
COMMENT: Original data are in the 20230328-4.xlsx file.
COMMENT: This record was created by the financial support of MEXT/JSPS KAKENHI Grant Number 23HP8017 to the Mass Spectrometry Society of Japan.
CH$NAME: Propyphenazone
CH$COMPOUND_CLASS: Non-natural product
CH$FORMULA: C14H18N2O
CH$EXACT_MASS: 230.141905
CH$SMILES: CC1=C(C(=O)N(N1C)C2=CC=CC=C2)C(C)C
CH$IUPAC: InChI=1S/C14H18N2O/c1-10(2)13-11(3)15(4)16(14(13)17)12-8-6-5-7-9-12/h5-10H,1-4H3
CH$LINK: CAS 479-92-5
CH$LINK: CHEMSPIDER 3646
CH$LINK: INCHIKEY PXWLVJLKJGVOKE-UHFFFAOYSA-N
CH$LINK: PUBCHEM CID:3778
AC$INSTRUMENT: LCMS-8040 coupled to Nexera XR (Shimadzu, Kyoto, Japan).
AC$INSTRUMENT_TYPE: LC-ESI-QQ
AC$MASS_SPECTROMETRY: MS_TYPE MS2
AC$MASS_SPECTROMETRY: ION_MODE POSITIVE
AC$MASS_SPECTROMETRY: COLLISION_ENERGY 10 V
AC$MASS_SPECTROMETRY: FRAGMENTATION_MODE CID
AC$MASS_SPECTROMETRY: IONIZATION ESI
AC$CHROMATOGRAPHY: COLUMN_NAME InertSustain C18 ID 2.1 microm, 2.1 x 100 mm (GL Science, Tokyo, Japan).
AC$CHROMATOGRAPHY: FLOW_GRADIENT 90/10 at 0 min, linear gradient from 90/10 to 2/98 at 0-9 min, 2/98 at 9-12 min, linear gradient from 2/98 to 90/10 at 12-12.1 min, 90/10 at 12.1-15 min.
AC$CHROMATOGRAPHY: FLOW_RATE 200 microl/min
AC$CHROMATOGRAPHY: RETENTION_TIME 8.601 min
AC$CHROMATOGRAPHY: SOLVENT A water with 10 mM ammonium formate
AC$CHROMATOGRAPHY: SOLVENT B methanol
MS$FOCUSED_ION: PRECURSOR_M/Z 231.149182
MS$FOCUSED_ION: PRECURSOR_TYPE [M+H]+
PK$SPLASH: splash10-001i-0090000000-7b05473157cbd4cf4b5b
PK$NUM_PEAK: 3
PK$PEAK: m/z int. rel.int.
  189.2 32221 13
  214.2 34825 14
  231.2 2500742 999
//
