ACCESSION: MSBNK-MSSJ-MSJ00385
RECORD_TITLE: Poricoic acid B; ESI-QTOF; MS2; NEGATIVE; [M-H]-; CID; 20 V
DATE: 2021.02.10
AUTHORS: Atsushi Yamamoto, Faculty of Environmental Studies, Tottori University of Environmental Studies, 1-1, Wakabadai-kita, Tottori City, Tottori 689-1111, Japan.
LICENSE: CC BY
COPYRIGHT: Atsushi Yamamoto, Faculty of Environmental Studies, Tottori University of Environmental Studies, 1-1, Wakabadai-kita, Tottori City, Tottori 689-1111, Japan.
COMMENT: The sample was injected by direct infusion.
COMMENT: This record was created by the financial support of MEXT/JSPS KAKENHI Grant Number 20HP8016 to the Mass Spectrometry Society of Japan.
CH$NAME: Poricoic acid B
CH$COMPOUND_CLASS: Non-natural product
CH$FORMULA: C30H44O5
CH$EXACT_MASS: 484.31888
CH$SMILES: CC(=CCC[C@H]([C@H]1[C@@H](C[C@@]2([C@@]1(CC=C3C2=CC[C@H]([C@]3(C)CCC(=O)O)C(=C)C)C)C)O)C(=O)O)C
CH$IUPAC: InChI=1S/C30H44O5/c1-18(2)9-8-10-20(27(34)35)26-24(31)17-30(7)23-12-11-21(19(3)4)28(5,15-14-25(32)33)22(23)13-16-29(26,30)6/h9,12-13,20-21,24,26,31H,3,8,10-11,14-17H2,1-2,4-7H3,(H,32,33)(H,34,35)/t20-,21+,24-,26+,28+,29-,30+/m1/s1
CH$LINK: CAS 137551-39-4
CH$LINK: CHEMSPIDER 4581935
CH$LINK: INCHIKEY NXAZWYWJZDFISF-KXGBKNTBSA-N
CH$LINK: PUBCHEM CID:5471852
AC$INSTRUMENT: X500R QTOF (AB Sciex LLC, USA)
AC$INSTRUMENT_TYPE: ESI-QTOF
AC$MASS_SPECTROMETRY: MS_TYPE MS2
AC$MASS_SPECTROMETRY: ION_MODE NEGATIVE
AC$MASS_SPECTROMETRY: COLLISION_ENERGY 20 V
AC$MASS_SPECTROMETRY: FRAGMENTATION_MODE CID
AC$MASS_SPECTROMETRY: IONIZATION ESI
MS$FOCUSED_ION: PRECURSOR_M/Z 483.31160
MS$FOCUSED_ION: PRECURSOR_TYPE [M-H]-
PK$SPLASH: splash10-001i-0000900000-f464eb460c759ba97f17
PK$NUM_PEAK: 4
PK$PEAK: m/z int. rel.int.
  409.2742 47.7 111
  410.2823 26.0 60
  411.2901 24.1 56
  483.3088 430.0 999
//
