ACCESSION: MSBNK-MSSJ-MSJ02919
RECORD_TITLE: Thiodicarb; LC-ESI-QTOF; MS2; [M+H]+; CID; CE 50V
DATE: 2023.10.22
AUTHORS: Atsushi Yamamoto, Faculty of Environmental Studies, Tottori University of Environmental Studies, 1-1, Wakabadai-kita, Tottori City, Tottori 689-1111, Japan.
LICENSE: CC BY
COPYRIGHT: Atsushi Yamamoto, Faculty of Environmental Studies, Tottori University of Environmental Studies, 1-1, Wakabadai-kita, Tottori City, Tottori 689-1111, Japan.
COMMENT: This record was created by the financial support of MEXT/JSPS KAKENHI Grant Number 23HP8017 to the Mass Spectrometry Society of Japan.
CH$NAME: Thiodicarb
CH$COMPOUND_CLASS: Non-natural product
CH$FORMULA: C10H18N4O4S3
CH$EXACT_MASS: 354.049019
CH$SMILES: C/C(=N\OC(=O)N(SN(C(=O)O/N=C(/SC)\C)C)C)/SC
CH$IUPAC: InChI=1S/C10H18N4O4S3/c1-7(19-5)11-17-9(15)13(3)21-14(4)10(16)18-12-8(2)20-6/h1-6H3/b11-7+,12-8+
CH$LINK: CAS 59669-26-0
CH$LINK: CHEMSPIDER 7875353
CH$LINK: INCHIKEY XDOTVMNBCQVZKG-MKICQXMISA-N
CH$LINK: PUBCHEM CID:9601227
AC$INSTRUMENT: X500R QTOF (AB Sciex LLC, MA, USA) coupled to ExionLC AD (AB Sciex LLC, MA, USA).
AC$INSTRUMENT_TYPE: LC-ESI-QTOF
AC$MASS_SPECTROMETRY: MS_TYPE MS2
AC$MASS_SPECTROMETRY: ION_MODE POSITIVE
AC$MASS_SPECTROMETRY: COLLISION_ENERGY 50 V
AC$MASS_SPECTROMETRY: COLLISION_GAS N2
AC$MASS_SPECTROMETRY: FRAGMENTATION_MODE CID
AC$MASS_SPECTROMETRY: IONIZATION ESI
AC$CHROMATOGRAPHY: COLUMN_NAME TSKgel ODS-100S 5 um, 2.1 mm × 250 mm, TOSOH
AC$CHROMATOGRAPHY: FLOW_GRADIENT 95/5 at 0 min, 95/5 at 3 min, 0/100 at 13 min, 0/100 at 23 min, 95/5 at 23.1 min, 95/5 at 28 min
AC$CHROMATOGRAPHY: FLOW_RATE 200 ul/min
AC$CHROMATOGRAPHY: RETENTION_TIME 13.2 min
AC$CHROMATOGRAPHY: SOLVENT A water with 20 mM formic acid aquatic solution
AC$CHROMATOGRAPHY: SOLVENT B methanol with 20 mM Formic acid methanolic solution
MS$FOCUSED_ION: PRECURSOR_M/Z 355.056296
MS$FOCUSED_ION: PRECURSOR_TYPE [M+H]+
PK$SPLASH: splash10-000i-9000000000-9b551dc1d2ab80079e69
PK$ANNOTATION: m/z rel.int. formula exact_mass error(ppm) SMILES_of_ion HR_rules
  42.0336 96 [C2H5N-H]+ 42.033825 0(5.34) N=CC True
  46.9948 137 [CH4S-H]+ 46.994999 0(4.23) SC True
  59.99 66 [CH3NS-H]+ 59.990245 0(4.09) N=CS True
  62.0057 163 [CH3NS+H]+ 62.005896 0(3.15) N=CS True
  72.9979 191 [C2H5NS-2H]+ 72.998068 0(2.31) N=C(S)C False
  88.0211 999 [C3H7NS-H]+ 88.021549 0(5.1) N=C(SC)C True
PK$NUM_PEAK: 9
PK$PEAK: m/z int. rel.int.
  42.0336 18.5 96
  46.9948 26.6 137
  56.0493 14.5 75
  59.99 12.8 66
  62.0057 31.7 163
  72.9979 37.1 191
  78.9669 38.2 197
  88.0211 193.7 999
  107.9934 16.9 87
//
