ACCESSION: MSBNK-MSSJ-MSJ02762
RECORD_TITLE: Chloridazon; LC-ESI-QTOF; MS2; [M+H]+; CID; CE 40V
DATE: 2023.10.22
AUTHORS: Atsushi Yamamoto, Faculty of Environmental Studies, Tottori University of Environmental Studies, 1-1, Wakabadai-kita, Tottori City, Tottori 689-1111, Japan.
LICENSE: CC BY
COPYRIGHT: Atsushi Yamamoto, Faculty of Environmental Studies, Tottori University of Environmental Studies, 1-1, Wakabadai-kita, Tottori City, Tottori 689-1111, Japan.
COMMENT: This record was created by the financial support of MEXT/JSPS KAKENHI Grant Number 23HP8017 to the Mass Spectrometry Society of Japan.
CH$NAME: Chloridazon
CH$COMPOUND_CLASS: Non-natural product
CH$FORMULA: C10H8ClN3O
CH$EXACT_MASS: 221.03559
CH$SMILES: C1=CC=C(C=C1)N2C(=O)C(=C(C=N2)N)Cl
CH$IUPAC: InChI=1S/C10H8ClN3O/c11-9-8(12)6-13-14(10(9)15)7-4-2-1-3-5-7/h1-6H,12H2
CH$LINK: CAS 1698-60-8
CH$LINK: CHEMSPIDER 14790
CH$LINK: INCHIKEY WYKYKTKDBLFHCY-UHFFFAOYSA-N
CH$LINK: PUBCHEM CID:15546
AC$INSTRUMENT: X500R QTOF (AB Sciex LLC, MA, USA) coupled to ExionLC AD (AB Sciex LLC, MA, USA).
AC$INSTRUMENT_TYPE: LC-ESI-QTOF
AC$MASS_SPECTROMETRY: MS_TYPE MS2
AC$MASS_SPECTROMETRY: ION_MODE POSITIVE
AC$MASS_SPECTROMETRY: COLLISION_ENERGY 40 V
AC$MASS_SPECTROMETRY: COLLISION_GAS N2
AC$MASS_SPECTROMETRY: FRAGMENTATION_MODE CID
AC$MASS_SPECTROMETRY: IONIZATION ESI
AC$CHROMATOGRAPHY: COLUMN_NAME TSKgel ODS-100S 5 um, 2.1 mm × 250 mm, TOSOH
AC$CHROMATOGRAPHY: FLOW_GRADIENT 95/5 at 0 min, 95/5 at 3 min, 0/100 at 13 min, 0/100 at 23 min, 95/5 at 23.1 min, 95/5 at 28 min
AC$CHROMATOGRAPHY: FLOW_RATE 200 ul/min
AC$CHROMATOGRAPHY: RETENTION_TIME 11.7 min
AC$CHROMATOGRAPHY: SOLVENT A water with 20 mM formic acid aquatic solution
AC$CHROMATOGRAPHY: SOLVENT B methanol with 20 mM Formic acid methanolic solution
MS$FOCUSED_ION: PRECURSOR_M/Z 222.042867
MS$FOCUSED_ION: PRECURSOR_TYPE [M+H]+
PK$SPLASH: splash10-0fbc-9500000000-71840fcc756191f720af
PK$ANNOTATION: m/z rel.int. formula exact_mass error(ppm) SMILES_of_ion HR_rules
  39.0227 35 [C3H6-3H]+ 39.022928 0(5.83) C=CC True
  55.0288 71 [C2H6N2-3H]+ 55.029073 0(4.96) N=CCN True
  77.0384 999 [C6H6-H]+ 77.038578 0(2.31) C=1C=CC=CC1 True
  87.9947 208 [C3H4ClN-H]+ 87.994854 0(1.75) ClC=CC=N True
  92.0493 876 [C6H7N-H]+ 92.049472 0(1.87) NC=1C=CC=CC1 True
  94.0649 208 [C6H7N+H]+ 94.065123 0(2.37) NC=1C=CC=CC1 True
  100.9898 265 [C3H5ClN2-3H]+ 100.990098 0(2.95) ClC=C(N)C=N True
  128.985 267 [C4H3ClN2O-H]+ 128.985019 0(0.15) O=C1NN=CC=C1Cl True
  146.0115 433 [C4H4ClN3O+H]+ 146.011564 0(0.44) O=C1NN=CC(N)=C1Cl True
  222.043 337 [C10H8ClN3O+H]+ 222.04286 0(0.63) O=C1C(Cl)=C(N)C=NN1C=2C=CC=CC2 True
PK$NUM_PEAK: 20
PK$PEAK: m/z int. rel.int.
  39.0227 2.5 35
  51.0228 5.7 81
  53.0382 3.2 45
  55.0288 5.0 71
  65.0385 35.3 499
  77.0384 70.6 999
  87.9947 14.7 208
  92.0493 61.9 876
  93.0572 12.6 178
  94.0649 14.7 208
  95.0488 6.2 88
  100.9898 18.7 265
  104.0493 46.0 651
  105.0447 8.1 114
  128.985 18.9 267
  130.0651 9.1 129
  146.0115 30.6 433
  150.0106 6.5 92
  193.0289 7.5 106
  222.043 23.8 337
//
