ACCESSION: MSBNK-MSSJ-MSJ02644
RECORD_TITLE: Thidiazuron; LC-ESI-QTOF; MS2; [M+H]+; CID; CE 10V
DATE: 2023.04.05
AUTHORS: Atsushi Yamamoto, Faculty of Environmental Studies, Tottori University of Environmental Studies, 1-1, Wakabadai-kita, Tottori City, Tottori 689-1111, Japan.
LICENSE: CC BY
COPYRIGHT: Atsushi Yamamoto, Faculty of Environmental Studies, Tottori University of Environmental Studies, 1-1, Wakabadai-kita, Tottori City, Tottori 689-1111, Japan.
COMMENT: This record was created by the financial support of MEXT/JSPS KAKENHI Grant Number 23HP8017 to the Mass Spectrometry Society of Japan.
CH$NAME: Thidiazuron
CH$COMPOUND_CLASS: Non-natural product
CH$FORMULA: C9H8N4OS
CH$EXACT_MASS: 220.041882
CH$SMILES: C1=CC=C(C=C1)NC(=O)NC2=CN=NS2
CH$IUPAC: InChI=1S/C9H8N4OS/c14-9(12-8-6-10-13-15-8)11-7-4-2-1-3-5-7/h1-6H,(H2,11,12,14)
CH$LINK: CAS 51707-55-2
CH$LINK: CHEMSPIDER 36635
CH$LINK: INCHIKEY HFCYZXMHUIHAQI-UHFFFAOYSA-N
CH$LINK: PUBCHEM CID:40087
AC$INSTRUMENT: X500R QTOF (AB Sciex LLC, MA, USA) coupled to ExionLC AD (AB Sciex LLC, MA, USA).
AC$INSTRUMENT_TYPE: LC-ESI-QTOF
AC$MASS_SPECTROMETRY: MS_TYPE MS2
AC$MASS_SPECTROMETRY: ION_MODE POSITIVE
AC$MASS_SPECTROMETRY: COLLISION_ENERGY 10 V
AC$MASS_SPECTROMETRY: COLLISION_GAS N2
AC$MASS_SPECTROMETRY: FRAGMENTATION_MODE CID
AC$MASS_SPECTROMETRY: IONIZATION ESI
AC$CHROMATOGRAPHY: COLUMN_NAME AQ-C18HP 3 microm, 2.1 mm × 150 mm (GL Science, Tokyo, Japan).
AC$CHROMATOGRAPHY: FLOW_GRADIENT 90/10 at 0 min, 90/10 at 8 min, 0/100 at 23 min, 0/100 at 30 min, 90/10 at 30.1 min, 90/10 at 40 min
AC$CHROMATOGRAPHY: FLOW_RATE 200 microL/min
AC$CHROMATOGRAPHY: RETENTION_TIME 21.5 min
AC$CHROMATOGRAPHY: SOLVENT A water with 2 mM Ammonium bicarbonate
AC$CHROMATOGRAPHY: SOLVENT B methanol with 2 mM Ammmonium bicarbonate
MS$FOCUSED_ION: PRECURSOR_M/Z 221.049159
MS$FOCUSED_ION: PRECURSOR_TYPE [M+H]+
PK$SPLASH: splash10-00di-0190000000-baa3b19c2004eb457ad3
PK$ANNOTATION: m/z rel.int. formula exact_mass error(ppm) SMILES_of_ion HR_rules
  94.0651 22 [C6H7N+H]+ 94.065123 0(0.24) NC=1C=CC=CC1 True
  102.012 114 [C2H3N3S+H]+ 102.012045 0(0.44) N1=NC=C(S1)N True
  127.9915 23 [C3H3N3OS-H]+ 127.991306 0(1.52) O=CNC=1SN=NC1 True
  221.049 999 [C9H8N4OS+H]+ 221.049162 0(0.73) O=C(NC=1SN=NC1)NC=2C=CC=CC2 True
PK$NUM_PEAK: 4
PK$PEAK: m/z int. rel.int.
  94.0651 3.1 22
  102.012 15.9 114
  127.9915 3.2 23
  221.049 139.5 999
//
