ACCESSION: MSBNK-MSSJ-MSJ02902
RECORD_TITLE: Indanofan; LC-ESI-QTOF; MS2; [M+H]+; CID; CE 20V
DATE: 2023.10.22
AUTHORS: Atsushi Yamamoto, Faculty of Environmental Studies, Tottori University of Environmental Studies, 1-1, Wakabadai-kita, Tottori City, Tottori 689-1111, Japan.
LICENSE: CC BY
COPYRIGHT: Atsushi Yamamoto, Faculty of Environmental Studies, Tottori University of Environmental Studies, 1-1, Wakabadai-kita, Tottori City, Tottori 689-1111, Japan.
COMMENT: This record was created by the financial support of MEXT/JSPS KAKENHI Grant Number 23HP8017 to the Mass Spectrometry Society of Japan.
CH$NAME: Indanofan
CH$COMPOUND_CLASS: Non-natural product
CH$FORMULA: C20H17ClO3
CH$EXACT_MASS: 340.086622
CH$SMILES: CCC1(C(=O)C2=CC=CC=C2C1=O)CC3(CO3)C4=CC(=CC=C4)Cl
CH$IUPAC: InChI=1S/C20H17ClO3/c1-2-19(17(22)15-8-3-4-9-16(15)18(19)23)11-20(12-24-20)13-6-5-7-14(21)10-13/h3-10H,2,11-12H2,1H3
CH$LINK: CAS 133220-30-1
CH$LINK: CHEMSPIDER 9221265
CH$LINK: INCHIKEY PMAAYIYCDXGUAP-UHFFFAOYSA-N
CH$LINK: PUBCHEM CID:11046097
AC$INSTRUMENT: X500R QTOF (AB Sciex LLC, MA, USA) coupled to ExionLC AD (AB Sciex LLC, MA, USA).
AC$INSTRUMENT_TYPE: LC-ESI-QTOF
AC$MASS_SPECTROMETRY: MS_TYPE MS2
AC$MASS_SPECTROMETRY: ION_MODE POSITIVE
AC$MASS_SPECTROMETRY: COLLISION_ENERGY 20 V
AC$MASS_SPECTROMETRY: COLLISION_GAS N2
AC$MASS_SPECTROMETRY: FRAGMENTATION_MODE CID
AC$MASS_SPECTROMETRY: IONIZATION ESI
AC$CHROMATOGRAPHY: COLUMN_NAME TSKgel ODS-100S 5 um, 2.1 mm × 250 mm, TOSOH
AC$CHROMATOGRAPHY: FLOW_GRADIENT 95/5 at 0 min, 95/5 at 3 min, 0/100 at 13 min, 0/100 at 23 min, 95/5 at 23.1 min, 95/5 at 28 min
AC$CHROMATOGRAPHY: FLOW_RATE 200 ul/min
AC$CHROMATOGRAPHY: RETENTION_TIME 15.2 min
AC$CHROMATOGRAPHY: SOLVENT A water with 20 mM formic acid aquatic solution
AC$CHROMATOGRAPHY: SOLVENT B methanol with 20 mM Formic acid methanolic solution
MS$FOCUSED_ION: PRECURSOR_M/Z 341.093899
MS$FOCUSED_ION: PRECURSOR_TYPE [M+H]+
PK$SPLASH: splash10-004r-0910000000-2a218f9f1823821b4e86
PK$ANNOTATION: m/z rel.int. formula exact_mass error(ppm) SMILES_of_ion HR_rules
  145.0647 83 [C10H12O-3H]+ 145.064798 0(0.67) O=C(C=1C=CC=CC1)CCC True
  159.0802 125 [C11H14O-3H]+ 159.080438 0(1.5) O=C(C=1C=CC=CC1)C(C)CC True
  167.0259 70 [C9H9ClO-H]+ 167.025821 0(0.47) ClC1=CC=CC(=C1)C2(OC2)C True
  175.0748 999 [C11H10O2+H]+ 175.075361 0.001(3.21) O=C1C=2C=CC=CC2C(=O)C1CC True
  187.0749 797 [C12H12O2-H]+ 187.075351 0(2.41) O=C1C=2C=CC=CC2C(=O)C1(C)CC True
  295.0883 189 [C19H21ClO-5H]+ 295.088409 0(0.37) O=C(C=1C=CC=CC1)C(CC)CC(C=2C=CC=C(Cl)C2)C True
  323.0833 247 [C20H19ClO2-3H]+ 323.083337 0(0.12) O=C1C=2C=CC=CC2C(=O)C1(CC)CC(C=3C=CC=C(Cl)C3)C True
PK$NUM_PEAK: 10
PK$PEAK: m/z int. rel.int.
  125.0151 36.4 99
  131.0854 19.5 53
  145.0647 30.4 83
  159.0802 45.8 125
  167.0259 25.8 70
  175.0748 367.6 999
  187.0749 293.3 797
  277.078 36.4 99
  295.0883 69.7 189
  323.0833 90.8 247
//
