ACCESSION: MSBNK-MSSJ-MSJ02782
RECORD_TITLE: Tebuthiuron; LC-ESI-QTOF; MS2; [M+H]+; CID; CE 30V
DATE: 2023.10.22
AUTHORS: Atsushi Yamamoto, Faculty of Environmental Studies, Tottori University of Environmental Studies, 1-1, Wakabadai-kita, Tottori City, Tottori 689-1111, Japan.
LICENSE: CC BY
COPYRIGHT: Atsushi Yamamoto, Faculty of Environmental Studies, Tottori University of Environmental Studies, 1-1, Wakabadai-kita, Tottori City, Tottori 689-1111, Japan.
COMMENT: This record was created by the financial support of MEXT/JSPS KAKENHI Grant Number 23HP8017 to the Mass Spectrometry Society of Japan.
CH$NAME: Tebuthiuron
CH$COMPOUND_CLASS: Non-natural product
CH$FORMULA: C9H16N4OS
CH$EXACT_MASS: 228.104482
CH$SMILES: CC(C)(C)C1=NN=C(S1)N(C)C(=O)NC
CH$IUPAC: InChI=1S/C9H16N4OS/c1-9(2,3)6-11-12-8(15-6)13(5)7(14)10-4/h1-5H3,(H,10,14)
CH$LINK: CAS 34014-18-1
CH$LINK: CHEMSPIDER 5190
CH$LINK: INCHIKEY HBPDKDSFLXWOAE-UHFFFAOYSA-N
CH$LINK: PUBCHEM CID:5383
AC$INSTRUMENT: X500R QTOF (AB Sciex LLC, MA, USA) coupled to ExionLC AD (AB Sciex LLC, MA, USA).
AC$INSTRUMENT_TYPE: LC-ESI-QTOF
AC$MASS_SPECTROMETRY: MS_TYPE MS2
AC$MASS_SPECTROMETRY: ION_MODE POSITIVE
AC$MASS_SPECTROMETRY: COLLISION_ENERGY 30 V
AC$MASS_SPECTROMETRY: COLLISION_GAS N2
AC$MASS_SPECTROMETRY: FRAGMENTATION_MODE CID
AC$MASS_SPECTROMETRY: IONIZATION ESI
AC$CHROMATOGRAPHY: COLUMN_NAME TSKgel ODS-100S 5 um, 2.1 mm × 250 mm, TOSOH
AC$CHROMATOGRAPHY: FLOW_GRADIENT 95/5 at 0 min, 95/5 at 3 min, 0/100 at 13 min, 0/100 at 23 min, 95/5 at 23.1 min, 95/5 at 28 min
AC$CHROMATOGRAPHY: FLOW_RATE 200 ul/min
AC$CHROMATOGRAPHY: RETENTION_TIME 13.4 min
AC$CHROMATOGRAPHY: SOLVENT A water with 20 mM formic acid aquatic solution
AC$CHROMATOGRAPHY: SOLVENT B methanol with 20 mM Formic acid methanolic solution
MS$FOCUSED_ION: PRECURSOR_M/Z 229.111759
MS$FOCUSED_ION: PRECURSOR_TYPE [M+H]+
PK$SPLASH: splash10-00xr-1900000000-41045269b8f696480d37
PK$ANNOTATION: m/z rel.int. formula exact_mass error(ppm) SMILES_of_ion HR_rules
  57.0446 36 [C2H6N2-H]+ 57.044723 0(2.16) N=CNC True
  57.0696 25 [C4H10-H]+ 57.069877 0(4.86) CC(C)C True
  62.0059 49 [CH3NS+H]+ 62.005896 0(0.07) N=CS True
  74.0059 52 [C2H7NS-3H]+ 74.005899 0(0.02) SCNC True
  89.0167 192 [C2H6N2S-H]+ 89.016796 0(1.08) N=C(S)NC True
  116.0275 643 [C3H5N3S+H]+ 116.027693 0(1.66) N=1N=C(SC1)NC True
  142.0434 40 [C5H9N3S-H]+ 142.043338 0(0.43) N=1N=C(SC1N)C(C)C True
  157.0667 319 [C6H11N3S]+ 157.066819 0(0.76) N=1N=C(SC1N)C(C)(C)C False
  172.0899 999 [C7H13N3S+H]+ 172.0903 0(2.32) N=1N=C(SC1NC)C(C)(C)C True
  229.1122 57 [C9H16N4OS+H]+ 229.111753 0(1.95) O=C(NC)N(C1=NN=C(S1)C(C)(C)C)C True
PK$NUM_PEAK: 10
PK$PEAK: m/z int. rel.int.
  57.0446 18.1 36
  57.0696 12.3 25
  62.0059 24.5 49
  74.0059 26.2 52
  89.0167 95.8 192
  116.0275 321.0 643
  142.0434 20.0 40
  157.0667 159.1 319
  172.0899 498.9 999
  229.1122 28.3 57
//
