ACCESSION: MSBNK-MSSJ-MSJ02502
RECORD_TITLE: Cinosulfuron; LC-ESI-QTOF; MS2; [M+H]+; CID; CE 30V
DATE: 2023.04.05
AUTHORS: Atsushi Yamamoto, Faculty of Environmental Studies, Tottori University of Environmental Studies, 1-1, Wakabadai-kita, Tottori City, Tottori 689-1111, Japan.
LICENSE: CC BY
COPYRIGHT: Atsushi Yamamoto, Faculty of Environmental Studies, Tottori University of Environmental Studies, 1-1, Wakabadai-kita, Tottori City, Tottori 689-1111, Japan.
COMMENT: This record was created by the financial support of MEXT/JSPS KAKENHI Grant Number 23HP8017 to the Mass Spectrometry Society of Japan.
CH$NAME: Cinosulfuron
CH$COMPOUND_CLASS: Non-natural product
CH$FORMULA: C15H19N5O7S
CH$EXACT_MASS: 413.100519
CH$SMILES: COCCOC1=CC=CC=C1S(=O)(=O)NC(=O)NC2=NC(=NC(=N2)OC)OC
CH$IUPAC: InChI=1S/C15H19N5O7S/c1-24-8-9-27-10-6-4-5-7-11(10)28(22,23)20-13(21)16-12-17-14(25-2)19-15(18-12)26-3/h4-7H,8-9H2,1-3H3,(H2,16,17,18,19,20,21)
CH$LINK: CAS 94593-91-6
CH$LINK: CHEMSPIDER 83438
CH$LINK: INCHIKEY WMLPCIHUFDKWJU-UHFFFAOYSA-N
CH$LINK: PUBCHEM CID:92420
AC$INSTRUMENT: X500R QTOF (AB Sciex LLC, MA, USA) coupled to ExionLC AD (AB Sciex LLC, MA, USA).
AC$INSTRUMENT_TYPE: LC-ESI-QTOF
AC$MASS_SPECTROMETRY: MS_TYPE MS2
AC$MASS_SPECTROMETRY: ION_MODE POSITIVE
AC$MASS_SPECTROMETRY: COLLISION_ENERGY 30 V
AC$MASS_SPECTROMETRY: COLLISION_GAS N2
AC$MASS_SPECTROMETRY: FRAGMENTATION_MODE CID
AC$MASS_SPECTROMETRY: IONIZATION ESI
AC$CHROMATOGRAPHY: COLUMN_NAME AQ-C18HP 3 microm, 2.1 mm × 150 mm (GL Science, Tokyo, Japan).
AC$CHROMATOGRAPHY: FLOW_GRADIENT 90/10 at 0 min, 90/10 at 8 min, 0/100 at 23 min, 0/100 at 30 min, 90/10 at 30.1 min, 90/10 at 40 min
AC$CHROMATOGRAPHY: FLOW_RATE 200 microL/min
AC$CHROMATOGRAPHY: RETENTION_TIME 28.9 min
AC$CHROMATOGRAPHY: SOLVENT A water with 2 mM Ammonium bicarbonate
AC$CHROMATOGRAPHY: SOLVENT B methanol with 2 mM Ammmonium bicarbonate
MS$FOCUSED_ION: PRECURSOR_M/Z 414.107796
MS$FOCUSED_ION: PRECURSOR_TYPE [M+H]+
PK$SPLASH: splash10-001i-0900000000-284ebe77aff93c0bfa70
PK$ANNOTATION: m/z rel.int. formula exact_mass error(ppm) SMILES_of_ion HR_rules
  59.0492 36 [C3H8O-H]+ 59.049141 0(1.01) O(C)CC True
  83.024 77 [C3H6N2O-3H]+ 83.023988 0(0.14) N=CN=COC True
  141.0006 172 [C6H6O2S-H]+ 141.000476 0(0.88) O=S(=O)C=1C=CC=CC1 True
  157.0721 421 [C5H8N4O2+H]+ 157.072004 0(0.61) N=1C(=NC(=NC1OC)N)OC True
  183.0111 470 [C8H10O3S-3H]+ 183.011041 0(0.32) O=S(=O)C=1C=CC=CC1OCC True
  183.0512 999 [C6H8N4O3-H]+ 183.051273 0(0.4) O=CNC=1N=C(N=C(N1)OC)OC True
  185.0266 63 [C8H10O3S-H]+ 185.026691 0(0.49) O=S(=O)C=1C=CC=CC1OCC True
  215.0377 75 [C9H12O4S-H]+ 215.03725 0(2.09) O=S(=O)C=1C=CC=CC1OCCOC True
PK$NUM_PEAK: 11
PK$PEAK: m/z int. rel.int.
  59.0492 2.9 36
  83.024 6.3 77
  121.0286 13.6 164
  125.0056 11.0 133
  137.0056 8.8 106
  141.0006 14.2 172
  157.0721 34.8 421
  183.0111 38.9 470
  183.0512 82.7 999
  185.0266 5.2 63
  215.0377 6.2 75
//
