ACCESSION: MSBNK-MSSJ-MSJ04155
RECORD_TITLE: 6-(4-{[3-(tetradecanoylamino)propyl]amino}-4-oxobutanamido)-N,N-dimethylhexan-1-amine N-oxide; ESI-QTOF; MS2; ESI; [M-H]-; CE 50 V
DATE: 2023.02.09
AUTHORS: Atsushi Yamamoto, Faculty of Environmental Studies, Tottori University of Environmental Studies, 1-1, Wakabadai-kita, Tottori City, Tottori 689-1111, Japan.
LICENSE: CC BY
COPYRIGHT: Atsushi Yamamoto, Faculty of Environmental Studies, Tottori University of Environmental Studies, 1-1, Wakabadai-kita, Tottori City, Tottori 689-1111, Japan.
PUBLICATION: Atsushi Yamamoto, Naoji Tokai, Rie Kakehashi, Daisuke Saigusa, Mass Spectrometry, vol. 13, in press (2024).
COMMENT: This record was created by the financial supports of the Shin-MassBank project and the Mass Spectrometry Society of Japan.
COMMENT: Capillary Voltages were 5,500 V for the positive ion mode analyses and 4,500 V for the negative ion mode analyses.
CH$NAME: 6-(4-{[3-(tetradecanoylamino)propyl]amino}-4-oxobutanamido)-N,N-dimethylhexan-1-amine N-oxide
CH$NAME: AAO 13-3-2-6
CH$COMPOUND_CLASS: Non-natural product
CH$FORMULA: C29H58N4O4
CH$EXACT_MASS: 526.445790
CH$SMILES: O=C(NCCCNC(=O)CCCCCCCCCCCCC)CCC(=O)NCCCCCC[N+]([O-])(C)C
CH$IUPAC: InChI=1S/C29H58N4O4/c1-4-5-6-7-8-9-10-11-12-13-16-20-27(34)31-24-19-25-32-29(36)22-21-28(35)30-23-17-14-15-18-26-33(2,3)37/h4-26H2,1-3H3,(H,30,35)(H,31,34)(H,32,36)
CH$LINK: INCHIKEY OMYAINPKEMZLND-UHFFFAOYSA-N
AC$INSTRUMENT: X500R QTOF (AB Sciex LLC, MA, USA)
AC$INSTRUMENT_TYPE: ESI-QTOF
AC$MASS_SPECTROMETRY: MS_TYPE MS2
AC$MASS_SPECTROMETRY: ION_MODE NEGATIVE
AC$MASS_SPECTROMETRY: COLLISION_ENERGY 50 V
AC$MASS_SPECTROMETRY: COLLISION_GAS N2
AC$MASS_SPECTROMETRY: FRAGMENTATION_MODE CID
AC$MASS_SPECTROMETRY: IONIZATION ESI
MS$FOCUSED_ION: PRECURSOR_M/Z 525.438513
MS$FOCUSED_ION: PRECURSOR_TYPE [M-H]-
PK$SPLASH: splash10-001i-1290000000-6b8559475e5cb425108f
PK$ANNOTATION: m/z rel.int formula calculated_m/z Mass_Diff(ppm) SMILES Rule_of_HR
  98.02462 147 [C4H7NO2-3H]- 98.02475 0(1.32ppm) O=CCCC(=O)N True
  152.10800 30 [C9H19NO-5H]- 152.108091 0(0.6ppm) O=C(NCCCCCC)CC True
  155.08244 50 [C7H14N2O2-3H]- 155.082603 0(1.31ppm) O=C(N)CCC(=O)NCCC True
  172.10897 25 [C7H15N3O2-H]- 172.109148 0(0.86ppm) O=C(N)CCC(=O)NCCCN True
  180.10285 227 [C10H19NO2-5H]- 180.10301 0(1.16ppm) O=CCCC(=O)NCCCCCC True
  226.21749 98 [C14H29NO-H]- 226.217638 0(0.61ppm) O=C(N)CCCCCCCCCCCCC True
  254.18733 104 [C13H27N3O2-3H]- 254.187401 0(0.4ppm) O=C(NCCCN)CCC(=O)NCCCCCC True
  283.27533 999 [C17H36N2O-H]- 283.275499 0(0.7ppm) O=C(NCCCN)CCCCCCCCCCCCC True
  365.28076 40 [C21H40N2O3-3H]- 365.280968 0(0.46ppm) O=CCCC(=O)NCCCNC(=O)CCCCCCCCCCCCC True
  464.38569 13 [C27H53N3O3-3H]- 464.385765 0(0.14ppm) O=C(NCCCNC(=O)CCCCCCCCCCCCC)CCC(=O)NCCCCCC True
PK$NUM_PEAK: 21
PK$PEAK: m/z int. rel.int.
  41.99837 0.04277 10
  42.03475 0.00996 2
  98.02462 0.64084 147
  115.08757 0.02396 6
  127.08752 0.01911 4
  137.07187 0.08079 19
  152.10800 0.12845 30
  154.09845 0.0689 16
  155.08244 0.21955 50
  162.09218 0.02211 5
  172.10897 0.11076 25
  179.11897 0.04779 11
  180.10285 0.98622 227
  209.12958 0.03602 8
  226.21749 0.42742 98
  236.17688 0.03949 9
  254.18733 0.45424 104
  283.21437 0.03362 8
  283.27533 4.34319 999
  365.28076 0.17283 40
  464.38569 0.05843 13
//
