ACCESSION: MSBNK-MSSJ-MSJ02813
RECORD_TITLE: Imidacloprid; LC-ESI-QTOF; MS2; [M+H]+; CID; CE 60V
DATE: 2023.10.22
AUTHORS: Atsushi Yamamoto, Faculty of Environmental Studies, Tottori University of Environmental Studies, 1-1, Wakabadai-kita, Tottori City, Tottori 689-1111, Japan.
LICENSE: CC BY
COPYRIGHT: Atsushi Yamamoto, Faculty of Environmental Studies, Tottori University of Environmental Studies, 1-1, Wakabadai-kita, Tottori City, Tottori 689-1111, Japan.
COMMENT: This record was created by the financial support of MEXT/JSPS KAKENHI Grant Number 23HP8017 to the Mass Spectrometry Society of Japan.
CH$NAME: Imidacloprid
CH$COMPOUND_CLASS: Non-natural product
CH$FORMULA: C9H10ClN5O2
CH$EXACT_MASS: 255.052302
CH$SMILES: C1CN(C(=N[N+](=O)[O-])N1)CC2=CN=C(C=C2)Cl
CH$IUPAC: InChI=1S/C9H10ClN5O2/c10-8-2-1-7(5-12-8)6-14-4-3-11-9(14)13-15(16)17/h1-2,5H,3-4,6H2,(H,11,13)
CH$LINK: CAS 138261-41-3
CH$LINK: CHEMSPIDER 77934
CH$LINK: INCHIKEY YWTYJOPNNQFBPC-UHFFFAOYSA-N
CH$LINK: PUBCHEM CID:86287518
AC$INSTRUMENT: X500R QTOF (AB Sciex LLC, MA, USA) coupled to ExionLC AD (AB Sciex LLC, MA, USA).
AC$INSTRUMENT_TYPE: LC-ESI-QTOF
AC$MASS_SPECTROMETRY: MS_TYPE MS2
AC$MASS_SPECTROMETRY: ION_MODE POSITIVE
AC$MASS_SPECTROMETRY: COLLISION_ENERGY 60 V
AC$MASS_SPECTROMETRY: COLLISION_GAS N2
AC$MASS_SPECTROMETRY: FRAGMENTATION_MODE CID
AC$MASS_SPECTROMETRY: IONIZATION ESI
AC$CHROMATOGRAPHY: COLUMN_NAME TSKgel ODS-100S 5 um, 2.1 mm × 250 mm, TOSOH
AC$CHROMATOGRAPHY: FLOW_GRADIENT 95/5 at 0 min, 95/5 at 3 min, 0/100 at 13 min, 0/100 at 23 min, 95/5 at 23.1 min, 95/5 at 28 min
AC$CHROMATOGRAPHY: FLOW_RATE 200 ul/min
AC$CHROMATOGRAPHY: RETENTION_TIME 11.1 min
AC$CHROMATOGRAPHY: SOLVENT A water with 20 mM formic acid aquatic solution
AC$CHROMATOGRAPHY: SOLVENT B methanol with 20 mM Formic acid methanolic solution
MS$FOCUSED_ION: PRECURSOR_M/Z 256.059579
MS$FOCUSED_ION: PRECURSOR_TYPE [M+H]+
PK$SPLASH: splash10-0ab9-2900000000-2be3a5716ba41256e9c3
PK$ANNOTATION: m/z rel.int. formula exact_mass error(ppm) SMILES_of_ion HR_rules
  42.0335 68 [C2H7N-3H]+ 42.033826 0(7.76) NCC True
  44.0492 119 [C2H7N-H]+ 44.049476 0(6.27) NCC True
  56.0492 59 [C3H9N-3H]+ 56.049474 0(4.89) N(C)CC True
  69.0443 56 [C3H8N2-3H]+ 69.044725 0(6.15) N=CNCC True
  76.0179 99 [C5H5N-3H]+ 76.018174 0(3.61) N=1C=CC=CC1 True
  78.0336 493 [C5H5N-H]+ 78.033825 0(2.88) N=1C=CC=CC1 True
  80.0492 272 [C5H5N+H]+ 80.049475 0(3.43) N=1C=CC=CC1 True
  84.0556 219 [C3H7N3-H]+ 84.055622 0(0.26) N=C1NCCN1 True
  90.0338 270 [C6H7N-3H]+ 90.033822 0(0.25) N=1C=CC=C(C1)C True
  103.0291 201 [C6H8N2-5H]+ 103.029075 0(0.25) N=1C=CC=C(C1)CN True
  105.0447 956 [C6H8N2-3H]+ 105.044725 0(0.24) N=1C=CC=C(C1)CN True
  107.0605 213 [C6H8N2-H]+ 107.060375 0(1.17) N=1C=CC=C(C1)CN True
  111.9946 95 [C5H4ClN-H]+ 111.994854 0(2.26) ClC1=NC=CC=C1 True
  117.0444 127 [C7H10N2-5H]+ 117.044723 0(2.76) N=1C=CC=C(C1)CNC True
  119.0599 394 [C7H10N2-3H]+ 119.060373 0(3.97) N=1C=CC=C(C1)CNC True
  126.0102 158 [C6H6ClN-H]+ 126.010502 0(2.39) ClC1=NC=C(C=C1)C True
  130.0399 139 [C7H9N3-5H]+ 130.039977 0(0.59) N=CNCC=1C=NC=CC1 True
  134.0712 168 [C7H9N3-H]+ 134.071277 0(0.58) N=CNCC=1C=NC=CC1 True
  139.0058 174 [C6H7ClN2-3H]+ 139.005746 0(0.39) ClC1=NC=C(C=C1)CN True
  141.0212 203 [C6H7ClN2-H]+ 141.021396 0(1.39) ClC1=NC=C(C=C1)CN True
  145.0509 147 [C7H10N4-5H]+ 145.050872 0(0.19) N=C(N)NCC=1C=NC=CC1 True
  146.0712 446 [C8H13N3-5H]+ 146.071273 0(0.5) N=1C=CC=C(C1)CNCCN True
  147.0666 562 [C7H10N4-3H]+ 147.066522 0(0.53) N=C(N)NCC=1C=NC=CC1 True
  148.0865 167 [C8H13N3-3H]+ 148.086923 0(2.86) N=1C=CC=C(C1)CNCCN True
  158.0714 376 [C9H13N3-5H]+ 158.071273 0(0.8) N=CN(CC=1C=NC=CC1)CC True
  165.0215 49 [C8H11ClN2-5H]+ 165.021407 0(0.56) ClC1=NC=C(C=C1)CN(C)C True
  166.0168 286 [C7H8ClN3-3H]+ 166.016656 0(0.87) ClC1=NC=C(C=C1)CNC=N True
  167.0369 63 [C8H11ClN2-3H]+ 167.037057 0(0.94) ClC1=NC=C(C=C1)CNCC True
  173.0821 999 [C9H12N4-3H]+ 173.082177 0(0.45) N=C1NCCN1CC=2C=NC=CC2 True
  209.059 658 [C9H11ClN4-H]+ 209.058857 0(0.69) ClC1=NC=C(C=C1)CN2C(=N)NCC2 True
PK$NUM_PEAK: 89
PK$PEAK: m/z int. rel.int.
  39.0228 0.8 30
  42.0335 1.7 68
  43.0287 1.4 55
  44.0492 3.0 119
  51.0227 0.9 36
  56.0492 1.5 59
  57.0445 0.9 37
  63.0226 1.2 46
  65.0385 2.3 91
  69.0443 1.4 56
  72.9838 2.1 84
  76.0179 2.5 99
  77.026 1.0 41
  77.0384 2.2 87
  78.0336 12.5 493
  79.0414 1.4 55
  79.0542 1.3 51
  80.0492 6.9 272
  84.0556 5.6 219
  90.0338 6.9 270
  91.0415 5.7 225
  92.0371 3.4 132
  92.049 5.3 209
  93.0444 4.6 183
  93.0574 2.0 78
  95.06 1.4 54
  96.0444 0.9 37
  98.9996 4.2 164
  103.0291 5.1 201
  104.0371 2.4 94
  104.0492 4.6 182
  105.0447 24.3 956
  106.0526 3.5 138
  106.0647 5.1 201
  107.0605 5.4 213
  108.0677 1.9 75
  109.0634 3.0 119
  111.9946 2.4 95
  113.0021 3.3 130
  114.0102 2.0 77
  116.037 1.2 47
  117.0444 3.2 127
  117.0559 1.8 70
  118.0407 3.4 133
  118.0521 9.4 370
  119.0486 3.2 126
  119.0599 10.0 394
  120.0558 11.6 455
  121.0395 1.9 75
  121.0631 2.4 96
  122.0708 1.7 67
  123.0549 1.3 50
  125.9982 1.5 59
  126.0102 4.0 158
  127.0179 5.1 202
  129.0448 1.7 67
  130.0399 3.5 139
  131.0482 1.8 70
  131.0601 8.5 336
  132.0561 4.3 171
  132.0682 4.2 165
  133.0636 8.0 316
  133.0753 3.0 118
  134.0712 4.3 168
  135.0785 2.1 82
  139.0058 4.4 174
  141.0212 5.2 203
  145.0509 3.7 147
  146.059 1.6 63
  146.0712 11.3 446
  147.0666 14.3 562
  148.0752 1.3 51
  148.0865 4.2 167
  153.0086 5.9 233
  157.0637 7.0 276
  158.0714 9.5 376
  159.0789 15.3 602
  165.0215 1.2 49
  166.0168 7.3 286
  167.0369 1.6 63
  172.0748 1.4 54
  173.0821 25.4 999
  174.0899 9.3 366
  175.0979 5.2 203
  180.0196 10.2 400
  181.0278 4.1 160
  207.043 2.8 109
  208.0518 4.7 186
  209.059 16.7 658
//
