ACCESSION: MSBNK-MSSJ-MSJ03005
RECORD_TITLE: Clofedanol; LC-ESI-QQ; MS2; ESI; POSITIVE; CID; CE 50 V; [M+H]+
DATE: 2023.04.05
AUTHORS: Koji Yamaguchi, Department of Legal Medicine, Nippon Medical School, 1715 Kamagari, Inzai-shi, Chiba 270-1694, Japan.
LICENSE: CC BY
COPYRIGHT: Koji Yamaguchi, Department of Legal Medicine, Nippon Medical School, 1715 Kamagari, Inzai-shi, Chiba 270-1694, Japan.
COMMENT: Original data are in the 20230405-1.xlsx file.
COMMENT: This record was created by the financial support of MEXT/JSPS KAKENHI Grant Number 23HP8017 to the Mass Spectrometry Society of Japan.
CH$NAME: Clofedanol
CH$COMPOUND_CLASS: Non-natural product
CH$FORMULA: C17H20ClNO
CH$EXACT_MASS: 289.123338
CH$SMILES: CN(C)CCC(C1=CC=CC=C1)(C2=CC=CC=C2Cl)O
CH$IUPAC: InChI=1S/C17H20ClNO/c1-19(2)13-12-17(20,14-8-4-3-5-9-14)15-10-6-7-11-16(15)18/h3-11,20H,12-13H2,1-2H3
CH$LINK: CAS 791-35-5
CH$LINK: CHEMSPIDER 2693
CH$LINK: INCHIKEY WRCHFMBCVFFYEQ-UHFFFAOYSA-N
CH$LINK: PUBCHEM CID:2795
AC$INSTRUMENT: LCMS-8040 coupled to Nexera XR (Shimadzu, Kyoto, Japan).
AC$INSTRUMENT_TYPE: LC-ESI-QQ
AC$MASS_SPECTROMETRY: MS_TYPE MS2
AC$MASS_SPECTROMETRY: ION_MODE POSITIVE
AC$MASS_SPECTROMETRY: COLLISION_ENERGY 50 V
AC$MASS_SPECTROMETRY: FRAGMENTATION_MODE CID
AC$MASS_SPECTROMETRY: IONIZATION ESI
AC$CHROMATOGRAPHY: COLUMN_NAME InertSustain C18 ID 2.1 microm, 2.1 x 100 mm (GL Science, Tokyo, Japan).
AC$CHROMATOGRAPHY: FLOW_GRADIENT 90/10 at 0 min, linear gradient from 90/10 to 2/98 at 0-9 min, 2/98 at 9-12 min, linear gradient from 2/98 to 90/10 at 12-12.1 min, 90/10 at 12.1-15 min.
AC$CHROMATOGRAPHY: FLOW_RATE 200 microl/min
AC$CHROMATOGRAPHY: RETENTION_TIME 7.934 min
AC$CHROMATOGRAPHY: SOLVENT A water with 10 mM ammonium formate
AC$CHROMATOGRAPHY: SOLVENT B methanol
MS$FOCUSED_ION: PRECURSOR_M/Z 290.130615
MS$FOCUSED_ION: PRECURSOR_TYPE [M+H]+
PK$SPLASH: splash10-0a4i-9000000000-e1df7e924adfa8fe6985
PK$NUM_PEAK: 5
PK$PEAK: m/z int. rel.int.
  30.4 11045 22
  42.3 17110 33
  43.3 11905 23
  56.2 7541 15
  58.3 513001 999
//
