ACCESSION: MSBNK-MSSJ-MSJ02904
RECORD_TITLE: Indanofan; LC-ESI-QTOF; MS2; [M+H]+; CID; CE 40V
DATE: 2023.10.22
AUTHORS: Atsushi Yamamoto, Faculty of Environmental Studies, Tottori University of Environmental Studies, 1-1, Wakabadai-kita, Tottori City, Tottori 689-1111, Japan.
LICENSE: CC BY
COPYRIGHT: Atsushi Yamamoto, Faculty of Environmental Studies, Tottori University of Environmental Studies, 1-1, Wakabadai-kita, Tottori City, Tottori 689-1111, Japan.
COMMENT: This record was created by the financial support of MEXT/JSPS KAKENHI Grant Number 23HP8017 to the Mass Spectrometry Society of Japan.
CH$NAME: Indanofan
CH$COMPOUND_CLASS: Non-natural product
CH$FORMULA: C20H17ClO3
CH$EXACT_MASS: 340.086622
CH$SMILES: CCC1(C(=O)C2=CC=CC=C2C1=O)CC3(CO3)C4=CC(=CC=C4)Cl
CH$IUPAC: InChI=1S/C20H17ClO3/c1-2-19(17(22)15-8-3-4-9-16(15)18(19)23)11-20(12-24-20)13-6-5-7-14(21)10-13/h3-10H,2,11-12H2,1H3
CH$LINK: CAS 133220-30-1
CH$LINK: CHEMSPIDER 9221265
CH$LINK: INCHIKEY PMAAYIYCDXGUAP-UHFFFAOYSA-N
CH$LINK: PUBCHEM CID:11046097
AC$INSTRUMENT: X500R QTOF (AB Sciex LLC, MA, USA) coupled to ExionLC AD (AB Sciex LLC, MA, USA).
AC$INSTRUMENT_TYPE: LC-ESI-QTOF
AC$MASS_SPECTROMETRY: MS_TYPE MS2
AC$MASS_SPECTROMETRY: ION_MODE POSITIVE
AC$MASS_SPECTROMETRY: COLLISION_ENERGY 40 V
AC$MASS_SPECTROMETRY: COLLISION_GAS N2
AC$MASS_SPECTROMETRY: FRAGMENTATION_MODE CID
AC$MASS_SPECTROMETRY: IONIZATION ESI
AC$CHROMATOGRAPHY: COLUMN_NAME TSKgel ODS-100S 5 um, 2.1 mm × 250 mm, TOSOH
AC$CHROMATOGRAPHY: FLOW_GRADIENT 95/5 at 0 min, 95/5 at 3 min, 0/100 at 13 min, 0/100 at 23 min, 95/5 at 23.1 min, 95/5 at 28 min
AC$CHROMATOGRAPHY: FLOW_RATE 200 ul/min
AC$CHROMATOGRAPHY: RETENTION_TIME 15.2 min
AC$CHROMATOGRAPHY: SOLVENT A water with 20 mM formic acid aquatic solution
AC$CHROMATOGRAPHY: SOLVENT B methanol with 20 mM Formic acid methanolic solution
MS$FOCUSED_ION: PRECURSOR_M/Z 341.093899
MS$FOCUSED_ION: PRECURSOR_TYPE [M+H]+
PK$SPLASH: splash10-004i-0900000000-0a381fc9cc918ddc8def
PK$ANNOTATION: m/z rel.int. formula exact_mass error(ppm) SMILES_of_ion HR_rules
  43.0177 30 [C2H4O-H]+ 43.017841 0(3.28) O1CC1 True
  91.0541 101 [C7H8-H]+ 91.054226 0(1.38) C=1C=CC(=CC1)C True
  103.0542 108 [C8H10-3H]+ 103.054223 0(0.23) C=1C=CC(=CC1)CC True
  105.0332 50 [C7H6O-H]+ 105.033489 0(2.75) O=CC=1C=CC=CC1 True
  115.0543 116 [C9H12-5H]+ 115.054229 0(0.62) C=1C=CC(=CC1)C(C)C True
  117.0698 79 [C9H12-3H]+ 117.069879 0(0.67) C=1C=CC(=CC1)C(C)C True
  131.0492 70 [C9H10O-3H]+ 131.049142 0(0.44) O=C(C=1C=CC=CC1)CC True
  139.0308 113 [C8H9Cl-H]+ 139.030903 0(0.74) ClC1=CC=CC(=C1)CC True
  141.0698 166 [C11H16-7H]+ 141.069875 0(0.53) C=1C=CC(=CC1)CCCCC True
  145.0647 121 [C10H12O-3H]+ 145.064798 0(0.67) O=C(C=1C=CC=CC1)CCC True
  159.044 210 [C10H8O2-H]+ 159.044056 0(0.35) O=C1C=2C=CC=CC2C(=O)C1C True
  159.08 79 [C11H14O-3H]+ 159.080438 0(2.75) O=C(C=1C=CC=CC1)C(C)CC True
  169.065 205 [C12H16O-7H]+ 169.064793 0(1.22) O=C(C=1C=CC=CC1)C(CC)CC True
  173.0598 225 [C11H10O2-H]+ 173.059711 0(0.51) O=C1C=2C=CC=CC2C(=O)C1CC True
  175.0752 999 [C11H10O2+H]+ 175.075361 0(0.92) O=C1C=2C=CC=CC2C(=O)C1CC True
  187.0757 75 [C12H12O2-H]+ 187.075351 0(1.86) O=C1C=2C=CC=CC2C(=O)C1(C)CC True
PK$NUM_PEAK: 20
PK$PEAK: m/z int. rel.int.
  43.0177 7.4 30
  91.0541 24.9 101
  103.0542 26.7 108
  105.0332 12.4 50
  115.0543 28.6 116
  117.0698 19.5 79
  125.0153 59.3 240
  128.062 30.3 123
  129.0696 14.7 60
  131.0492 17.2 70
  131.0854 76.0 308
  139.0308 27.9 113
  141.0698 41.0 166
  145.0647 29.7 121
  159.044 51.7 210
  159.08 19.4 79
  169.065 50.6 205
  173.0598 55.6 225
  175.0752 246.5 999
  187.0757 18.5 75
//
