ACCESSION: MSBNK-MSSJ-MSJ00862
RECORD_TITLE: L-(+)-Ergothioneine; ESI-QTOF; MS2; POSITIVE; [M+H]+; CID; 20 V
DATE: 2021.12.07
AUTHORS: Atsushi Yamamoto, Faculty of Environmental Studies, Tottori University of Environmental Studies, 1-1, Wakabadai-kita, Tottori City, Tottori 689-1111, Japan.
LICENSE: CC BY
COPYRIGHT: Atsushi Yamamoto, Faculty of Environmental Studies, Tottori University of Environmental Studies, 1-1, Wakabadai-kita, Tottori City, Tottori 689-1111, Japan.
COMMENT: The sample was injected by direct infusion.
COMMENT: This record was created by the financial support of MEXT/JSPS KAKENHI Grant Number 21HP8020 to the Mass Spectrometry Society of Japan.
CH$NAME: L-(+)-Ergothioneine
CH$COMPOUND_CLASS: L-Histidine derivative
CH$FORMULA: C9H15N3O2S
CH$EXACT_MASS: 229.08850
CH$SMILES: C[N+](C)(C)[C@@H](CC1=CNC(=S)N1)C(=O)[O-]
CH$IUPAC: InChI=1S/C9H15N3O2S/c1-12(2,3)7(8(13)14)4-6-5-10-9(15)11-6/h5,7H,4H2,1-3H3,(H2-,10,11,13,14,15)/t7-/m0/s1
CH$LINK: CAS 497-30-3
CH$LINK: CHEBI CHEBI:4828
CH$LINK: CHEMSPIDER 4508619
CH$LINK: INCHIKEY SSISHJJTAXXQAX-ZETCQYMHSA-N
CH$LINK: PUBCHEM CID:5351619
AC$INSTRUMENT: X500R QTOF (AB Sciex LLC, USA)
AC$INSTRUMENT_TYPE: ESI-QTOF
AC$MASS_SPECTROMETRY: MS_TYPE MS2
AC$MASS_SPECTROMETRY: ION_MODE POSITIVE
AC$MASS_SPECTROMETRY: COLLISION_ENERGY 20 V
AC$MASS_SPECTROMETRY: FRAGMENTATION_MODE CID
AC$MASS_SPECTROMETRY: IONIZATION ESI
MS$FOCUSED_ION: PRECURSOR_M/Z 230.09576
MS$FOCUSED_ION: PRECURSOR_TYPE [M+H]+
PK$SPLASH: splash10-004r-1900000000-7eea25709771a5e9e9cb
PK$ANNOTATION: m/z formula exact_mass error(ppm) SMILES_of_ion HR_rules
  60.081 [C3H10N]+ 60.080777 3.71 C[NH+](C)C False
  127.0324 [C5H8N2S-H]+ 127.032444 0.34 S=C1NC=C(N1)CC True
  186.1061 [C8H16N3S]+ 186.105943 0.85 S=C1NC=C(N1)CC[N+](C)(C)C False
PK$NUM_PEAK: 3
PK$PEAK: m/z int. rel.int.
  60.081 5.8986 283
  127.0324 20.8154 999
  186.1061 11.1774 536
//
