ACCESSION: MSBNK-MSSJ-MSJ01580
RECORD_TITLE: Clotiazepam; LC-ESI-QQ; MS2; ESI; POSITIVE; CE 40 V; [M+H]+
DATE: 2023.03.24
AUTHORS: Koji Yamaguchi, Department of Legal Medicine, Nippon Medical School, 1715 Kamagari, Inzai-shi, Chiba 270-1694, Japan.
LICENSE: CC BY
COPYRIGHT: Koji Yamaguchi, Department of Legal Medicine, Nippon Medical School, 1715 Kamagari, Inzai-shi, Chiba 270-1694, Japan.
COMMENT: Original data are in the 20230324-3.xlsx file.
COMMENT: This record was created by the financial support of MEXT/JSPS KAKENHI Grant Number 23HP8017 to the Mass Spectrometry Society of Japan.
CH$NAME: Clotiazepam
CH$COMPOUND_CLASS: Non-natural product
CH$FORMULA: C16H15ClN2OS
CH$EXACT_MASS: 318.05935
CH$SMILES: CCC1=CC2=C(S1)N(C(=O)CN=C2C3=CC=CC=C3Cl)C
CH$IUPAC: InChI=1S/C16H15ClN2OS/c1-3-10-8-12-15(11-6-4-5-7-13(11)17)18-9-14(20)19(2)16(12)21-10/h4-8H,3,9H2,1-2H3
CH$LINK: CAS 33671-46-4
CH$LINK: CHEMSPIDER 2709
CH$LINK: INCHIKEY CHBRHODLKOZEPZ-UHFFFAOYSA-N
CH$LINK: PUBCHEM CID:2811
AC$INSTRUMENT: LCMS-8040 coupled to Nexera XR (Shimadzu, Kyoto, Japan).
AC$INSTRUMENT_TYPE: LC-ESI-QQ
AC$MASS_SPECTROMETRY: MS_TYPE MS2
AC$MASS_SPECTROMETRY: ION_MODE POSITIVE
AC$MASS_SPECTROMETRY: COLLISION_ENERGY 40 V
AC$MASS_SPECTROMETRY: IONIZATION ESI
AC$CHROMATOGRAPHY: COLUMN_NAME InertSustain C18 ID 2.1 microm, 2.1 x 100 mm (GL Science, Tokyo, Japan).
AC$CHROMATOGRAPHY: FLOW_GRADIENT 90/10 at 0 min, linear gradient from 90/10 to 2/98 at 0-9 min, 2/98 at 9-12 min, linear gradient from 2/98 to 90/10 at 12-12.1 min, 90/10 at 12.1-15 min.
AC$CHROMATOGRAPHY: FLOW_RATE 200 microl/min
AC$CHROMATOGRAPHY: RETENTION_TIME 9.928 min
AC$CHROMATOGRAPHY: SOLVENT A water with 10 mM ammonium formate
AC$CHROMATOGRAPHY: SOLVENT B methanol
MS$FOCUSED_ION: PRECURSOR_M/Z 319.06663
MS$FOCUSED_ION: PRECURSOR_TYPE [M+H]+
PK$SPLASH: splash10-0wc0-3950000000-a846baa90ed0af631ad0
PK$NUM_PEAK: 141
PK$PEAK: m/z int. rel.int.
  30 890 12
  42 3289 43
  45 890 12
  47 1622 21
  56 2943 38
  58 1602 21
  59 2128 28
  67 850 11
  70 1701 22
  72 890 12
  73 1952 25
  74 77276 999
  77 3599 47
  79 18005 233
  80 2675 35
  81 2247 29
  82 808 10
  83 890 12
  85 12444 161
  91 2224 29
  93 2724 35
  94 3250 42
  95 1583 20
  97 1811 23
  98 2841 37
  99 8178 106
  102 1859 24
  104 890 12
  106 5369 69
  108 890 12
  109 890 12
  110 4138 53
  111 6612 85
  113 41626 538
  114 890 12
  115 3593 46
  116 6342 82
  117 890 12
  119 6144 79
  120 6391 83
  121 7502 97
  122 1771 23
  123 1937 25
  124 1289 17
  125 14918 193
  127 4736 61
  128 2162 28
  130 2675 35
  135 890 12
  137 2702 35
  138 12508 162
  139 20400 264
  141 1276 16
  142 1782 23
  143 2140 28
  145 890 12
  149 1782 23
  150 2049 26
  151 2187 28
  152 7384 95
  153 3070 40
  154 56533 731
  155 9142 118
  156 1628 21
  163 890 12
  165 7092 92
  166 4362 56
  167 12047 156
  168 28057 363
  169 2601 34
  170.6 1683 22
  171.2 1290 17
  175 863 11
  177 14627 189
  179 2187 28
  180 1728 22
  181 7721 100
  182 26813 347
  183 21064 272
  184 1271 16
  188 3246 42
  190 14882 192
  191 3703 48
  192 4475 58
  193 2396 31
  194 1622 21
  195 1276 16
  196 1782 23
  198 6114 79
  199 2628 34
  201 890 12
  202 6659 86
  203 22154 286
  204 1043 13
  205 1782 23
  206 1780 23
  207 1701 22
  208 2821 36
  210 4374 57
  211 890 12
  212 3127 40
  213 1311 17
  214 5759 74
  215 3512 45
  216 5431 70
  218 16421 212
  219 1772 23
  221 2512 32
  223 2833 37
  224 5316 69
  225 8857 115
  227 21988 284
  228 6547 85
  229 2397 31
  230 2028 26
  231 884 11
  232 890 12
  233 9884 128
  234 1628 21
  235 887 11
  237 890 12
  239 1782 23
  241 4837 63
  242 2850 37
  243 14082 182
  247 5448 70
  248 890 12
  250 7033 91
  255 1739 22
  257 5153 67
  258 890 12
  260 3476 45
  261 3022 39
  262 850 11
  264 3124 40
  271 1782 23
  275 29173 377
  276 1334 17
  291 13386 173
  318 1543 20
  319 890 12
//
