ACCESSION: MSBNK-MSSJ-MSJ02743
RECORD_TITLE: Methomyl; LC-ESI-QTOF; MS2; [M+H]+; CID; CE 40 V
DATE: 2023.10.22
AUTHORS: Atsushi Yamamoto, Faculty of Environmental Studies, Tottori University of Environmental Studies, 1-1, Wakabadai-kita, Tottori City, Tottori 689-1111, Japan.
LICENSE: CC BY
COPYRIGHT: Atsushi Yamamoto, Faculty of Environmental Studies, Tottori University of Environmental Studies, 1-1, Wakabadai-kita, Tottori City, Tottori 689-1111, Japan.
COMMENT: This record was created by the financial support of MEXT/JSPS KAKENHI Grant Number 23HP8017 to the Mass Spectrometry Society of Japan.
CH$NAME: Methomyl
CH$COMPOUND_CLASS: Non-natural product
CH$FORMULA: C5H10N2O2S
CH$EXACT_MASS: 162.046299
CH$SMILES: CC(=NOC(=O)NC)SC
CH$IUPAC: InChI=1S/C5H10N2O2S/c1-4(10-3)7-9-5(8)6-2/h1-3H3,(H,6,8)
CH$LINK: CAS 16752-77-5
CH$LINK: CHEMSPIDER 3966
CH$LINK: INCHIKEY UHXUZOCRWCRNSJ-UHFFFAOYSA-N
CH$LINK: PUBCHEM CID:4109
AC$INSTRUMENT: X500R QTOF (AB Sciex LLC, MA, USA) coupled to ExionLC AD (AB Sciex LLC, MA, USA).
AC$INSTRUMENT_TYPE: LC-ESI-QTOF
AC$MASS_SPECTROMETRY: MS_TYPE MS2
AC$MASS_SPECTROMETRY: ION_MODE POSITIVE
AC$MASS_SPECTROMETRY: COLLISION_ENERGY 40 V
AC$MASS_SPECTROMETRY: COLLISION_GAS N2
AC$MASS_SPECTROMETRY: FRAGMENTATION_MODE CID
AC$MASS_SPECTROMETRY: IONIZATION ESI
AC$CHROMATOGRAPHY: COLUMN_NAME TSKgel ODS-100S 5 um, 2.1 mm × 250 mm, TOSOH
AC$CHROMATOGRAPHY: FLOW_GRADIENT 95/5 at 0 min, 95/5 at 3 min, 0/100 at 13 min, 0/100 at 23 min, 95/5 at 23.1 min, 95/5 at 28 min
AC$CHROMATOGRAPHY: FLOW_RATE 200 ul/min
AC$CHROMATOGRAPHY: RETENTION_TIME 10.1 min
AC$CHROMATOGRAPHY: SOLVENT A water with 20 mM formic acid aquatic solution
AC$CHROMATOGRAPHY: SOLVENT B methanol with 20 mM Formic acid methanolic solution
MS$FOCUSED_ION: PRECURSOR_M/Z 163.053576
MS$FOCUSED_ION: PRECURSOR_TYPE [M+H]+
PK$SPLASH: splash10-00dl-9000000000-cc4a416329596becab4a
PK$ANNOTATION: m/z rel.int. formula exact_mass error(ppm) SMILES_of_ion HR_rules
  31.018 62 [CH2O+H]+ 31.017841 0(5.12) O=C True
  42.0337 301 [C2H5N-H]+ 42.033825 0(2.96) N=CC True
  44.9792 438 [CH4S-3H]+ 44.979349 0(3.3) SC True
  46.9948 422 [CH4S-H]+ 46.994999 0(4.23) SC True
  58.0287 429 [C2H5NO-H]+ 58.02874 0(0.68) O=CNC True
  71.9904 298 [C2H5NS-3H]+ 71.990243 0(2.18) N=C(S)C True
  72.998 999 [C2H5NS-2H]+ 72.998068 0(0.94) N=C(S)C False
  88.0218 161 [C3H7NS-H]+ 88.021549 0(2.85) N=C(SC)C True
PK$NUM_PEAK: 9
PK$PEAK: m/z int. rel.int.
  31.018 0.9 62
  42.0337 4.4 301
  44.9792 6.3 438
  46.9948 6.1 422
  56.0493 2.1 145
  58.0287 6.2 429
  71.9904 4.3 298
  72.998 14.4 999
  88.0218 2.3 161
//
