ACCESSION: MSBNK-MSSJ-MSJ02932
RECORD_TITLE: Anilofos; LC-ESI-QTOF; MS2; [M+H]+; CID; CE 40V
DATE: 2023.10.22
AUTHORS: Atsushi Yamamoto, Faculty of Environmental Studies, Tottori University of Environmental Studies, 1-1, Wakabadai-kita, Tottori City, Tottori 689-1111, Japan.
LICENSE: CC BY
COPYRIGHT: Atsushi Yamamoto, Faculty of Environmental Studies, Tottori University of Environmental Studies, 1-1, Wakabadai-kita, Tottori City, Tottori 689-1111, Japan.
COMMENT: This record was created by the financial support of MEXT/JSPS KAKENHI Grant Number 23HP8017 to the Mass Spectrometry Society of Japan.
CH$NAME: Anilofos
CH$COMPOUND_CLASS: Non-natural product
CH$FORMULA: C13H19ClNO3PS2
CH$EXACT_MASS: 367.023251
CH$SMILES: CC(C)N(C1=CC=C(C=C1)Cl)C(=O)CSP(=S)(OC)OC
CH$IUPAC: InChI=1S/C13H19ClNO3PS2/c1-10(2)15(12-7-5-11(14)6-8-12)13(16)9-21-19(20,17-3)18-4/h5-8,10H,9H2,1-4H3
CH$LINK: CAS 64249-01-0
CH$LINK: CHEMSPIDER 82790
CH$LINK: INCHIKEY NXQDBZGWYSEGFL-UHFFFAOYSA-N
CH$LINK: PUBCHEM CID:91687
AC$INSTRUMENT: X500R QTOF (AB Sciex LLC, MA, USA) coupled to ExionLC AD (AB Sciex LLC, MA, USA).
AC$INSTRUMENT_TYPE: LC-ESI-QTOF
AC$MASS_SPECTROMETRY: MS_TYPE MS2
AC$MASS_SPECTROMETRY: ION_MODE POSITIVE
AC$MASS_SPECTROMETRY: COLLISION_ENERGY 40 V
AC$MASS_SPECTROMETRY: COLLISION_GAS N2
AC$MASS_SPECTROMETRY: FRAGMENTATION_MODE CID
AC$MASS_SPECTROMETRY: IONIZATION ESI
AC$CHROMATOGRAPHY: COLUMN_NAME TSKgel ODS-100S 5 um, 2.1 mm × 250 mm, TOSOH
AC$CHROMATOGRAPHY: FLOW_GRADIENT 95/5 at 0 min, 95/5 at 3 min, 0/100 at 13 min, 0/100 at 23 min, 95/5 at 23.1 min, 95/5 at 28 min
AC$CHROMATOGRAPHY: FLOW_RATE 200 ul/min
AC$CHROMATOGRAPHY: RETENTION_TIME 15.4 min
AC$CHROMATOGRAPHY: SOLVENT A water with 20 mM formic acid aquatic solution
AC$CHROMATOGRAPHY: SOLVENT B methanol with 20 mM Formic acid methanolic solution
MS$FOCUSED_ION: PRECURSOR_M/Z 368.030528
MS$FOCUSED_ION: PRECURSOR_TYPE [M+H]+
PK$SPLASH: splash10-00di-0900000000-c4fc82a7db73dfb32453
PK$ANNOTATION: m/z rel.int. formula exact_mass error(ppm) SMILES_of_ion HR_rules
  78.9944 126 [CH5O2P-H]+ 78.994342 0(0.73) OPOC True
  93.01 116 [C2H7O2P-H]+ 93.00999 0(0.1) O(POC)C True
  124.9818 999 [C2H7O2PS-H]+ 124.982067 0(2.13) S=P(OC)OC True
  128.0263 105 [C6H6ClN+H]+ 128.026152 0(1.16) ClC1=CC=C(N)C=C1 True
  138.0106 177 [C7H8ClN-3H]+ 138.010507 0(0.67) ClC1=CC=C(C=C1)NC True
  156.9542 460 [C2H7O2PS2-H]+ 156.954136 0(0.41) S=P(S)(OC)OC True
  166.0056 215 [C8H8ClNO-3H]+ 166.005426 0(1.05) O=C(NC1=CC=C(Cl)C=C1)C True
  170.9698 665 [C3H9O2PS2-H]+ 170.969791 0(0.05) S=P(OC)(OC)SC True
PK$NUM_PEAK: 9
PK$PEAK: m/z int. rel.int.
  78.9944 48.7 126
  93.01 44.8 116
  124.9818 385.3 999
  128.0263 40.6 105
  138.0106 68.5 177
  142.9927 135.9 352
  156.9542 177.3 460
  166.0056 82.8 215
  170.9698 256.7 665
//
