ACCESSION: MSBNK-MSSJ-MSJ01729
RECORD_TITLE: Mexazolam; LC-ESI-QQ; MS2; ESI; NEGATIVE; CID; CE 50 V; [M-H]-
DATE: 2023.03.27
AUTHORS: Koji Yamaguchi, Department of Legal Medicine, Nippon Medical School, 1715 Kamagari, Inzai-shi, Chiba 270-1694, Japan.
LICENSE: CC BY
COPYRIGHT: Koji Yamaguchi, Department of Legal Medicine, Nippon Medical School, 1715 Kamagari, Inzai-shi, Chiba 270-1694, Japan.
COMMENT: Original data are in the 20230328-1.xlsx file.
COMMENT: This record was created by the financial support of MEXT/JSPS KAKENHI Grant Number 23HP8017 to the Mass Spectrometry Society of Japan.
CH$NAME: Mexazolam
CH$COMPOUND_CLASS: Non-natural product
CH$FORMULA: C18H16Cl2N2O2
CH$EXACT_MASS: 362.058876
CH$SMILES: CC1COC2(N1CC(=O)NC3=C2C=C(C=C3)Cl)C4=CC=CC=C4Cl
CH$IUPAC: InChI=1S/C18H16Cl2N2O2/c1-11-10-24-18(13-4-2-3-5-15(13)20)14-8-12(19)6-7-16(14)21-17(23)9-22(11)18/h2-8,11H,9-10H2,1H3,(H,21,23)
CH$LINK: CAS 31868-18-5
CH$LINK: CHEMSPIDER 4033
CH$LINK: INCHIKEY ANUCDXCTICZJRH-UHFFFAOYSA-N
CH$LINK: PUBCHEM CID:4177
AC$INSTRUMENT: LCMS-8040 coupled to Nexera XR (Shimadzu, Kyoto, Japan).
AC$INSTRUMENT_TYPE: LC-ESI-QQ
AC$MASS_SPECTROMETRY: MS_TYPE MS2
AC$MASS_SPECTROMETRY: ION_MODE NEGATIVE
AC$MASS_SPECTROMETRY: IONIZATION ESI
AC$MASS_SPECTROMETRY: COLLISION_ENERGY 50 V
AC$MASS_SPECTROMETRY: FRAGMENTATION_MODE CID
AC$CHROMATOGRAPHY: COLUMN_NAME InertSustain C18 ID 2.1 microm, 2.1 x 100 mm (GL Science, Tokyo, Japan).
AC$CHROMATOGRAPHY: FLOW_GRADIENT 90/10 at 0 min, linear gradient from 90/10 to 2/98 at 0-9 min, 2/98 at 9-12 min, linear gradient from 2/98 to 90/10 at 12-12.1 min, 90/10 at 12.1-15 min.
AC$CHROMATOGRAPHY: FLOW_RATE 200 microl/min
AC$CHROMATOGRAPHY: RETENTION_TIME 10.227 min
AC$CHROMATOGRAPHY: SOLVENT A water with 10 mM ammonium formate
AC$CHROMATOGRAPHY: SOLVENT B methanol
MS$FOCUSED_ION: PRECURSOR_M/Z 361.051599
MS$FOCUSED_ION: PRECURSOR_TYPE [M-H]-
PK$SPLASH: splash10-000i-9730000000-eaf5f416ea5a158f2a85
PK$NUM_PEAK: 25
PK$PEAK: m/z int. rel.int.
  35.1 18833 999
  42.2 2717 144
  75.2 258 14
  111.0 3079 163
  116.2 874 46
  125.8 1025 54
  127.2 437 23
  140.9 874 46
  149.9 437 23
  151.0 2468 131
  151.9 1361 72
  154.5 874 46
  164.8 4511 239
  165.9 2187 116
  182.9 437 23
  215.9 874 46
  223.8 2354 125
  229.0 1311 70
  251.3 437 23
  258.6 437 23
  264.6 874 46
  265.7 530 28
  288.0 874 46
  289.1 437 23
  330.7 874 46
//
