ACCESSION: MSBNK-MSSJ-MSJ03164
RECORD_TITLE: Desipramine; LC-ESI-QQ; MS2; ESI; POSITIVE; CID; CE 50 V; [M+H]+
DATE: 2023.04.07
AUTHORS: Koji Yamaguchi, Department of Legal Medicine, Nippon Medical School, 1715 Kamagari, Inzai-shi, Chiba 270-1694, Japan.
LICENSE: CC BY
COPYRIGHT: Koji Yamaguchi, Department of Legal Medicine, Nippon Medical School, 1715 Kamagari, Inzai-shi, Chiba 270-1694, Japan.
COMMENT: Original data are in the 20230407-1.xlsx file.
COMMENT: This record was created by the financial support of MEXT/JSPS KAKENHI Grant Number 23HP8017 to the Mass Spectrometry Society of Japan.
CH$NAME: Desipramine
CH$COMPOUND_CLASS: Non-natural product
CH$FORMULA: C18H22N2
CH$EXACT_MASS: 266.17829
CH$SMILES: CNCCCN1C2=CC=CC=C2CCC3=CC=CC=C31
CH$IUPAC: InChI=1S/C18H22N2/c1-19-13-6-14-20-17-9-4-2-7-15(17)11-12-16-8-3-5-10-18(16)20/h2-5,7-10,19H,6,11-14H2,1H3
CH$LINK: CAS 50-47-5
CH$LINK: CHEMSPIDER 2888
CH$LINK: INCHIKEY HCYAFALTSJYZDH-UHFFFAOYSA-N
CH$LINK: PUBCHEM CID:2995
AC$INSTRUMENT: LCMS-8040 coupled to Nexera XR (Shimadzu, Kyoto, Japan).
AC$INSTRUMENT_TYPE: LC-ESI-QQ
AC$MASS_SPECTROMETRY: MS_TYPE MS2
AC$MASS_SPECTROMETRY: ION_MODE POSITIVE
AC$MASS_SPECTROMETRY: COLLISION_ENERGY 50 V
AC$MASS_SPECTROMETRY: FRAGMENTATION_MODE CID
AC$MASS_SPECTROMETRY: IONIZATION ESI
AC$CHROMATOGRAPHY: COLUMN_NAME InertSustain C18 ID 2.1 microm, 2.1 x 100 mm (GL Science, Tokyo, Japan).
AC$CHROMATOGRAPHY: FLOW_GRADIENT 90/10 at 0 min, linear gradient from 90/10 to 2/98 at 0-9 min, 2/98 at 9-12 min, linear gradient from 2/98 to 90/10 at 12-12.1 min, 90/10 at 12.1-15 min.
AC$CHROMATOGRAPHY: FLOW_RATE 200 microl/min
AC$CHROMATOGRAPHY: RETENTION_TIME 8.466 min
AC$CHROMATOGRAPHY: SOLVENT A water with 10 mM ammonium formate
AC$CHROMATOGRAPHY: SOLVENT B methanol
MS$FOCUSED_ION: PRECURSOR_M/Z 267.185567
MS$FOCUSED_ION: PRECURSOR_TYPE [M+H]+
PK$SPLASH: splash10-0006-9300000000-7567c42a7f464179a4be
PK$NUM_PEAK: 23
PK$PEAK: m/z int. rel.int.
  30.4 4526 33
  41.3 6349 47
  42.4 1646 12
  44.3 135311 999
  56.2 9734 72
  57.2 34152 252
  70.3 1602 12
  72.2 46238 341
  77.3 2126 16
  89.3 1634 12
  91.3 7794 58
  118.1 2468 18
  144.2 1593 12
  152.2 2099 15
  165.2 4970 37
  167.1 8639 64
  179.9 3673 27
  191.2 4678 35
  192.2 21094 156
  193.1 34534 255
  194.1 3971 29
  206.0 2624 19
  207.0 1555 11
//
