ACCESSION: MSBNK-MSSJ-MSJ02915
RECORD_TITLE: Thiodicarb; LC-ESI-QTOF; MS2; [M+H]+; CID; CE 10V
DATE: 2023.10.22
AUTHORS: Atsushi Yamamoto, Faculty of Environmental Studies, Tottori University of Environmental Studies, 1-1, Wakabadai-kita, Tottori City, Tottori 689-1111, Japan.
LICENSE: CC BY
COPYRIGHT: Atsushi Yamamoto, Faculty of Environmental Studies, Tottori University of Environmental Studies, 1-1, Wakabadai-kita, Tottori City, Tottori 689-1111, Japan.
COMMENT: This record was created by the financial support of MEXT/JSPS KAKENHI Grant Number 23HP8017 to the Mass Spectrometry Society of Japan.
CH$NAME: Thiodicarb
CH$COMPOUND_CLASS: Non-natural product
CH$FORMULA: C10H18N4O4S3
CH$EXACT_MASS: 354.049019
CH$SMILES: C/C(=N\OC(=O)N(SN(C(=O)O/N=C(/SC)\C)C)C)/SC
CH$IUPAC: InChI=1S/C10H18N4O4S3/c1-7(19-5)11-17-9(15)13(3)21-14(4)10(16)18-12-8(2)20-6/h1-6H3/b11-7+,12-8+
CH$LINK: CAS 59669-26-0
CH$LINK: CHEMSPIDER 7875353
CH$LINK: INCHIKEY XDOTVMNBCQVZKG-MKICQXMISA-N
CH$LINK: PUBCHEM CID:9601227
AC$INSTRUMENT: X500R QTOF (AB Sciex LLC, MA, USA) coupled to ExionLC AD (AB Sciex LLC, MA, USA).
AC$INSTRUMENT_TYPE: LC-ESI-QTOF
AC$MASS_SPECTROMETRY: MS_TYPE MS2
AC$MASS_SPECTROMETRY: ION_MODE POSITIVE
AC$MASS_SPECTROMETRY: COLLISION_ENERGY 10 V
AC$MASS_SPECTROMETRY: COLLISION_GAS N2
AC$MASS_SPECTROMETRY: FRAGMENTATION_MODE CID
AC$MASS_SPECTROMETRY: IONIZATION ESI
AC$CHROMATOGRAPHY: COLUMN_NAME TSKgel ODS-100S 5 um, 2.1 mm × 250 mm, TOSOH
AC$CHROMATOGRAPHY: FLOW_GRADIENT 95/5 at 0 min, 95/5 at 3 min, 0/100 at 13 min, 0/100 at 23 min, 95/5 at 23.1 min, 95/5 at 28 min
AC$CHROMATOGRAPHY: FLOW_RATE 200 ul/min
AC$CHROMATOGRAPHY: RETENTION_TIME 13.2 min
AC$CHROMATOGRAPHY: SOLVENT A water with 20 mM formic acid aquatic solution
AC$CHROMATOGRAPHY: SOLVENT B methanol with 20 mM Formic acid methanolic solution
MS$FOCUSED_ION: PRECURSOR_M/Z 355.056296
MS$FOCUSED_ION: PRECURSOR_TYPE [M+H]+
PK$SPLASH: splash10-0a4i-4916000000-91e4bcb7b03786118f4a
PK$ANNOTATION: m/z rel.int. formula exact_mass error(ppm) SMILES_of_ion HR_rules
  88.0213 663 [C3H7NS-H]+ 88.021549 0(2.83) N=C(SC)C True
  163.0534 422 [C5H10N2O2S+H]+ 163.053572 0(1.05) O=C(ON=C(SC)C)NC True
  193.0099 388 [C5H10N2O2S2-H]+ 193.009998 0(0.51) O=C(ON=C(SC)C)N(S)C True
  355.0559 999 [C10H18N4O4S3+H]+ 355.056288 0(1.09) O=C(ON=C(SC)C)N(SN(C(=O)ON=C(SC)C)C)C True
PK$NUM_PEAK: 7
PK$PEAK: m/z int. rel.int.
  88.0213 292.6 663
  107.9935 120.1 272
  149.0202 112.0 254
  163.0534 186.3 422
  193.0099 171.2 388
  209.005 73.7 167
  355.0559 440.7 999
//
