ACCESSION: MSBNK-MSSJ-MSJ02649
RECORD_TITLE: Thidiazuron; LC-ESI-QTOF; MS2; [M+H]+; CID; CE 60V
DATE: 2023.04.05
AUTHORS: Atsushi Yamamoto, Faculty of Environmental Studies, Tottori University of Environmental Studies, 1-1, Wakabadai-kita, Tottori City, Tottori 689-1111, Japan.
LICENSE: CC BY
COPYRIGHT: Atsushi Yamamoto, Faculty of Environmental Studies, Tottori University of Environmental Studies, 1-1, Wakabadai-kita, Tottori City, Tottori 689-1111, Japan.
COMMENT: This record was created by the financial support of MEXT/JSPS KAKENHI Grant Number 23HP8017 to the Mass Spectrometry Society of Japan.
CH$NAME: Thidiazuron
CH$COMPOUND_CLASS: Non-natural product
CH$FORMULA: C9H8N4OS
CH$EXACT_MASS: 220.041882
CH$SMILES: C1=CC=C(C=C1)NC(=O)NC2=CN=NS2
CH$IUPAC: InChI=1S/C9H8N4OS/c14-9(12-8-6-10-13-15-8)11-7-4-2-1-3-5-7/h1-6H,(H2,11,12,14)
CH$LINK: CAS 51707-55-2
CH$LINK: CHEMSPIDER 36635
CH$LINK: INCHIKEY HFCYZXMHUIHAQI-UHFFFAOYSA-N
CH$LINK: PUBCHEM CID:40087
AC$INSTRUMENT: X500R QTOF (AB Sciex LLC, MA, USA) coupled to ExionLC AD (AB Sciex LLC, MA, USA).
AC$INSTRUMENT_TYPE: LC-ESI-QTOF
AC$MASS_SPECTROMETRY: MS_TYPE MS2
AC$MASS_SPECTROMETRY: ION_MODE POSITIVE
AC$MASS_SPECTROMETRY: COLLISION_ENERGY 60 V
AC$MASS_SPECTROMETRY: COLLISION_GAS N2
AC$MASS_SPECTROMETRY: FRAGMENTATION_MODE CID
AC$MASS_SPECTROMETRY: IONIZATION ESI
AC$CHROMATOGRAPHY: COLUMN_NAME AQ-C18HP 3 microm, 2.1 mm × 150 mm (GL Science, Tokyo, Japan).
AC$CHROMATOGRAPHY: FLOW_GRADIENT 90/10 at 0 min, 90/10 at 8 min, 0/100 at 23 min, 0/100 at 30 min, 90/10 at 30.1 min, 90/10 at 40 min
AC$CHROMATOGRAPHY: FLOW_RATE 200 microL/min
AC$CHROMATOGRAPHY: RETENTION_TIME 21.5 min
AC$CHROMATOGRAPHY: SOLVENT A water with 2 mM Ammonium bicarbonate
AC$CHROMATOGRAPHY: SOLVENT B methanol with 2 mM Ammmonium bicarbonate
MS$FOCUSED_ION: PRECURSOR_M/Z 221.049159
MS$FOCUSED_ION: PRECURSOR_TYPE [M+H]+
PK$SPLASH: splash10-0kec-9000000000-eba25a4e0b58483782a6
PK$ANNOTATION: m/z rel.int. formula exact_mass error(ppm) SMILES_of_ion HR_rules
  30.0337 678 [CH5N-H]+ 30.033825 0(4.15) NC True
  43.029 113 [CH4N2-H]+ 43.029075 0(1.75) N=NC True
  44.9792 398 [CH4S-3H]+ 44.979349 0(3.3) SC True
  46.9947 335 [CH4S-H]+ 46.994999 0(6.35) SC True
  59.99 496 [CH5NS-3H]+ 59.990247 0(4.12) SCN True
  71.9902 162 [C2H5NS-3H]+ 71.990243 0(0.6) SC(=C)N True
  72.9983 150 [C2H5NS-2H]+ 72.998068 0(3.17) SC(=C)N False
  77.0386 999 [C6H6-H]+ 77.038578 0(0.29) C=1C=CC=CC1 True
  85.9694 141 [C2H5NOS-5H]+ 85.969512 0(1.3) O=CNCS True
  92.05 222 [C6H7N-H]+ 92.049472 0.001(5.73) NC=1C=CC=CC1 True
  102.0119 330 [C2H3N3S+H]+ 102.012045 0(1.42) N1=NC=C(S1)N True
PK$NUM_PEAK: 14
PK$PEAK: m/z int. rel.int.
  30.0337 3.1 678
  43.029 0.5 113
  44.9792 1.8 398
  45.987 0.3 75
  46.9947 1.5 335
  51.0228 1.5 341
  59.99 2.3 496
  65.0388 1.0 222
  71.9902 0.7 162
  72.9983 0.7 150
  77.0386 4.5 999
  85.9694 0.6 141
  92.05 1.0 222
  102.0119 1.5 330
//
