ACCESSION: MSBNK-MSSJ-MSJ02309
RECORD_TITLE: Avermectin B1b; LC-ESI-QTOF; MS2; ESI; POSITIVE; [M+NH4]+; CE 20 V
DATE: 2022.03.14
AUTHORS: Atsushi Yamamoto, Faculty of Environmental Studies, Tottori University of Environmental Studies, 1-1, Wakabadai-kita, Tottori City, Tottori 689-1111, Japan.
LICENSE: CC BY
COPYRIGHT: Atsushi Yamamoto, Faculty of Environmental Studies, Tottori University of Environmental Studies, 1-1, Wakabadai-kita, Tottori City, Tottori 689-1111, Japan.
COMMENT: This record was created by the financial support of MEXT/JSPS KAKENHI Grant Number 22HP8019 to the Mass Spectrometry Society of Japan.
CH$NAME: Avermectin B1b
CH$COMPOUND_CLASS: Non-natural product
CH$FORMULA: C47H70O14
CH$EXACT_MASS: 858.47656
CH$SMILES: CO[C@H]1C[C@H](O[C@H]2[C@H](C)O[C@@H](O[C@@H]3/C(C)=C/C[C@@H]4C[C@@H](C[C@]5(C=C[C@H](C)[C@@H](C(C)C)O5)O4)OC(=O)[C@@H]4C=C(C)[C@@H](O)[C@H]5OC/C(=C\C=C\[C@@H]3C)[C@@]45O)C[C@@H]2OC)O[C@@H](C)[C@@H]1O
CH$IUPAC: InChI=1S/C47H70O14/c1-24(2)41-27(5)16-17-46(61-41)22-33-19-32(60-46)15-14-26(4)42(25(3)12-11-13-31-23-54-44-39(48)28(6)18-34(45(50)57-33)47(31,44)51)58-38-21-36(53-10)43(30(8)56-38)59-37-20-35(52-9)40(49)29(7)55-37/h11-14,16-18,24-25,27,29-30,32-44,48-49,51H,15,19-23H2,1-10H3/b12-11+,26-14+,31-13+/t25-,27-,29-,30-,32+,33-,34-,35-,36-,37-,38-,39+,40-,41+,42-,43-,44+,46+,47+/m0/s1
CH$LINK: CAS 65195-56-4
CH$LINK: CHEMSPIDER 16735635
CH$LINK: INCHIKEY ZFUKERYTFURFGA-PVVXTEPVSA-N
CH$LINK: PUBCHEM CID:6858005
AC$INSTRUMENT: ExionLC AD, AB Sciex LLC, USA; X500R QTOF, AB Sciex LLC, USA.
AC$INSTRUMENT_TYPE: LC-ESI-QTOF
AC$MASS_SPECTROMETRY: MS_TYPE MS2
AC$MASS_SPECTROMETRY: ION_MODE POSITIVE
AC$MASS_SPECTROMETRY: COLLISION_ENERGY 20 V
AC$MASS_SPECTROMETRY: IONIZATION ESI
AC$CHROMATOGRAPHY: COLUMN_NAME AQ-C18HP 3 microm, 2.1 mm × 150 mm, GL Science (Tokyo Japan)
AC$CHROMATOGRAPHY: COLUMN_TEMPERATURE 40 C
AC$CHROMATOGRAPHY: FLOW_GRADIENT 95/5 at 0 min, 95/5 at 3 min, 0/100 at 13 min, 0/100 at 23 min, 95/5 at 23.1 min, 95/5 at 28 min
AC$CHROMATOGRAPHY: FLOW_RATE 200 microl/min
AC$CHROMATOGRAPHY: RETENTION_TIME 16.0 min
AC$CHROMATOGRAPHY: SOLVENT A water with 2 mM Ammonium bicarbonate
AC$CHROMATOGRAPHY: SOLVENT B methanol with 2 mM Ammmonium bicarbonate
MS$FOCUSED_ION: PRECURSOR_M/Z 876.51038
MS$FOCUSED_ION: PRECURSOR_TYPE [M+NH4]+
PK$SPLASH: splash10-0udl-0270090010-311f1608d178842deeb9
PK$ANNOTATION: m/z rel.int. formula exact_mass error(ppm) SMILES_of_ion HR_rules
  145.0869 50 [C7H14O3-H]+ 145.085926 0.001(6.72) OC1C(OCCC1OC)C True
  162.1136 61 [C7H14O3-2H+NH4]+ 162.111926 0.002(10.32) OC1C(OCCC1OC)C True
  179.1445 81 [C8H18O4+H]+ 179.12779 0.017(93.27) OCC(OC(OCCOC)C)C True
  199.1128 75 [C10H20O4-5H]+ 199.09648 0.016(81.96) OC1CCC(OCC(OC)C)OC1C True
  257.14 72 [C13H24O5-3H]+ 257.13836 0.002(6.38) OC1CCC(OC1C)OC2C(OCCC2OC)C True
  291.1965 619 [C14H26O6+H]+ 291.18022 0.016(55.91) OC1C(OC(OC2C(OCCC2OC)C)CC1OC)C True
  293.2125 330 [C13H24O7+H]+ 293.159468 0.053(180.87) OC1OCC(OC2OC(C)C(O)C(OC)C2)C(OC)C1 True
  551.3006 174 [C33H46O7-3H]+ 551.300317 0(0.51) O=C1OC2CC(OC3(OC(C(C=C3)C)C(C)C)C2)CC=C(C)C(O)C(C=CC=C4COC5CC(=CC1C45O)C)C True
  553.3164 999 [C33H46O7-H]+ 553.315967 0(0.78) O=C1OC2CC(OC3(OC(C(C=C3)C)C(C)C)C2)CC=C(C)CC(C=CC=C4COC5C(O)C(=CC1C45O)C)C True
  859.4809 171 [C47H70O14+H]+ 859.483839 0.003(3.42) O=C1OC2CC(OC3(OC(C(C=C3)C)C(C)C)C2)CC=C(C)C(OC4OC(C)C(OC5OC(C)C(O)C(OC)C5)C(OC)C4)C(C=CC=C6COC7C(O)C(=CC1C67O)C)C True
PK$NUM_PEAK: 10
PK$PEAK: m/z int. rel.int.
  145.0869 5.0382 50
  162.1136 6.1465 61
  179.1445 8.1009 81
  199.1128 7.5397 75
  257.14 7.1595 72
  291.1965 61.9828 619
  293.2125 33.0375 330
  551.3006 17.4278 174
  553.3164 100 999
  859.4809 17.0824 171
//
