ACCESSION: MSBNK-MSSJ-MSJ02770
RECORD_TITLE: Chloridazon; LC-ESI-QTOF; MS2; [M-H]-; CID; CE 50V
DATE: 2023.10.22
AUTHORS: Atsushi Yamamoto, Faculty of Environmental Studies, Tottori University of Environmental Studies, 1-1, Wakabadai-kita, Tottori City, Tottori 689-1111, Japan.
LICENSE: CC BY
COPYRIGHT: Atsushi Yamamoto, Faculty of Environmental Studies, Tottori University of Environmental Studies, 1-1, Wakabadai-kita, Tottori City, Tottori 689-1111, Japan.
COMMENT: This record was created by the financial support of MEXT/JSPS KAKENHI Grant Number 23HP8017 to the Mass Spectrometry Society of Japan.
CH$NAME: Chloridazon
CH$COMPOUND_CLASS: Non-natural product
CH$FORMULA: C10H8ClN3O
CH$EXACT_MASS: 221.03559
CH$SMILES: C1=CC=C(C=C1)N2C(=O)C(=C(C=N2)N)Cl
CH$IUPAC: InChI=1S/C10H8ClN3O/c11-9-8(12)6-13-14(10(9)15)7-4-2-1-3-5-7/h1-6H,12H2
CH$LINK: CAS 1698-60-8
CH$LINK: CHEMSPIDER 14790
CH$LINK: INCHIKEY WYKYKTKDBLFHCY-UHFFFAOYSA-N
CH$LINK: PUBCHEM CID:15546
AC$INSTRUMENT: X500R QTOF (AB Sciex LLC, MA, USA) coupled to ExionLC AD (AB Sciex LLC, MA, USA).
AC$INSTRUMENT_TYPE: LC-ESI-QTOF
AC$MASS_SPECTROMETRY: MS_TYPE MS2
AC$MASS_SPECTROMETRY: ION_MODE NEGATIVE
AC$MASS_SPECTROMETRY: COLLISION_ENERGY 50 V
AC$MASS_SPECTROMETRY: COLLISION_GAS N2
AC$MASS_SPECTROMETRY: FRAGMENTATION_MODE CID
AC$MASS_SPECTROMETRY: IONIZATION ESI
AC$CHROMATOGRAPHY: COLUMN_NAME TSKgel ODS-100S 5 um, 2.1 mm × 250 mm, TOSOH
AC$CHROMATOGRAPHY: FLOW_GRADIENT 95/5 at 0 min, 95/5 at 3 min, 0/100 at 13 min, 0/100 at 23 min, 95/5 at 23.1 min, 95/5 at 28 min
AC$CHROMATOGRAPHY: FLOW_RATE 200 ul/min
AC$CHROMATOGRAPHY: RETENTION_TIME 11.7 min
AC$CHROMATOGRAPHY: SOLVENT A water with 20 mM formic acid aquatic solution
AC$CHROMATOGRAPHY: SOLVENT B methanol with 20 mM Formic acid methanolic solution
MS$FOCUSED_ION: PRECURSOR_M/Z 220.028313
MS$FOCUSED_ION: PRECURSOR_TYPE [M-H]-
PK$SPLASH: splash10-0089-9000000000-460f9510184da9695131
PK$ANNOTATION: m/z rel.int. formula exact_mass error(ppm) SMILES_of_ion HR_rules
  41.0145 81 [CH4N2-3H]- 41.014522 0(0.55) N(=C)N True
  41.9986 87 [CH3NO-3H]- 41.998539 0(1.46) O=CN True
  50.0036 55 [C3H5N-5H]- 50.003622 0(0.43) N=CC=C True
  65.0146 84 [C3H6N2-5H]- 65.014524 0(1.17) N=CC(=C)N True
  65.9986 222 [C3H5NO-5H]- 65.99854 0(0.9) O=CC=CN True
  73.9803 110 [C2H4ClN-3H]- 73.980301 0(0.01) ClC=CN True
  74.9644 879 [C2H3ClO-3H]- 74.964317 0(1.11) O=CCCl True
  92.0505 55 [C6H7N-H]- 92.05057 0(0.76) NC=1C=CC=CC1 True
  117.0459 136 [C7H8N2-3H]- 117.045822 0(0.67) N(=C)NC=1C=CC=CC1 True
PK$NUM_PEAK: 10
PK$PEAK: m/z int. rel.int.
  34.9694 51.1 999
  41.0145 4.2 81
  41.9986 4.5 87
  50.0036 2.8 55
  65.0146 4.3 84
  65.9986 11.3 222
  73.9803 5.6 110
  74.9644 45.0 879
  92.0505 2.8 55
  117.0459 7.0 136
//
