ACCESSION: MSBNK-MSSJ-MSJ01858
RECORD_TITLE: Amobarbital; LC-ESI-QQ; MS2; ESI; NEGATIVE; CID; CE 30 V; [M-H]-
DATE: 2023.03.28
AUTHORS: Koji Yamaguchi, Department of Legal Medicine, Nippon Medical School, 1715 Kamagari, Inzai-shi, Chiba 270-1694, Japan.
LICENSE: CC BY
COPYRIGHT: Koji Yamaguchi, Department of Legal Medicine, Nippon Medical School, 1715 Kamagari, Inzai-shi, Chiba 270-1694, Japan.
COMMENT: Original data are in the 20230328-3.xlsx file. pKa of amobarbital is 7.84.
COMMENT: This record was created by the financial support of MEXT/JSPS KAKENHI Grant Number 23HP8017 to the Mass Spectrometry Society of Japan.
CH$NAME: Amobarbital
CH$COMPOUND_CLASS: Non-natural product
CH$FORMULA: C11H18N2O3
CH$EXACT_MASS: 226.131735
CH$SMILES: CCC1(C(=O)NC(=O)NC1=O)CCC(C)C
CH$IUPAC: InChI=1S/C11H18N2O3/c1-4-11(6-5-7(2)3)8(14)12-10(16)13-9(11)15/h7H,4-6H2,1-3H3,(H2,12,13,14,15,16)
CH$LINK: CAS 57-43-2
CH$LINK: CHEMSPIDER 2079
CH$LINK: INCHIKEY VIROVYVQCGLCII-UHFFFAOYSA-N
CH$LINK: PUBCHEM CID:2164
AC$INSTRUMENT: LCMS-8040 coupled to Nexera XR (Shimadzu, Kyoto, Japan).
AC$INSTRUMENT_TYPE: LC-ESI-QQ
AC$MASS_SPECTROMETRY: MS_TYPE MS2
AC$MASS_SPECTROMETRY: ION_MODE NEGATIVE
AC$MASS_SPECTROMETRY: COLLISION_ENERGY 30 V
AC$MASS_SPECTROMETRY: FRAGMENTATION_MODE CID
AC$MASS_SPECTROMETRY: IONIZATION ESI
AC$CHROMATOGRAPHY: COLUMN_NAME InertSustain C18 ID 2.1 microm, 2.1 x 100 mm (GL Science, Tokyo, Japan).
AC$CHROMATOGRAPHY: FLOW_GRADIENT 90/10 at 0 min, linear gradient from 90/10 to 2/98 at 0-9 min, 2/98 at 9-12 min, linear gradient from 2/98 to 90/10 at 12-12.1 min, 90/10 at 12.1-15 min.
AC$CHROMATOGRAPHY: FLOW_RATE 200 microl/min
AC$CHROMATOGRAPHY: RETENTION_TIME 8.536 min
AC$CHROMATOGRAPHY: SOLVENT A water with 10 mM ammonium formate
AC$CHROMATOGRAPHY: SOLVENT B methanol
MS$FOCUSED_ION: PRECURSOR_M/Z 225.124458
MS$FOCUSED_ION: PRECURSOR_TYPE [M-H]-
PK$SPLASH: splash10-0006-9000000000-3c34d3f35a3a227ade94
PK$NUM_PEAK: 3
PK$PEAK: m/z int. rel.int.
  42.1 234161 999
  85.1 2858 12
  224.9 3739 16
//
