ACCESSION: MSBNK-MSSJ-MSJ00466
RECORD_TITLE: Creatinine; ESI-QTOF; MS2; POSITIVE; [M+H]+; CID; 60 V
DATE: 2021.02.15
AUTHORS: Atsushi Yamamoto, Faculty of Environmental Studies, Tottori University of Environmental Studies, 1-1, Wakabadai-kita, Tottori City, Tottori 689-1111, Japan.
LICENSE: CC BY
COPYRIGHT: Atsushi Yamamoto, Faculty of Environmental Studies, Tottori University of Environmental Studies, 1-1, Wakabadai-kita, Tottori City, Tottori 689-1111, Japan.
COMMENT: The sample was injected by direct infusion.
COMMENT: This record was created by the financial support of MEXT/JSPS KAKENHI Grant Number 20HP8016 to the Mass Spectrometry Society of Japan.
CH$NAME: Creatinine
CH$COMPOUND_CLASS: Natural product; Imidazolidinone
CH$FORMULA: C4H7N3O
CH$EXACT_MASS: 113.05890
CH$SMILES: CN1CC(=O)N=C1N
CH$IUPAC: InChI=1S/C4H7N3O/c1-7-2-3(8)6-4(7)5/h2H2,1H3,(H2,5,6,8)
CH$LINK: CAS 60-27-5
CH$LINK: CHEBI CHEBI:16737
CH$LINK: CHEMSPIDER 568
CH$LINK: INCHIKEY DDRJAANPRJIHGJ-UHFFFAOYSA-N
CH$LINK: PUBCHEM CID:588
AC$INSTRUMENT: X500R QTOF (AB Sciex LLC, USA)
AC$INSTRUMENT_TYPE: ESI-QTOF
AC$MASS_SPECTROMETRY: MS_TYPE MS2
AC$MASS_SPECTROMETRY: ION_MODE POSITIVE
AC$MASS_SPECTROMETRY: COLLISION_ENERGY 60 V
AC$MASS_SPECTROMETRY: FRAGMENTATION_MODE CID
AC$MASS_SPECTROMETRY: IONIZATION ESI
MS$FOCUSED_ION: PRECURSOR_M/Z 114.06618
MS$FOCUSED_ION: PRECURSOR_TYPE [M+H]+
PK$SPLASH: splash10-0006-9000000000-1a99dc19e837ee0afc3b
PK$NUM_PEAK: 7
PK$PEAK: m/z int. rel.int.
  28.0181 3.56 145
  29.0133 1.01 41
  30.0338 1.06 43
  42.0339 1.56 63
  43.0291 24.60 999
  44.0495 16.16 656
  55.9347 2.02 82
//
