ACCESSION: MSBNK-MSSJ-MSJ02206
RECORD_TITLE: 1,6-Di(Cyanoguanidino)hexane; ESI-QTOF; MS2; ESI; NEGATIVE; [M-H]-; CE 30 V
DATE: 2021.10.06
AUTHORS: Atsushi Yamamoto, Faculty of Environmental Studies, Tottori University of Environmental Studies, 1-1, Wakabadai-kita, Tottori City, Tottori 689-1111, Japan.
LICENSE: CC BY
COPYRIGHT: Atsushi Yamamoto, Faculty of Environmental Studies, Tottori University of Environmental Studies, 1-1, Wakabadai-kita, Tottori City, Tottori 689-1111, Japan.
COMMENT: This record was created by the financial support of MEXT/JSPS KAKENHI Grant Number 22HP8019 to the Mass Spectrometry Society of Japan.
COMMENT: The sample was injected by direct infusion.
CH$NAME: 1,6-Di(Cyanoguanidino)hexane
CH$COMPOUND_CLASS: Non-natural product
CH$FORMULA: C10H18N8
CH$EXACT_MASS: 250.16541
CH$SMILES: N#CNC(=N)NCCCCCCNC(=N)NC#N
CH$IUPAC: InChI=1S/C10H18N8/c11-7-17-9(13)15-5-3-1-2-4-6-16-10(14)18-8-12/h1-6H2,(H3,13,15,17)(H3,14,16,18)
CH$LINK: CAS 15894-70-9
CH$LINK: CHEMSPIDER 76812
CH$LINK: INCHIKEY YXZZOMVBHPCKMM-UHFFFAOYSA-N
CH$LINK: PUBCHEM CID:85172
AC$INSTRUMENT: X500R QTOF (AB Sciex LLC, USA)
AC$INSTRUMENT_TYPE: ESI-QTOF
AC$MASS_SPECTROMETRY: MS_TYPE MS2
AC$MASS_SPECTROMETRY: ION_MODE NEGATIVE
AC$MASS_SPECTROMETRY: COLLISION_ENERGY 30 V
AC$MASS_SPECTROMETRY: IONIZATION ESI
MS$FOCUSED_ION: PRECURSOR_M/Z 249.15813
MS$FOCUSED_ION: PRECURSOR_TYPE [M-H]-
PK$SPLASH: splash10-014l-6900000000-b9fedbb65b86e9e5858b
PK$ANNOTATION: m/z rel.int. formula exact_mass error(ppm) SMILES_of_ion HR_rules
  41.0146 888 [CH2N2-H]- 41.014521 0(1.93) N#CN True
  66.0098 66 [C2H3N3-3H]- 66.009773 0(0.41) N#CNC=N True
  123.0928 355 [C7H16N2-5H]- 123.092771 0(0.24) N=CNCCCCCC True
  165.1145 999 [C8H16N4-3H]- 165.11457 0(0.43) N#CNC(=N)NCCCCCC True
PK$NUM_PEAK: 4
PK$PEAK: m/z int. rel.int.
  41.0146 88.8839 888
  66.0098 6.6126 66
  123.0928 35.5513 355
  165.1145 100 999
//
