ACCESSION: MSBNK-MSSJ-MSJ02647
RECORD_TITLE: Thidiazuron; LC-ESI-QTOF; MS2; [M+H]+; CID; CE 40V
DATE: 2023.04.05
AUTHORS: Atsushi Yamamoto, Faculty of Environmental Studies, Tottori University of Environmental Studies, 1-1, Wakabadai-kita, Tottori City, Tottori 689-1111, Japan.
LICENSE: CC BY
COPYRIGHT: Atsushi Yamamoto, Faculty of Environmental Studies, Tottori University of Environmental Studies, 1-1, Wakabadai-kita, Tottori City, Tottori 689-1111, Japan.
COMMENT: This record was created by the financial support of MEXT/JSPS KAKENHI Grant Number 23HP8017 to the Mass Spectrometry Society of Japan.
CH$NAME: Thidiazuron
CH$COMPOUND_CLASS: Non-natural product
CH$FORMULA: C9H8N4OS
CH$EXACT_MASS: 220.041882
CH$SMILES: C1=CC=C(C=C1)NC(=O)NC2=CN=NS2
CH$IUPAC: InChI=1S/C9H8N4OS/c14-9(12-8-6-10-13-15-8)11-7-4-2-1-3-5-7/h1-6H,(H2,11,12,14)
CH$LINK: CAS 51707-55-2
CH$LINK: CHEMSPIDER 36635
CH$LINK: INCHIKEY HFCYZXMHUIHAQI-UHFFFAOYSA-N
CH$LINK: PUBCHEM CID:40087
AC$INSTRUMENT: X500R QTOF (AB Sciex LLC, MA, USA) coupled to ExionLC AD (AB Sciex LLC, MA, USA).
AC$INSTRUMENT_TYPE: LC-ESI-QTOF
AC$MASS_SPECTROMETRY: MS_TYPE MS2
AC$MASS_SPECTROMETRY: ION_MODE POSITIVE
AC$MASS_SPECTROMETRY: COLLISION_ENERGY 40 V
AC$MASS_SPECTROMETRY: COLLISION_GAS N2
AC$MASS_SPECTROMETRY: FRAGMENTATION_MODE CID
AC$MASS_SPECTROMETRY: IONIZATION ESI
AC$CHROMATOGRAPHY: COLUMN_NAME AQ-C18HP 3 microm, 2.1 mm × 150 mm (GL Science, Tokyo, Japan).
AC$CHROMATOGRAPHY: FLOW_GRADIENT 90/10 at 0 min, 90/10 at 8 min, 0/100 at 23 min, 0/100 at 30 min, 90/10 at 30.1 min, 90/10 at 40 min
AC$CHROMATOGRAPHY: FLOW_RATE 200 microL/min
AC$CHROMATOGRAPHY: RETENTION_TIME 21.5 min
AC$CHROMATOGRAPHY: SOLVENT A water with 2 mM Ammonium bicarbonate
AC$CHROMATOGRAPHY: SOLVENT B methanol with 2 mM Ammmonium bicarbonate
MS$FOCUSED_ION: PRECURSOR_M/Z 221.049159
MS$FOCUSED_ION: PRECURSOR_TYPE [M+H]+
PK$SPLASH: splash10-0udi-7900000000-ce81503acfa9d1fd4e91
PK$ANNOTATION: m/z rel.int. formula exact_mass error(ppm) SMILES_of_ion HR_rules
  30.0338 287 [CH5N-H]+ 30.033825 0(0.82) NC True
  44.9791 70 [CH4S-3H]+ 44.979349 0(5.52) SC True
  46.9947 100 [CH4S-H]+ 46.994999 0(6.35) SC True
  59.9902 53 [CH5NS-3H]+ 59.990247 0(0.79) SCN True
  71.9904 96 [C2H5NS-3H]+ 71.990243 0(2.18) SC(=C)N True
  77.0388 228 [C6H6-H]+ 77.038578 0(2.89) C=1C=CC=CC1 True
  92.0494 133 [C6H7N-H]+ 92.049472 0(0.79) NC=1C=CC=CC1 True
  94.0655 115 [C6H7N+H]+ 94.065123 0(4.01) NC=1C=CC=CC1 True
  102.0119 999 [C2H3N3S+H]+ 102.012045 0(1.42) N1=NC=C(S1)N True
  127.9913 237 [C3H3N3OS-H]+ 127.991306 0(0.05) O=CNC=1SN=NC1 True
PK$NUM_PEAK: 10
PK$PEAK: m/z int. rel.int.
  30.0338 3.9 287
  44.9791 1.0 70
  46.9947 1.4 100
  59.9902 0.7 53
  71.9904 1.3 96
  77.0388 3.1 228
  92.0494 1.8 133
  94.0655 1.6 115
  102.0119 13.7 999
  127.9913 3.3 237
//
