ACCESSION: MSBNK-MSSJ-MSJ02125
RECORD_TITLE: Diphenylguanidine; ESI-QTOF; MS2; ESI; POSITIVE; [M+H]+; CE 50 V
DATE: 2021.10.06
AUTHORS: Atsushi Yamamoto, Faculty of Environmental Studies, Tottori University of Environmental Studies, 1-1, Wakabadai-kita, Tottori City, Tottori 689-1111, Japan.
LICENSE: CC BY
COPYRIGHT: Atsushi Yamamoto, Faculty of Environmental Studies, Tottori University of Environmental Studies, 1-1, Wakabadai-kita, Tottori City, Tottori 689-1111, Japan.
COMMENT: This record was created by the financial support of MEXT/JSPS KAKENHI Grant Number 22HP8019 to the Mass Spectrometry Society of Japan.
COMMENT: The sample was injected by direct infusion.
CH$NAME: Diphenylguanidine
CH$COMPOUND_CLASS: Non-natural product
CH$FORMULA: C13H13N3
CH$EXACT_MASS: 211.11093
CH$SMILES: C1=CC=C(C=C1)NC(=NC2=CC=CC=C2)N
CH$IUPAC: InChI=1S/C13H13N3/c14-13(15-11-7-3-1-4-8-11)16-12-9-5-2-6-10-12/h1-10H,(H3,14,15,16)
CH$LINK: CAS 102-06-7
CH$LINK: CHEMSPIDER 7313
CH$LINK: INCHIKEY OWRCNXZUPFZXOS-UHFFFAOYSA-N
CH$LINK: PUBCHEM CID:7594
AC$INSTRUMENT: X500R QTOF (AB Sciex LLC, USA)
AC$INSTRUMENT_TYPE: ESI-QTOF
AC$MASS_SPECTROMETRY: MS_TYPE MS2
AC$MASS_SPECTROMETRY: ION_MODE POSITIVE
AC$MASS_SPECTROMETRY: COLLISION_ENERGY 50 V
AC$MASS_SPECTROMETRY: IONIZATION ESI
MS$FOCUSED_ION: PRECURSOR_M/Z 212.11821
MS$FOCUSED_ION: PRECURSOR_TYPE [M+H]+
PK$SPLASH: splash10-00kf-9200000000-e53e1d7bde0ed14cdd7d
PK$ANNOTATION: m/z rel.int. formula exact_mass error(ppm) SMILES_of_ion HR_rules
  39.0236 62 [C3H4-H]+ 39.022927 0(17.2) C1=CC1 True
  51.0226 677 [C4H4-H]+ 51.022927 0(6.4) C1=CC=C1 True
  65.0382 753 [C5H6-H]+ 65.038577 0(5.8) C1=CC=CC1 True
  77.0379 755 [C6H6-H]+ 77.038578 0.001(8.8) C=1C=CC=CC1 True
  92.0489 894 [C6H7N-H]+ 92.049472 0.001(6.22) C1=CC=CCC=N1 True
  94.0646 880 [C6H7N+H]+ 94.065123 0.001(5.56) NC=1C=CC=CC1 True
  119.0597 999 [C7H8N2-H]+ 119.060375 0.001(5.67) N(=CN)C=1C=CC=CC1 True
PK$NUM_PEAK: 8
PK$PEAK: m/z int. rel.int.
  39.0236 6.2395 62
  51.0226 67.7254 677
  53.0393 8.0249 80
  65.0382 75.3952 753
  77.0379 75.5445 755
  92.0489 89.4811 894
  94.0646 88.0825 880
  119.0597 100 999
//
