ACCESSION: MSBNK-MSSJ-MSJ00275
RECORD_TITLE: Pentoxazone; ESI-QTOF; MS2; POSITIVE; [M+H]+; CID; 30 V
DATE: 2020.03.18
AUTHORS: Atsushi Yamamoto, Faculty of Environmental Studies, Tottori University of Environmental Studies, 1-1, Wakabadai-kita, Tottori City, Tottori 689-1111, Japan.
LICENSE: CC BY
COPYRIGHT: Atsushi Yamamoto, Faculty of Environmental Studies, Tottori University of Environmental Studies, 1-1, Wakabadai-kita, Tottori City, Tottori 689-1111, Japan.
COMMENT: The sample was injected by direct infusion.
COMMENT: This record was created by the financial support of MEXT/JSPS KAKENHI Grant Number 19HP8024 to the Mass Spectrometry Society of Japan.
CH$NAME: Pentoxazone
CH$COMPOUND_CLASS: Non-natural product
CH$FORMULA: C17H17ClFNO4
CH$EXACT_MASS: 353.0830
CH$SMILES: CC(=C1C(=O)N(C(=O)O1)c2cc(c(cc2F)Cl)OC3CCCC3)C
CH$IUPAC: InChI=1S/C17H17ClFNO4/c1-9(2)15-16(21)20(17(22)24-15)13-8-14(11(18)7-12(13)19)23-10-5-3-4-6-10/h7-8,10H,3-6H2,1-2H3
CH$LINK: CAS 110956-75-7
CH$LINK: CHEMSPIDER 9888955
CH$LINK: INCHIKEY JZPKLLLUDLHCEL-UHFFFAOYSA-N
CH$LINK: PUBCHEM CID:11714234
AC$INSTRUMENT: X500R QTOF (AB Sciex LLC, USA)
AC$INSTRUMENT_TYPE: ESI-QTOF
AC$MASS_SPECTROMETRY: MS_TYPE MS2
AC$MASS_SPECTROMETRY: ION_MODE POSITIVE
AC$MASS_SPECTROMETRY: COLLISION_ENERGY 30 V
AC$MASS_SPECTROMETRY: FRAGMENTATION_MODE CID
AC$MASS_SPECTROMETRY: IONIZATION ESI
MS$FOCUSED_ION: PRECURSOR_M/Z 354.0903
MS$FOCUSED_ION: PRECURSOR_TYPE [M+H]+
PK$SPLASH: splash10-000i-1790000000-aa69341cece3c55bb7bb
PK$NUM_PEAK: 21
PK$PEAK: m/z int. rel.int.
  43.0177 0.059 24
  55.0541 0.126 52
  69.0698 0.126 51
  70.0412 0.084 34
  71.0486 0.102 42
  96.0443 0.045 18
  99.0439 0.12 49
  159.996 0.165 67
  164.0505 0.083 34
  165.0583 0.084 34
  178.0664 0.291 119
  179.074 0.216 88
  186.0116 1.228 502
  187.9909 0.366 150
  192.0454 0.096 39
  194.0367 0.094 38
  200.0272 0.204 83
  206.0611 0.135 55
  207.069 0.377 154
  242.0378 0.169 69
  286.0276 2.446 999
//
