ACCESSION: MSBNK-UoB-XB000401
RECORD_TITLE: lansoprazole_BTP_M2; LC-ESI-FT; MS2; CE: 25,60,100%; R=17500; [M+H]+
DATE: 2023.04.25
AUTHORS: Tara J. Bowen, University of Birmingham
LICENSE: CC BY
PUBLICATION: Bowen, T.J.; Southam, A.D.; Hall, A.R.; Weber, R.J.M.; Lloyd, G.R.; Macdonald, R.; Wilson, A.; Pointon, A.; Viant, M.R. Simultaneously discovering the fate and biochemical effects of xenobiotics through untargeted metabolomics. Nat. Commun. (under review)
COMMENT: CONFIDENCE Probable structure via diagnostic evidence (Level 2b)
COMMENT: INTERNAL_ID 3628
CH$NAME: lansoprazole_BTP_M2
CH$COMPOUND_CLASS: N/A; Biotransformation product
CH$FORMULA: C8H11NO3S
CH$EXACT_MASS: 201.0460
CH$SMILES: CC1=C(O)C=CN=C1CS(CO)=O
CH$IUPAC: InChI=1S/C8H11NO3S/c1-6-7(4-13(12)5-10)9-3-2-8(6)11/h2-3,10H,4-5H2,1H3,(H,9,11)
CH$LINK: INCHIKEY WUBKCPXLWABXHI-UHFFFAOYSA-N
AC$INSTRUMENT: Dionex Ultimate 3000 UHPLC Thermo Scientific; Q Exactive Focus Orbitrap MS Thermo Scientific
AC$INSTRUMENT_TYPE: LC-ESI-FT
AC$MASS_SPECTROMETRY: MS_TYPE MS2
AC$MASS_SPECTROMETRY: ION_MODE POSITIVE
AC$MASS_SPECTROMETRY: IONIZATION ESI
AC$MASS_SPECTROMETRY: FRAGMENTATION_MODE HCD
AC$MASS_SPECTROMETRY: COLLISION_ENERGY 25,60,100% (stepped)
AC$MASS_SPECTROMETRY: RESOLUTION 17500
AC$CHROMATOGRAPHY: COLUMN_NAME Accucore 150 Amide, 2.6um, 2.1x100mm, Thermo Scientific
AC$CHROMATOGRAPHY: FLOW_GRADIENT 99/1 at 0 min, 99/1 at 1 min, 85:15 at 3 min, 50/50 at 6 min, 5/95 at 9 min, 5/95 at 10 min, 99/1 at 10.5 min, 99/1 at 15 min
AC$CHROMATOGRAPHY: FLOW_RATE 0.5 mL/min
AC$CHROMATOGRAPHY: RETENTION_TIME 0.018 min
MS$FOCUSED_ION: BASE_PEAK 202.0532
MS$FOCUSED_ION: PRECURSOR_M/Z 202.0532
MS$FOCUSED_ION: PRECURSOR_TYPE [M+H]+
MS$DATA_PROCESSING: RECALIBRATE loess on assigned fragments and MS1
MS$DATA_PROCESSING: REANALYZE Peaks with additional N2/O included
MS$DATA_PROCESSING: WHOLE RMassBank 3.4.0
PK$SPLASH: splash10-00dl-3900000000-33784df8744bbfa6361b
PK$ANNOTATION: m/z tentative_formula formula_count mass error(ppm)
  94.065 C6H8N+ 1 94.0651 -1.01
  102.0464 C8H6+ 1 102.0464 -0.3
  123.0678 C7H9NO+ 1 123.0679 -0.54
PK$NUM_PEAK: 3
PK$PEAK: m/z int. rel.int.
  94.065 19582.2 513
  102.0464 12824.9 336
  123.0678 38067.3 999
//
